34
frame_0006
O      -2.564482255400000      2.719666069400000     -0.308934786400000
C      -1.718875491200000      2.558368254200000     -1.305459928600000
O      -1.768370936900000      3.196454684400000     -2.319913304100000
H      -2.400662862700000      2.072359422200000      0.436752999000000
C      -0.614970314800000      1.505805390900000     -1.065545820700000
H      -0.008343168900000      1.851887230700000     -0.217303386600000
H       0.013369260600000      1.455834667600000     -1.953610702200000
N      -1.125853141800000      0.180406952100000     -0.777787173900000
H      -0.896038653100000     -0.586780502700000     -1.395505215300000
C      -1.722650619200000     -0.163206333000000      0.367049096100000
O      -2.076290494000000      0.643324440700000      1.221293694400000
C      -1.917604802200000     -1.662849086700000      0.535022326300000
H      -2.823176851800000     -1.814389955100000      1.146020170200000
N      -1.982783421900000     -2.296416803500000     -0.774805504100000
H      -2.854938717400000     -2.062348322600000     -1.237623928400000
H      -1.945431696400000     -3.304906750400000     -0.676838068800000
C      -0.708919692600000     -2.214094358100000      1.326735350400000
H      -0.839533598100000     -3.292255925400000      1.445432243900000
H      -0.711314463300000     -1.753489513500000      2.315284790400000
C       0.581287713400000     -1.926254571000000      0.635851420800000
C       1.201276037600000     -2.685394543300000     -0.313493848100000
H       0.916494277800000     -3.640726984400000     -0.710541900000000
N       2.334002634200000     -2.057351300000000     -0.754906509700000
H       2.976113404600000     -2.423720805600000     -1.436342345200000
C       2.471414926000000     -0.871507701100000     -0.092670028000000
C       3.446153836500000      0.113155182600000     -0.194758836400000
H       4.274873695800000      0.008577876700000     -0.879414345100000
C       3.316790606700000      1.223782595000000      0.610470585900000
H       4.055104650900000      2.009653886600000      0.557025289300000
C       2.247680978100000      1.354291180600000      1.501976220400000
H       2.186993119100000      2.239354156900000      2.117972748200000
C       1.278987274400000      0.381513262300000      1.609507890700000
H       0.456538363400000      0.494188880600000      2.299874798400000
C       1.378950636200000     -0.750467038800000      0.799276893100000
