      -----------------------------------------------------------      
     |                   =====================                   |     
     |                           x T B                           |     
     |                   =====================                   |     
     |                         S. Grimme                         |     
     |          Mulliken Center for Theoretical Chemistry        |     
     |                    University of Bonn                     |     
      -----------------------------------------------------------      

   * xtb version 6.7.1-6.fc44.fc44 compiled by Fedora project on Sun Jan 18 23:32:34 UTC 2026

   xtb is free software: you can redistribute it and/or modify it under
   the terms of the GNU Lesser General Public License as published by
   the Free Software Foundation, either version 3 of the License, or
   (at your option) any later version.
   
   xtb is distributed in the hope that it will be useful,
   but WITHOUT ANY WARRANTY; without even the implied warranty of
   MERCHANTABILITY or FITNESS FOR A PARTICULAR PURPOSE.  See the
   GNU Lesser General Public License for more details.
   
   Cite this work as:
   * C. Bannwarth, E. Caldeweyher, S. Ehlert, A. Hansen, P. Pracht,
     J. Seibert, S. Spicher, S. Grimme, WIREs Comput. Mol. Sci., 2020, 11,
     e01493. DOI: 10.1002/wcms.1493
   
   for GFN2-xTB:
   * C. Bannwarth, S. Ehlert and S. Grimme., J. Chem. Theory Comput., 2019,
     15, 1652-1671. DOI: 10.1021/acs.jctc.8b01176
   for GFN1-xTB:
   * S. Grimme, C. Bannwarth, P. Shushkov, J. Chem. Theory Comput., 2017,
     13, 1989-2009. DOI: 10.1021/acs.jctc.7b00118
   for GFN0-xTB:
   * P. Pracht, E. Caldeweyher, S. Ehlert, S. Grimme, ChemRxiv, 2019, preprint.
     DOI: 10.26434/chemrxiv.8326202.v1
   for GFN-FF:
   * S. Spicher and S. Grimme, Angew. Chem. Int. Ed., 2020, 59, 15665-15673.
     DOI: 10.1002/anie.202004239
   
   for ALPB and GBSA implicit solvation:
   * S. Ehlert, M. Stahn, S. Spicher, S. Grimme, J. Chem. Theory Comput.,
     2021, 17, 4250-4261. DOI: 10.1021/acs.jctc.1c00471
   
   for ddCOSMO and CPCM-X implicit solvation:
   * M. Stahn, S. Ehlert, S. Grimme, J. Phys. Chem. A,
     2023, XX, XXXX-XXXX. DOI: 10.1021/acs.jpca.3c04382
   
   for DFT-D4:
   * E. Caldeweyher, C. Bannwarth and S. Grimme, J. Chem. Phys., 2017,
     147, 034112. DOI: 10.1063/1.4993215
   * E. Caldeweyher, S. Ehlert, A. Hansen, H. Neugebauer, S. Spicher,
     C. Bannwarth and S. Grimme, J. Chem. Phys., 2019, 150, 154122.
     DOI: 10.1063/1.5090222
   * E. Caldeweyher, J.-M. Mewes, S. Ehlert and S. Grimme, Phys. Chem. Chem. Phys.
     2020, 22, 8499-8512. DOI: 10.1039/D0CP00502A
   
   for sTDA-xTB:
   * S. Grimme and C. Bannwarth, J. Chem. Phys., 2016, 145, 054103.
     DOI: 10.1063/1.4959605
   
   in the mass-spec context:
   * V. Asgeirsson, C. Bauer and S. Grimme, Chem. Sci., 2017, 8, 4879.
     DOI: 10.1039/c7sc00601b
   * J. Koopman and S. Grimme, ACS Omega 2019, 4, 12, 15120-15133.
     DOI: 10.1021/acsomega.9b02011
   
   for metadynamics refer to:
   * S. Grimme, J. Chem. Theory Comput., 2019, 155, 2847-2862
     DOI: 10.1021/acs.jctc.9b00143
   
   for SPH calculations refer to:
   * S. Spicher and S. Grimme, J. Chem. Theory Comput., 2021, 17, 1701-1714
     DOI: 10.1021/acs.jctc.0c01306
   
   for ONIOM refer to:
   * C. Plett, A. Katbashev, S. Ehlert, S. Grimme, M. Bursch,
     Phys. Chem. Chem. Phys., 2023, 25, 17860-17868. DOI: 10.1039/D3CP02178E
   
   for DIPRO refer to:
   * J. Kohn, N. Gildemeister, S. Grimme, D. Fazzi, A. Hansen,
     J. Chem. Phys., 2023, just accepted.
   
   for PTB refer to:
   * S. Grimme, M. Mueller, A. Hansen, J. Chem. Phys., 2023, 158, 124111.
     DOI: 10.1063/5.0137838
   
   with help from (in alphabetical order)
   P. Atkinson, C. Bannwarth, F. Bohle, G. Brandenburg, E. Caldeweyher
   M. Checinski, S. Dohm, S. Ehlert, S. Ehrlich, I. Gerasimov, C. Hölzer
   A. Katbashev, J. Kohn, J. Koopman, C. Lavigne, S. Lehtola, F. März, M. Müller,
   F. Musil, H. Neugebauer, J. Pisarek, C. Plett, P. Pracht, F. Pultar,
   J. Seibert, P. Shushkov, S. Spicher, M. Stahn, M. Steiner, T. Strunk,
   J. Stückrath, T. Rose, and J. Unsleber
   
 * started run on 2026/10/01 at 18:03:05.932     
   ID    Z sym.   atoms
    1    8 O      1, 3, 11
    2    6 C      2, 5, 10, 12, 17, 20, 21, 25, 26, 28, 30, 32, 34
    3    1 H      4, 6, 7, 9, 13, 15, 16, 18, 19, 22, 24, 27, 29, 31, 33
    4    7 N      8, 14, 23

           -------------------------------------------------
          |                Calculation Setup                |
           -------------------------------------------------

          program call               : /usr/bin/xtb input.xyz --opt --gfn 2 --chrg 0 --uhf 0
          hostname                   : fedora
          coordinate file            : input.xyz
          omp threads                :                    16


           -------------------------------------------------
          |                 G F N 2 - x T B                 |
           -------------------------------------------------

        Reference                      10.1021/acs.jctc.8b01176
      * Hamiltonian:
        H0-scaling (s, p, d)           1.850000    2.230000    2.230000
        zeta-weighting                 0.500000
      * Dispersion:
        s8                             2.700000
        a1                             0.520000
        a2                             5.000000
        s9                             5.000000
      * Repulsion:
        kExp                           1.500000    1.000000
        rExp                           1.000000
      * Coulomb:
        alpha                          2.000000
        third order                    shell-resolved
        anisotropic                    true
        a3                             3.000000
        a5                             4.000000
        cn-shift                       1.200000
        cn-exp                         4.000000
        max-rad                        5.000000


          ...................................................
          :                      SETUP                      :
          :.................................................:
          :  # basis functions                  91          :
          :  # atomic orbitals                  91          :
          :  # shells                           53          :
          :  # electrons                       100          :
          :  max. iterations                   250          :
          :  Hamiltonian                  GFN2-xTB          :
          :  restarted?                      false          :
          :  GBSA solvation                  false          :
          :  PC potential                    false          :
          :  electronic temp.          300.0000000     K    :
          :  accuracy                    1.0000000          :
          :  -> integral cutoff          0.2500000E+02      :
          :  -> integral neglect         0.1000000E-07      :
          :  -> SCF convergence          0.1000000E-05 Eh   :
          :  -> wf. convergence          0.1000000E-03 e    :
          :  Broyden damping             0.4000000          :
          :  net charge                          0          :
          :  unpaired electrons                  0          :
          ...................................................

 iter      E             dE          RMSdq      gap      omega  full diag
   1    -57.0887214 -0.570887E+02  0.404E+00    3.19       0.0  T
   2    -57.2225488 -0.133827E+00  0.236E+00    3.61       1.0  T
   3    -57.2307477 -0.819892E-02  0.130E+00    3.65       1.0  T
   4    -57.2299195  0.828187E-03  0.536E-01    3.57       1.0  T
   5    -57.2388039 -0.888433E-02  0.115E-01    3.60       1.0  T
   6    -57.2389561 -0.152253E-03  0.590E-02    3.60       1.0  T
   7    -57.2389899 -0.337878E-04  0.258E-02    3.60       1.0  T
   8    -57.2389903 -0.413068E-06  0.107E-02    3.60       1.6  T
   9    -57.2389923 -0.197791E-05  0.360E-03    3.60       4.8  T
  10    -57.2389924 -0.564965E-07  0.153E-03    3.60      11.2  T
  11    -57.2389924 -0.156871E-07  0.651E-04    3.60      26.3  T
  12    -57.2389924 -0.451756E-08  0.235E-04    3.60      73.0  T

   *** convergence criteria satisfied after 12 iterations ***

         #    Occupation            Energy/Eh            Energy/eV
      -------------------------------------------------------------
         1        2.0000           -0.7306397             -19.8817
       ...           ...                  ...                  ...
        44        2.0000           -0.4246775             -11.5561
        45        2.0000           -0.4235354             -11.5250
        46        2.0000           -0.4181842             -11.3794
        47        2.0000           -0.4000840             -10.8868
        48        2.0000           -0.3969459             -10.8014
        49        2.0000           -0.3908959             -10.6368
        50        2.0000           -0.3734680             -10.1626 (HOMO)
        51                         -0.2411062              -6.5608 (LUMO)
        52                         -0.2314794              -6.2989
        53                         -0.2262542              -6.1567
        54                         -0.2060185              -5.6060
        55                         -0.1693252              -4.6076
       ...                                ...                  ...
        91                          0.7088422              19.2886
      -------------------------------------------------------------
                  HL-Gap            0.1323618 Eh            3.6017 eV
             Fermi-level           -0.3072871 Eh           -8.3617 eV

 SCC (total)                   0 d,  0 h,  0 min,  0.321 sec
 SCC setup                      ...        0 min,  0.006 sec (  1.716%)
 Dispersion                     ...        0 min,  0.012 sec (  3.642%)
 classical contributions        ...        0 min,  0.006 sec (  1.747%)
 integral evaluation            ...        0 min,  0.011 sec (  3.475%)
 iterations                     ...        0 min,  0.256 sec ( 79.608%)
 molecular gradient             ...        0 min,  0.031 sec (  9.680%)
 printout                       ...        0 min,  0.000 sec (  0.127%)

         :::::::::::::::::::::::::::::::::::::::::::::::::::::
         ::                     SUMMARY                     ::
         :::::::::::::::::::::::::::::::::::::::::::::::::::::
         :: total energy             -56.481339570781 Eh    ::
         :: gradient norm              0.000197308899 Eh/a0 ::
         :: HOMO-LUMO gap              3.601748289058 eV    ::
         ::.................................................::
         :: SCC energy               -57.238109973817 Eh    ::
         :: -> isotropic ES            0.098369014449 Eh    ::
         :: -> anisotropic ES          0.004192218961 Eh    ::
         :: -> anisotropic XC          0.019283776891 Eh    ::
         :: -> dispersion             -0.038497639588 Eh    ::
         :: repulsion energy           0.756770403037 Eh    ::
         :: add. restraining           0.000000000000 Eh    ::
         :: total charge              -0.000000000000 e     ::
         :::::::::::::::::::::::::::::::::::::::::::::::::::::

      ----------------------------------------------------------- 
     |                   =====================                   |
     |                        A N C O P T                        |
     |                   =====================                   |
     |               Approximate Normal Coordinate               |
     |                Rational Function Optimizer                |
      ----------------------------------------------------------- 
      ----------------------------------------------------------- 
     |                   =====================                   |
     |                        A N C O P T                        |
     |                   =====================                   |
     |               Approximate Normal Coordinate               |
     |                Rational Function Optimizer                |
      ----------------------------------------------------------- 

          ...................................................
          :                      SETUP                      :
          :.................................................:
          :   optimization level            normal          :
          :   max. optcycles                   200          :
          :   ANC micro-cycles                  20          :
          :   degrees of freedom                96          :
          :.................................................:
          :   RF solver                   davidson          :
          :   write xtbopt.log                true          :
          :   linear?                        false          :
          :   energy convergence         0.5000000E-05 Eh   :
          :   grad. convergence          0.1000000E-02 Eh/α :
          :   maxmium RF displ.          1.0000000          :
          :   Hlow (freq-cutoff)         0.1000000E-01      :
          :   Hmax (freq-cutoff)         5.0000000          :
          :   S6 in model hess.         20.0000000          :
          ...................................................

generating ANC from exact Hessian ...
Using Lindh-Hessian (1995)
 Shifting diagonal of input Hessian by    9.4779585850728459E-003
 Lowest  eigenvalues of input Hessian
    0.000000    0.000000    0.000000    0.000000    0.000000    0.000000
    0.010000    0.010326    0.010838    0.011694    0.012555    0.014889
    0.016576    0.018796    0.019160    0.019956    0.024745    0.025554
 Highest eigenvalues
    2.000616    2.009921    2.097449    2.203870    2.318262    2.365081


........................................................................
.............................. CYCLE    1 ..............................
........................................................................

 iter      E             dE          RMSdq      gap      omega  full diag
   1    -57.2389924 -0.572390E+02  0.103E-04    3.60       0.0  T
   2    -57.2389924 -0.580727E-10  0.593E-05    3.60     289.4  T
   3    -57.2389924 -0.837019E-11  0.383E-05    3.60     448.3  T
     SCC iter.                  ...        0 min,  0.006 sec
     gradient                   ...        0 min,  0.034 sec
 * total energy  :   -56.4813396 Eh     change       -0.7332162E-09 Eh
   gradient norm :     0.0001999 Eh/α   predicted     0.0000000E+00 (-100.00%)
   displ. norm   :     0.0002999 α      lambda        0.0000000E+00
   maximum displ.:     0.0001953 α      in ANC's #96, #95, #74, ...

   *** GEOMETRY OPTIMIZATION CONVERGED AFTER 1 ITERATIONS ***

------------------------------------------------------------------------
 total energy gain   :        -0.0000000 Eh       -0.0000 kcal/mol
 total RMSD          :         0.0000000 a0        0.0000 Å
 total power (kW/mol):        -0.0000019 (step)   -0.0000 (real)
------------------------------------------------------------------------

 ANCopt (total)                0 d,  0 h,  0 min,  0.057 sec
 optimizer setup                ...        0 min,  0.000 sec (  0.274%)
 model hessian                  ...        0 min,  0.010 sec ( 17.137%)
 ANC generation                 ...        0 min,  0.006 sec (  9.711%)
 coordinate transformation      ...        0 min,  0.000 sec (  0.024%)
 single point calculation       ...        0 min,  0.041 sec ( 71.992%)
 optimization log               ...        0 min,  0.000 sec (  0.155%)
 hessian update                 ...        0 min,  0.000 sec (  0.001%)
 rational function              ...        0 min,  0.000 sec (  0.123%)

================
 final structure:
================
34
 xtb: 6.7.1-6.fc44.fc44
O           -2.56448225540000        2.71966606940000       -0.30893478640000
C           -1.71887549120000        2.55836825420000       -1.30545992860000
O           -1.76837093690000        3.19645468440000       -2.31991330410000
H           -2.40066286270000        2.07235942220000        0.43675299900000
C           -0.61497031480000        1.50580539090000       -1.06554582070000
H           -0.00834316890000        1.85188723070000       -0.21730338660000
H            0.01336926060000        1.45583466760000       -1.95361070220000
N           -1.12585314180000        0.18040695210000       -0.77778717390000
H           -0.89603865310000       -0.58678050270000       -1.39550521530000
C           -1.72265061920000       -0.16320633300000        0.36704909610000
O           -2.07629049400000        0.64332444070000        1.22129369440000
C           -1.91760480220000       -1.66284908670000        0.53502232630000
H           -2.82317685180000       -1.81438995510000        1.14602017020000
N           -1.98278342190000       -2.29641680350000       -0.77480550410000
H           -2.85493871740000       -2.06234832260000       -1.23762392840000
H           -1.94543169640000       -3.30490675040000       -0.67683806880000
C           -0.70891969260000       -2.21409435810000        1.32673535040000
H           -0.83953359810000       -3.29225592540000        1.44543224390000
H           -0.71131446330000       -1.75348951350000        2.31528479040000
C            0.58128771340000       -1.92625457100000        0.63585142080000
C            1.20127603760000       -2.68539454330000       -0.31349384810000
H            0.91649427780000       -3.64072698440000       -0.71054190000000
N            2.33400263420000       -2.05735130000000       -0.75490650970000
H            2.97611340460000       -2.42372080560000       -1.43634234520000
C            2.47141492600000       -0.87150770110000       -0.09267002800000
C            3.44615383650000        0.11315518260000       -0.19475883640000
H            4.27487369580000        0.00857787670000       -0.87941434510000
C            3.31679060670000        1.22378259500000        0.61047058590000
H            4.05510465090000        2.00965388660000        0.55702528930000
C            2.24768097810000        1.35429118060000        1.50197622040000
H            2.18699311910000        2.23935415690000        2.11797274820000
C            1.27898727440000        0.38151326230000        1.60950789070000
H            0.45653836340000        0.49418888060000        2.29987479840000
C            1.37895063620000       -0.75046703880000        0.79927689310000

 Bond Distances (Angstroems)
 ---------------------------
O1-C2=1.3169         O1-H4=1.0009         C2-O1=1.3169         C2-O3=1.1995         C2-C5=1.5440         O3-C2=1.1995         
H4-O1=1.0009         C5-C2=1.5440         C5-H6=1.0988         C5-H7=1.0890         C5-N8=1.4493         H6-C5=1.0988         
H7-C5=1.0890         N8-C5=1.4493         N8-H9=1.0114         N8-C10=1.3360        H9-N8=1.0114         C10-N8=1.3360        
C10-O11=1.2269       C10-C12=1.5216       O11-C10=1.2269       C12-C10=1.5216       C12-H13=1.1029       C12-N14=1.4565       
C12-C17=1.5465       H13-C12=1.1029       N14-C12=1.4565       N14-H15=1.0147       N14-H16=1.0139       H15-N14=1.0147       
H16-N14=1.0139       C17-C12=1.5465       C17-H18=1.0925       C17-H19=1.0906       C17-C20=1.4916       H18-C17=1.0925       
H19-C17=1.0906       C20-C17=1.4916       C20-C21=1.3645       C20-C34=1.4302       C21-C20=1.3645       C21-H22=1.0730       
C21-N23=1.3683       H22-C21=1.0730       N23-C21=1.3683       N23-H24=1.0054       N23-C25=1.3652       H24-N23=1.0054       
C25-N23=1.3652       C25-C26=1.3893       C25-C34=1.4155       C26-C25=1.3893       C26-H27=1.0800       C26-C28=1.3779       
H27-C26=1.0800       C28-C26=1.3779       C28-H29=1.0796       C28-C30=1.3981       H29-C28=1.0796       C30-C28=1.3981       
C30-H31=1.0800       C30-C32=1.3770       H31-C30=1.0800       C32-C30=1.3770       C32-H33=1.0797       C32-C34=1.3957       
H33-C32=1.0797       C34-C20=1.4302       C34-C25=1.4155       C34-C32=1.3957       
 C  H  Rav=1.0866 sigma=0.0091  Rmin=1.0730  Rmax=1.1029    10
 C  C  Rav=1.4377 sigma=0.0658  Rmin=1.3645  Rmax=1.5465    12
 N  H  Rav=1.0114 sigma=0.0036  Rmin=1.0054  Rmax=1.0147     4
 N  C  Rav=1.3951 sigma=0.0486  Rmin=1.3360  Rmax=1.4565     5
 O  H  Rav=1.0009 sigma=0.0000  Rmin=1.0009  Rmax=1.0009     1
 O  C  Rav=1.2477 sigma=0.0501  Rmin=1.1995  Rmax=1.3169     3

 selected bond angles (degree)
 --------------------
H4-O1-C2=112.30                O3-C2-O1=123.25                C5-C2-O1=115.15                C5-C2-O3=121.57                
H6-C5-C2=107.46                H7-C5-C2=108.49                H7-C5-H6=108.99                N8-C5-C2=113.72                
N8-C5-H6=109.23                N8-C5-H7=108.86                H9-N8-C5=119.49                C10-N8-C5=124.25               
C10-N8-H9=115.45               O11-C10-N8=123.80              C12-C10-N8=113.91              C12-C10-O11=122.28             

 selected dihedral angles (degree)
 ---------------------------------
O3-C2-O1-H4=177.20            C5-C2-O1-H4=355.48            H6-C5-C2-O1=297.28            H6-C5-C2-O3=115.59            
H7-C5-C2-O1=179.58            H7-C5-C2-O3=357.89            N8-C5-C2-O1= 58.29            N8-C5-C2-O3=236.61            
H9-N8-C5-C2=119.02            H9-N8-C5-H6=239.04            H9-N8-C5-H7=357.95            C10-N8-C5-C2=288.27           
C10-N8-C5-H6= 48.29           C10-N8-C5-H7=167.20           O11-C10-N8-C5= 10.92          O11-C10-N8-H9=180.56          
C12-C10-N8-C5=191.57          C12-C10-N8-H9=  1.21          
           -------------------------------------------------
          |                Final Singlepoint                |
           -------------------------------------------------

          ...................................................
          :                      SETUP                      :
          :.................................................:
          :  # basis functions                  91          :
          :  # atomic orbitals                  91          :
          :  # shells                           53          :
          :  # electrons                       100          :
          :  max. iterations                   250          :
          :  Hamiltonian                  GFN2-xTB          :
          :  restarted?                      false          :
          :  GBSA solvation                  false          :
          :  PC potential                    false          :
          :  electronic temp.          300.0000000     K    :
          :  accuracy                    1.0000000          :
          :  -> integral cutoff          0.2500000E+02      :
          :  -> integral neglect         0.1000000E-07      :
          :  -> SCF convergence          0.1000000E-05 Eh   :
          :  -> wf. convergence          0.1000000E-03 e    :
          :  Broyden damping             0.4000000          :
          :  net charge                          0          :
          :  unpaired electrons                  0          :
          ...................................................

 iter      E             dE          RMSdq      gap      omega  full diag
   1    -57.2389924 -0.572390E+02  0.129E-05    3.60       0.0  T
   2    -57.2389924 -0.923706E-12  0.937E-06    3.60    1829.7  T
   3    -57.2389924 -0.176215E-11  0.519E-06    3.60    3305.2  T

   *** convergence criteria satisfied after 3 iterations ***

         #    Occupation            Energy/Eh            Energy/eV
      -------------------------------------------------------------
         1        2.0000           -0.7306419             -19.8818
       ...           ...                  ...                  ...
        44        2.0000           -0.4246773             -11.5561
        45        2.0000           -0.4235353             -11.5250
        46        2.0000           -0.4181840             -11.3794
        47        2.0000           -0.4000843             -10.8868
        48        2.0000           -0.3969458             -10.8014
        49        2.0000           -0.3908957             -10.6368
        50        2.0000           -0.3734678             -10.1626 (HOMO)
        51                         -0.2411060              -6.5608 (LUMO)
        52                         -0.2314793              -6.2989
        53                         -0.2262559              -6.1567
        54                         -0.2060182              -5.6060
        55                         -0.1693249              -4.6076
       ...                                ...                  ...
        91                          0.7088421              19.2886
      -------------------------------------------------------------
                  HL-Gap            0.1323617 Eh            3.6017 eV
             Fermi-level           -0.3072869 Eh           -8.3617 eV

 SCC (total)                   0 d,  0 h,  0 min,  0.126 sec
 SCC setup                      ...        0 min,  0.003 sec (  2.516%)
 Dispersion                     ...        0 min,  0.004 sec (  3.358%)
 classical contributions        ...        0 min,  0.004 sec (  3.148%)
 integral evaluation            ...        0 min,  0.003 sec (  2.515%)
 iterations                     ...        0 min,  0.078 sec ( 62.319%)
 molecular gradient             ...        0 min,  0.032 sec ( 25.823%)
 printout                       ...        0 min,  0.000 sec (  0.309%)

         :::::::::::::::::::::::::::::::::::::::::::::::::::::
         ::                     SUMMARY                     ::
         :::::::::::::::::::::::::::::::::::::::::::::::::::::
         :: total energy             -56.481339571537 Eh    ::
         :: gradient norm              0.000199676658 Eh/a0 ::
         :: HOMO-LUMO gap              3.601746194666 eV    ::
         ::.................................................::
         :: SCC energy               -57.238109974574 Eh    ::
         :: -> isotropic ES            0.098367545080 Eh    ::
         :: -> anisotropic ES          0.004192299704 Eh    ::
         :: -> anisotropic XC          0.019283604184 Eh    ::
         :: -> dispersion             -0.038497667304 Eh    ::
         :: repulsion energy           0.756770403037 Eh    ::
         :: add. restraining           0.000000000000 Eh    ::
         :: total charge               0.000000000000 e     ::
         :::::::::::::::::::::::::::::::::::::::::::::::::::::

           -------------------------------------------------
          |                Property Printout                |
           -------------------------------------------------

    * Orbital Energies and Occupations

         #    Occupation            Energy/Eh            Energy/eV
      -------------------------------------------------------------
         1        2.0000           -0.7306419             -19.8818
       ...           ...                  ...                  ...
        38        2.0000           -0.4693941             -12.7729
        39        2.0000           -0.4630048             -12.5990
        40        2.0000           -0.4593222             -12.4988
        41        2.0000           -0.4587604             -12.4835
        42        2.0000           -0.4422615             -12.0345
        43        2.0000           -0.4347113             -11.8291
        44        2.0000           -0.4246773             -11.5561
        45        2.0000           -0.4235353             -11.5250
        46        2.0000           -0.4181840             -11.3794
        47        2.0000           -0.4000843             -10.8868
        48        2.0000           -0.3969458             -10.8014
        49        2.0000           -0.3908957             -10.6368
        50        2.0000           -0.3734678             -10.1626 (HOMO)
        51                         -0.2411060              -6.5608 (LUMO)
        52                         -0.2314793              -6.2989
        53                         -0.2262559              -6.1567
        54                         -0.2060182              -5.6060
        55                         -0.1693249              -4.6076
        56                         -0.0803947              -2.1877
        57                         -0.0166638              -0.4534
        58                          0.0111913               0.3045
        59                          0.0210608               0.5731
        60                          0.0640214               1.7421
        61                          0.0855147               2.3270
       ...                                ...                  ...
        91                          0.7088421              19.2886
      -------------------------------------------------------------
                  HL-Gap            0.1323617 Eh            3.6017 eV
             Fermi-level           -0.3072869 Eh           -8.3617 eV

     #   Z          covCN         q      C6AA      α(0)
     1   8 O        1.654    -0.377    20.406     6.098
     2   6 C        2.684     0.359    20.913     7.484
     3   8 O        0.856    -0.382    21.316     6.190
     4   1 H        0.799     0.366     0.554     1.169
     5   6 C        3.737    -0.040    21.367     6.596
     6   1 H        0.923     0.077     2.010     2.217
     7   1 H        0.925     0.075     2.032     2.229
     8   7 N        2.687    -0.161    24.491     7.350
     9   1 H        0.860     0.204     1.084     1.631
    10   6 C        2.757     0.268    22.476     7.764
    11   8 O        0.858    -0.457    22.854     6.410
    12   6 C        3.788     0.033    20.029     6.374
    13   1 H        0.923     0.032     2.552     2.498
    14   7 N        2.633    -0.352    29.077     8.008
    15   1 H        0.860     0.145     1.436     1.877
    16   1 H        0.860     0.152     1.390     1.847
    17   6 C        3.809    -0.060    21.643     6.622
    18   1 H        0.924     0.042     2.417     2.431
    19   1 H        0.924     0.057     2.239     2.340
    20   6 C        3.056    -0.033    28.768     8.796
    21   6 C        3.032    -0.007    28.152     8.703
    22   1 H        0.926     0.033     2.548     2.496
    23   7 N        2.778    -0.105    23.294     7.168
    24   1 H        0.860     0.159     1.341     1.814
    25   6 C        3.086     0.043    26.948     8.510
    26   6 C        2.908    -0.054    29.329     8.880
    27   1 H        0.926     0.025     2.658     2.550
    28   6 C        2.924    -0.036    28.907     8.817
    29   1 H        0.926     0.031     2.570     2.507
    30   6 C        2.920    -0.043    29.057     8.840
    31   1 H        0.926     0.030     2.585     2.514
    32   6 C        2.911    -0.038    28.955     8.824
    33   1 H        0.926     0.036     2.505     2.475
    34   6 C        3.118    -0.022    28.394     8.728

 Mol. C6AA /au·bohr⁶  :      13333.268934
 Mol. C8AA /au·bohr⁸  :     312411.710664
 Mol. α(0) /au        :        178.757850


Wiberg/Mayer (AO) data.
largest (>0.10) Wiberg bond orders for each atom

 ---------------------------------------------------------------------------
     #   Z sym  total        # sym  WBO       # sym  WBO       # sym  WBO
 ---------------------------------------------------------------------------
     1   8 O    2.232 --     2 C    1.204     4 H    0.763     3 O    0.183
     2   6 C    3.932 --     3 O    1.769     1 O    1.204     5 C    0.927
     3   8 O    2.061 --     2 C    1.769     1 O    0.183
     4   1 H    0.866 --     1 O    0.763
     5   6 C    3.963 --     8 N    0.990     7 H    0.974     6 H    0.946
                             2 C    0.927
     6   1 H    0.994 --     5 C    0.946
     7   1 H    0.994 --     5 C    0.974
     8   7 N    3.480 --    10 C    1.311     5 C    0.990     9 H    0.916
                            11 O    0.193
     9   1 H    0.958 --     8 N    0.916
    10   6 C    3.949 --    11 O    1.603     8 N    1.311    12 C    0.953
    11   8 O    2.015 --    10 C    1.603     8 N    0.193
    12   6 C    3.983 --    14 N    1.015    13 H    0.954    17 C    0.953
                            10 C    0.953
    13   1 H    0.998 --    12 C    0.954
    14   7 N    3.019 --    12 C    1.015    15 H    0.965    16 H    0.959
    15   1 H    0.979 --    14 N    0.965
    16   1 H    0.977 --    14 N    0.959
    17   6 C    3.992 --    20 C    1.019    19 H    0.970    18 H    0.968
                            12 C    0.953
    18   1 H    0.997 --    17 C    0.968
    19   1 H    0.997 --    17 C    0.970
    20   6 C    3.976 --    21 C    1.582    34 C    1.202    17 C    1.019
    21   6 C    3.951 --    20 C    1.582    23 N    1.196    22 H    0.969
    22   1 H    0.998 --    21 C    0.969
    23   7 N    3.542 --    21 C    1.196    25 C    1.175    24 H    0.947
    24   1 H    0.974 --    23 N    0.947
    25   6 C    3.958 --    26 C    1.338    34 C    1.250    23 N    1.175
    26   6 C    3.989 --    28 C    1.494    25 C    1.338    27 H    0.968
                            32 C    0.114
    27   1 H    0.999 --    26 C    0.968
    28   6 C    3.991 --    26 C    1.494    30 C    1.371    29 H    0.972
    29   1 H    0.999 --    28 C    0.972
    30   6 C    3.991 --    32 C    1.503    28 C    1.371    31 H    0.972
    31   1 H    0.999 --    30 C    0.972
    32   6 C    3.992 --    30 C    1.503    34 C    1.329    33 H    0.968
                            26 C    0.114
    33   1 H    0.998 --    32 C    0.968
    34   6 C    3.984 --    32 C    1.329    25 C    1.250    20 C    1.202
 ---------------------------------------------------------------------------

Topologies differ in total number of bonds
Writing topology from bond orders to xtbtopo.mol

molecular dipole:
                 x           y           z       tot (Debye)
 q only:        1.191      -2.416      -0.185
   full:        1.251      -3.186      -0.147       8.706
molecular quadrupole (traceless):
                xx          xy          yy          xz          yz          zz
 q only:        2.132      11.631      -1.027      -5.847      12.062      -1.105
  q+dip:        5.311      17.987      -0.655     -10.273      17.538      -4.657
   full:        5.497      17.405      -1.214      -7.922      16.220      -4.283

           -------------------------------------------------
          |                Geometry Summary                 |
           -------------------------------------------------

      molecular mass/u    :      261.2770023
   center of mass at/Å    :       -0.0000000      -0.0000000       0.0000000
  moments of inertia/u·Å² :        0.1002534E+04   0.1490195E+04   0.1976261E+04
rotational constants/cm⁻¹ :        0.1681502E-01   0.1131237E-01   0.8530062E-02

 * 32 selected distances

     #   Z          #   Z                                           value/Å
     1   8 O        2   6 C                                       1.3168639
     2   6 C        3   8 O                                       1.1994666
     1   8 O        4   1 H                                       1.0009461 (min)
     5   6 C        6   1 H                                       1.0987650
     5   6 C        7   1 H                                       1.0890212
     5   6 C        8   7 N                                       1.4493059
     8   7 N        9   1 H                                       1.0114183
     8   7 N       10   6 C                                       1.3359969
    10   6 C       11   8 O                                       1.2269014
    12   6 C       13   1 H                                       1.1028798
    12   6 C       14   7 N                                       1.4564703
    14   7 N       15   1 H                                       1.0147138
    14   7 N       16   1 H                                       1.0139255
    17   6 C       18   1 H                                       1.0925116
    17   6 C       19   1 H                                       1.0905929
    17   6 C       20   6 C                                       1.4915790 (max)
    20   6 C       21   6 C                                       1.3645277
    21   6 C       22   1 H                                       1.0730369
    21   6 C       23   7 N                                       1.3683396
    23   7 N       24   1 H                                       1.0054292
    23   7 N       25   6 C                                       1.3651610
    25   6 C       26   6 C                                       1.3892802
    26   6 C       27   1 H                                       1.0800307
    26   6 C       28   6 C                                       1.3779052
    28   6 C       29   1 H                                       1.0796101
    28   6 C       30   6 C                                       1.3981454
    30   6 C       31   1 H                                       1.0800331
    30   6 C       32   6 C                                       1.3770359
    32   6 C       33   1 H                                       1.0796873
    20   6 C       34   6 C                                       1.4301925
    25   6 C       34   6 C                                       1.4155207
    32   6 C       34   6 C                                       1.3956528

 * 6 distinct bonds (by element types)

   Z      Z             #   av. dist./Å        max./Å        min./Å
   1 H    6 C          10     1.0866169     1.1028798     1.0730369
   6 C    6 C           9     1.4044266     1.4915790     1.3645277
   1 H    7 N           4     1.0113717     1.0147138     1.0054292
   6 C    7 N           5     1.3950548     1.4564703     1.3359969
   1 H    8 O           1     1.0009461     1.0009461     1.0009461
   6 C    8 O           3     1.2477440     1.3168639     1.1994666


optimized geometry written to: xtbopt.xyz


           -------------------------------------------------
          | TOTAL ENERGY              -56.481339571537 Eh   |
          | GRADIENT NORM               0.000199676658 Eh/α |
          | HOMO-LUMO GAP               3.601746194666 eV   |
           -------------------------------------------------

------------------------------------------------------------------------
 * finished run on 2026/10/01 at 18:03:06.468     
------------------------------------------------------------------------
 total:
 * wall-time:     0 d,  0 h,  0 min,  0.536 sec
 *  cpu-time:     0 d,  0 h,  0 min,  7.401 sec
 * ratio c/w:    13.801 speedup
 SCF:
 * wall-time:     0 d,  0 h,  0 min,  0.322 sec
 *  cpu-time:     0 d,  0 h,  0 min,  4.443 sec
 * ratio c/w:    13.819 speedup
 ANC optimizer:
 * wall-time:     0 d,  0 h,  0 min,  0.184 sec
 *  cpu-time:     0 d,  0 h,  0 min,  2.553 sec
 * ratio c/w:    13.892 speedup


--- STDERR ---
normal termination of xtb
Note: The following floating-point exceptions are signalling: IEEE_UNDERFLOW_FLAG IEEE_DENORMAL
