34
 energy: -56.481339571537 gnorm: 0.000199676658 xtb: 6.7.1-6.fc44.fc44
O           -2.56448225540000        2.71966606940000       -0.30893478640000
C           -1.71887549120000        2.55836825420000       -1.30545992860000
O           -1.76837093690000        3.19645468440000       -2.31991330410000
H           -2.40066286270000        2.07235942220000        0.43675299900000
C           -0.61497031480000        1.50580539090000       -1.06554582070000
H           -0.00834316890000        1.85188723070000       -0.21730338660000
H            0.01336926060000        1.45583466760000       -1.95361070220000
N           -1.12585314180000        0.18040695210000       -0.77778717390000
H           -0.89603865310000       -0.58678050270000       -1.39550521530000
C           -1.72265061920000       -0.16320633300000        0.36704909610000
O           -2.07629049400000        0.64332444070000        1.22129369440000
C           -1.91760480220000       -1.66284908670000        0.53502232630000
H           -2.82317685180000       -1.81438995510000        1.14602017020000
N           -1.98278342190000       -2.29641680350000       -0.77480550410000
H           -2.85493871740000       -2.06234832260000       -1.23762392840000
H           -1.94543169640000       -3.30490675040000       -0.67683806880000
C           -0.70891969260000       -2.21409435810000        1.32673535040000
H           -0.83953359810000       -3.29225592540000        1.44543224390000
H           -0.71131446330000       -1.75348951350000        2.31528479040000
C            0.58128771340000       -1.92625457100000        0.63585142080000
C            1.20127603760000       -2.68539454330000       -0.31349384810000
H            0.91649427780000       -3.64072698440000       -0.71054190000000
N            2.33400263420000       -2.05735130000000       -0.75490650970000
H            2.97611340460000       -2.42372080560000       -1.43634234520000
C            2.47141492600000       -0.87150770110000       -0.09267002800000
C            3.44615383650000        0.11315518260000       -0.19475883640000
H            4.27487369580000        0.00857787670000       -0.87941434510000
C            3.31679060670000        1.22378259500000        0.61047058590000
H            4.05510465090000        2.00965388660000        0.55702528930000
C            2.24768097810000        1.35429118060000        1.50197622040000
H            2.18699311910000        2.23935415690000        2.11797274820000
C            1.27898727440000        0.38151326230000        1.60950789070000
H            0.45653836340000        0.49418888060000        2.29987479840000
C            1.37895063620000       -0.75046703880000        0.79927689310000
