      -----------------------------------------------------------      
     |                   =====================                   |     
     |                           x T B                           |     
     |                   =====================                   |     
     |                         S. Grimme                         |     
     |          Mulliken Center for Theoretical Chemistry        |     
     |                    University of Bonn                     |     
      -----------------------------------------------------------      

   * xtb version 6.7.1-6.fc44.fc44 compiled by Fedora project on Sun Jan 18 23:32:34 UTC 2026

   xtb is free software: you can redistribute it and/or modify it under
   the terms of the GNU Lesser General Public License as published by
   the Free Software Foundation, either version 3 of the License, or
   (at your option) any later version.
   
   xtb is distributed in the hope that it will be useful,
   but WITHOUT ANY WARRANTY; without even the implied warranty of
   MERCHANTABILITY or FITNESS FOR A PARTICULAR PURPOSE.  See the
   GNU Lesser General Public License for more details.
   
   Cite this work as:
   * C. Bannwarth, E. Caldeweyher, S. Ehlert, A. Hansen, P. Pracht,
     J. Seibert, S. Spicher, S. Grimme, WIREs Comput. Mol. Sci., 2020, 11,
     e01493. DOI: 10.1002/wcms.1493
   
   for GFN2-xTB:
   * C. Bannwarth, S. Ehlert and S. Grimme., J. Chem. Theory Comput., 2019,
     15, 1652-1671. DOI: 10.1021/acs.jctc.8b01176
   for GFN1-xTB:
   * S. Grimme, C. Bannwarth, P. Shushkov, J. Chem. Theory Comput., 2017,
     13, 1989-2009. DOI: 10.1021/acs.jctc.7b00118
   for GFN0-xTB:
   * P. Pracht, E. Caldeweyher, S. Ehlert, S. Grimme, ChemRxiv, 2019, preprint.
     DOI: 10.26434/chemrxiv.8326202.v1
   for GFN-FF:
   * S. Spicher and S. Grimme, Angew. Chem. Int. Ed., 2020, 59, 15665-15673.
     DOI: 10.1002/anie.202004239
   
   for ALPB and GBSA implicit solvation:
   * S. Ehlert, M. Stahn, S. Spicher, S. Grimme, J. Chem. Theory Comput.,
     2021, 17, 4250-4261. DOI: 10.1021/acs.jctc.1c00471
   
   for ddCOSMO and CPCM-X implicit solvation:
   * M. Stahn, S. Ehlert, S. Grimme, J. Phys. Chem. A,
     2023, XX, XXXX-XXXX. DOI: 10.1021/acs.jpca.3c04382
   
   for DFT-D4:
   * E. Caldeweyher, C. Bannwarth and S. Grimme, J. Chem. Phys., 2017,
     147, 034112. DOI: 10.1063/1.4993215
   * E. Caldeweyher, S. Ehlert, A. Hansen, H. Neugebauer, S. Spicher,
     C. Bannwarth and S. Grimme, J. Chem. Phys., 2019, 150, 154122.
     DOI: 10.1063/1.5090222
   * E. Caldeweyher, J.-M. Mewes, S. Ehlert and S. Grimme, Phys. Chem. Chem. Phys.
     2020, 22, 8499-8512. DOI: 10.1039/D0CP00502A
   
   for sTDA-xTB:
   * S. Grimme and C. Bannwarth, J. Chem. Phys., 2016, 145, 054103.
     DOI: 10.1063/1.4959605
   
   in the mass-spec context:
   * V. Asgeirsson, C. Bauer and S. Grimme, Chem. Sci., 2017, 8, 4879.
     DOI: 10.1039/c7sc00601b
   * J. Koopman and S. Grimme, ACS Omega 2019, 4, 12, 15120-15133.
     DOI: 10.1021/acsomega.9b02011
   
   for metadynamics refer to:
   * S. Grimme, J. Chem. Theory Comput., 2019, 155, 2847-2862
     DOI: 10.1021/acs.jctc.9b00143
   
   for SPH calculations refer to:
   * S. Spicher and S. Grimme, J. Chem. Theory Comput., 2021, 17, 1701-1714
     DOI: 10.1021/acs.jctc.0c01306
   
   for ONIOM refer to:
   * C. Plett, A. Katbashev, S. Ehlert, S. Grimme, M. Bursch,
     Phys. Chem. Chem. Phys., 2023, 25, 17860-17868. DOI: 10.1039/D3CP02178E
   
   for DIPRO refer to:
   * J. Kohn, N. Gildemeister, S. Grimme, D. Fazzi, A. Hansen,
     J. Chem. Phys., 2023, just accepted.
   
   for PTB refer to:
   * S. Grimme, M. Mueller, A. Hansen, J. Chem. Phys., 2023, 158, 124111.
     DOI: 10.1063/5.0137838
   
   with help from (in alphabetical order)
   P. Atkinson, C. Bannwarth, F. Bohle, G. Brandenburg, E. Caldeweyher
   M. Checinski, S. Dohm, S. Ehlert, S. Ehrlich, I. Gerasimov, C. Hölzer
   A. Katbashev, J. Kohn, J. Koopman, C. Lavigne, S. Lehtola, F. März, M. Müller,
   F. Musil, H. Neugebauer, J. Pisarek, C. Plett, P. Pracht, F. Pultar,
   J. Seibert, P. Shushkov, S. Spicher, M. Stahn, M. Steiner, T. Strunk,
   J. Stückrath, T. Rose, and J. Unsleber
   
 * started run on 2026/10/01 at 17:52:47.452     
   ID    Z sym.   atoms
    1    8 O      1-6
    2    7 N      7-12
    3    6 C      13-34
    4    1 H      35-68

           -------------------------------------------------
          |                Calculation Setup                |
           -------------------------------------------------

          program call               : /usr/bin/xtb input.xyz --opt --gfn 2 --chrg 0 --uhf 0
          hostname                   : fedora
          coordinate file            : input.xyz
          omp threads                :                    16


molecular fragmentation (1/2 indicates fragments):
11111111111111111111111111111111111111111111111111111111111111121111
# atoms in fragment 1/2:    67     1
 fragment masses (1/2) :      477.53        1.01
CMA distance (Bohr)    :  10.026
constraining FC (au)   :  0.0500

           -------------------------------------------------
          |                 G F N 2 - x T B                 |
           -------------------------------------------------

        Reference                      10.1021/acs.jctc.8b01176
      * Hamiltonian:
        H0-scaling (s, p, d)           1.850000    2.230000    2.230000
        zeta-weighting                 0.500000
      * Dispersion:
        s8                             2.700000
        a1                             0.520000
        a2                             5.000000
        s9                             5.000000
      * Repulsion:
        kExp                           1.500000    1.000000
        rExp                           1.000000
      * Coulomb:
        alpha                          2.000000
        third order                    shell-resolved
        anisotropic                    true
        a3                             3.000000
        a5                             4.000000
        cn-shift                       1.200000
        cn-exp                         4.000000
        max-rad                        5.000000


          ...................................................
          :                      SETUP                      :
          :.................................................:
          :  # basis functions                 170          :
          :  # atomic orbitals                 170          :
          :  # shells                          102          :
          :  # electrons                       188          :
          :  max. iterations                   250          :
          :  Hamiltonian                  GFN2-xTB          :
          :  restarted?                      false          :
          :  GBSA solvation                  false          :
          :  PC potential                    false          :
          :  electronic temp.          300.0000000     K    :
          :  accuracy                    1.0000000          :
          :  -> integral cutoff          0.2500000E+02      :
          :  -> integral neglect         0.1000000E-07      :
          :  -> SCF convergence          0.1000000E-05 Eh   :
          :  -> wf. convergence          0.1000000E-03 e    :
          :  Broyden damping             0.4000000          :
          :  net charge                          0          :
          :  unpaired electrons                  0          :
          ...................................................

 iter      E             dE          RMSdq      gap      omega  full diag
   1   -106.8060992 -0.106806E+03  0.434E+00    3.35       0.0  T
   2   -107.2232586 -0.417159E+00  0.242E+00    2.02       1.0  T
   3   -107.2460977 -0.228391E-01  0.139E+00    2.17       1.0  T
   4   -107.2440276  0.207014E-02  0.423E-01    1.69       1.0  T
   5   -107.2546582 -0.106306E-01  0.109E-01    1.95       1.0  T
   6   -107.2549296 -0.271391E-03  0.574E-02    1.95       1.0  T
   7   -107.2549586 -0.289902E-04  0.261E-02    1.97       1.0  T
   8   -107.2549666 -0.801671E-05  0.103E-02    1.97       1.2  T
   9   -107.2549695 -0.289436E-05  0.413E-03    1.96       2.9  T
  10   -107.2549698 -0.358776E-06  0.194E-03    1.96       6.3  T
  11   -107.2549699 -0.584656E-07  0.749E-04    1.96      16.2  T
  12   -107.2549699 -0.864721E-08  0.230E-04    1.96      52.7  T

   *** convergence criteria satisfied after 12 iterations ***

         #    Occupation            Energy/Eh            Energy/eV
      -------------------------------------------------------------
         1        2.0000           -0.7765082             -21.1299
       ...           ...                  ...                  ...
        88        2.0000           -0.3933033             -10.7023
        89        2.0000           -0.3912320             -10.6460
        90        2.0000           -0.3908987             -10.6369
        91        2.0000           -0.3856504             -10.4941
        92        2.0000           -0.3786652             -10.3040
        93        2.0000           -0.3527987              -9.6001
        94        2.0000           -0.3361061              -9.1459 (HOMO)
        95                         -0.2638942              -7.1809 (LUMO)
        96                         -0.2473913              -6.7319
        97                         -0.2452681              -6.6741
        98                         -0.2196223              -5.9762
        99                         -0.2109997              -5.7416
       ...                                ...                  ...
       170                          1.6446774              44.7540
      -------------------------------------------------------------
                  HL-Gap            0.0722120 Eh            1.9650 eV
             Fermi-level           -0.3000002 Eh           -8.1634 eV

 SCC (total)                   0 d,  0 h,  0 min,  0.205 sec
 SCC setup                      ...        0 min,  0.000 sec (  0.120%)
 Dispersion                     ...        0 min,  0.001 sec (  0.277%)
 classical contributions        ...        0 min,  0.000 sec (  0.089%)
 integral evaluation            ...        0 min,  0.001 sec (  0.695%)
 iterations                     ...        0 min,  0.167 sec ( 81.646%)
 molecular gradient             ...        0 min,  0.035 sec ( 16.939%)
 printout                       ...        0 min,  0.000 sec (  0.229%)

         :::::::::::::::::::::::::::::::::::::::::::::::::::::
         ::                     SUMMARY                     ::
         :::::::::::::::::::::::::::::::::::::::::::::::::::::
         :: total energy            -105.367476561313 Eh    ::
         :: gradient norm              1.832557313136 Eh/a0 ::
         :: HOMO-LUMO gap              1.964987592355 eV    ::
         ::.................................................::
         :: SCC energy              -107.250722249596 Eh    ::
         :: -> isotropic ES            0.245980748014 Eh    ::
         :: -> anisotropic ES          0.000762291139 Eh    ::
         :: -> anisotropic XC          0.035918610852 Eh    ::
         :: -> dispersion             -0.084979765441 Eh    ::
         :: repulsion energy           1.883245688282 Eh    ::
         :: add. restraining           0.000000000000 Eh    ::
         :: total charge               0.000000000000 e     ::
         :::::::::::::::::::::::::::::::::::::::::::::::::::::

      ----------------------------------------------------------- 
     |                   =====================                   |
     |                        A N C O P T                        |
     |                   =====================                   |
     |               Approximate Normal Coordinate               |
     |                Rational Function Optimizer                |
      ----------------------------------------------------------- 
      ----------------------------------------------------------- 
     |                   =====================                   |
     |                        A N C O P T                        |
     |                   =====================                   |
     |               Approximate Normal Coordinate               |
     |                Rational Function Optimizer                |
      ----------------------------------------------------------- 

          ...................................................
          :                      SETUP                      :
          :.................................................:
          :   optimization level            normal          :
          :   max. optcycles                   204          :
          :   ANC micro-cycles                  20          :
          :   degrees of freedom               198          :
          :.................................................:
          :   RF solver                   davidson          :
          :   write xtbopt.log                true          :
          :   linear?                        false          :
          :   energy convergence         0.5000000E-05 Eh   :
          :   grad. convergence          0.1000000E-02 Eh/α :
          :   maxmium RF displ.          1.0000000          :
          :   Hlow (freq-cutoff)         0.1000000E-01      :
          :   Hmax (freq-cutoff)         5.0000000          :
          :   S6 in model hess.         20.0000000          :
          ...................................................

generating ANC from exact Hessian ...
Using Lindh-Hessian (1995)
 Shifting diagonal of input Hessian by    9.7280349790271597E-003
 Lowest  eigenvalues of input Hessian
    0.000000    0.000000    0.000000    0.000000    0.000000    0.000000
    0.010000    0.010211    0.010609    0.010968    0.011080    0.011582
    0.011748    0.011977    0.012278    0.012343    0.012812    0.013128
 Highest eigenvalues
    2.326267    2.380861    2.734605    3.021233    3.191577    3.194988


........................................................................
.............................. CYCLE    1 ..............................
........................................................................

 iter      E             dE          RMSdq      gap      omega  full diag
   1   -107.2549699 -0.107255E+03  0.107E-04    1.96       0.0  T
   2   -107.2549699 -0.101693E-09  0.648E-05    1.96     187.3  T
   3   -107.2549699 -0.199805E-10  0.399E-05    1.96     303.7  T
     SCC iter.                  ...        0 min,  0.012 sec
     gradient                   ...        0 min,  0.005 sec
 * total energy  :  -105.3674766 Eh     change       -0.8109708E-09 Eh
   gradient norm :     1.8325590 Eh/α   predicted     0.0000000E+00 (-100.00%)
   displ. norm   :     0.6156066 α      lambda       -0.1073436E+01
   maximum displ.:     0.2314553 α      in ANC's #188, #197, #196, ...

........................................................................
.............................. CYCLE    2 ..............................
........................................................................

 iter      E             dE          RMSdq      gap      omega  full diag
   1   -107.3501917 -0.107350E+03  0.866E-01    2.45       0.0  T
   2   -107.3842042 -0.340125E-01  0.523E-01    3.28       1.0  T
   3   -107.3922241 -0.801997E-02  0.245E-01    3.10       1.0  T
   4   -107.3920736  0.150515E-03  0.113E-01    3.15       1.0  T
   5   -107.3923834 -0.309821E-03  0.243E-02    3.11       1.0  T
   6   -107.3923991 -0.156717E-04  0.864E-03    3.12       1.4  T
   7   -107.3924007 -0.154401E-05  0.362E-03    3.11       3.3  T
   8   -107.3924007 -0.832471E-07  0.150E-03    3.11       8.1  T
   9   -107.3924008 -0.440963E-07  0.596E-04    3.11      20.3  T
  10   -107.3924008 -0.666429E-08  0.232E-04    3.11      52.4  T
     SCC iter.                  ...        0 min,  0.036 sec
     gradient                   ...        0 min,  0.005 sec
 * total energy  :  -106.0804164 Eh     change       -0.7129398E+00 Eh
   gradient norm :     0.7434800 Eh/α   predicted    -0.7401184E+00 (   3.81%)
   displ. norm   :     0.6333178 α      lambda       -0.4174267E+00
   maximum displ.:     0.1692437 α      in ANC's #132, #158, #155, ...

........................................................................
.............................. CYCLE    3 ..............................
........................................................................

 iter      E             dE          RMSdq      gap      omega  full diag
   1   -107.5982137 -0.107598E+03  0.630E-01    3.34       0.0  T
   2   -107.6096795 -0.114657E-01  0.347E-01    3.84       1.0  T
   3   -107.6106357 -0.956233E-03  0.191E-01    3.83       1.0  T
   4   -107.6106560 -0.202694E-04  0.396E-02    3.86       1.0  T
   5   -107.6107029 -0.469165E-04  0.119E-02    3.86       1.0  T
   6   -107.6107050 -0.214414E-05  0.433E-03    3.85       2.8  T
   7   -107.6107052 -0.140866E-06  0.190E-03    3.85       6.4  T
   8   -107.6107052 -0.381493E-07  0.640E-04    3.85      18.9  T
   9   -107.6107052 -0.608928E-08  0.272E-04    3.85      44.6  T
     SCC iter.                  ...        0 min,  0.031 sec
     gradient                   ...        0 min,  0.005 sec
 * total energy  :  -106.3995920 Eh     change       -0.3191757E+00 Eh
   gradient norm :     0.3594975 Eh/α   predicted    -0.2924266E+00 (  -8.38%)
   displ. norm   :     0.6231298 α      lambda       -0.1942105E+00
   maximum displ.:     0.1188829 α      in ANC's #130, #108, #142, ...

........................................................................
.............................. CYCLE    4 ..............................
........................................................................

 iter      E             dE          RMSdq      gap      omega  full diag
   1   -107.7488942 -0.107749E+03  0.520E-01    3.65       0.0  T
   2   -107.7547927 -0.589844E-02  0.291E-01    3.90       1.0  T
   3   -107.7552043 -0.411612E-03  0.156E-01    3.88       1.0  T
   4   -107.7552411 -0.368707E-04  0.306E-02    3.91       1.0  T
   5   -107.7552703 -0.291965E-04  0.974E-03    3.90       1.2  T
   6   -107.7552716 -0.122673E-05  0.347E-03    3.90       3.5  T
   7   -107.7552716 -0.769416E-07  0.141E-03    3.90       8.6  T
   8   -107.7552717 -0.163237E-07  0.404E-04    3.90      30.0  T
   9   -107.7552717 -0.160867E-08  0.180E-04    3.90      67.2  T
     SCC iter.                  ...        0 min,  0.034 sec
     gradient                   ...        0 min,  0.005 sec
 * total energy  :  -106.5245289 Eh     change       -0.1249369E+00 Eh
   gradient norm :     0.1353065 Eh/α   predicted    -0.1348105E+00 (   7.90%)
   displ. norm   :     0.5869814 α      lambda       -0.5740242E-01
   maximum displ.:     0.1589637 α      in ANC's #50, #42, #108, ...

........................................................................
.............................. CYCLE    5 ..............................
........................................................................

 iter      E             dE          RMSdq      gap      omega  full diag
   1   -107.7700763 -0.107770E+03  0.373E-01    3.84       0.0  T
   2   -107.7717699 -0.169359E-02  0.227E-01    3.84       1.0  T
   3   -107.7719247 -0.154853E-03  0.111E-01    3.82       1.0  T
   4   -107.7720098 -0.851113E-04  0.136E-02    3.81       1.0  T
   5   -107.7720148 -0.500317E-05  0.640E-03    3.82       1.9  T
   6   -107.7720153 -0.418501E-06  0.233E-03    3.82       5.2  T
   7   -107.7720153 -0.525256E-07  0.972E-04    3.82      12.5  T
   8   -107.7720153 -0.116346E-07  0.307E-04    3.82      39.5  T
     SCC iter.                  ...        0 min,  0.026 sec
     gradient                   ...        0 min,  0.008 sec
 * total energy  :  -106.5562931 Eh     change       -0.3176416E-01 Eh
   gradient norm :     0.0798803 Eh/α   predicted    -0.3859015E-01 (  21.49%)
   displ. norm   :     0.4493307 α      lambda       -0.1864607E-01
   maximum displ.:     0.1314640 α      in ANC's #41, #42, #74, ...

........................................................................
.............................. CYCLE    6 ..............................
........................................................................

 iter      E             dE          RMSdq      gap      omega  full diag
   1   -107.7910755 -0.107791E+03  0.236E-01    3.76       0.0  T
   2   -107.7915934 -0.517896E-03  0.141E-01    3.81       1.0  T
   3   -107.7916136 -0.202070E-04  0.592E-02    3.80       1.0  T
   4   -107.7916419 -0.283264E-04  0.878E-03    3.81       1.4  T
   5   -107.7916445 -0.256069E-05  0.375E-03    3.81       3.2  T
   6   -107.7916446 -0.144224E-06  0.140E-03    3.81       8.7  T
   7   -107.7916446 -0.149115E-07  0.579E-04    3.81      20.9  T
   8   -107.7916446 -0.397196E-08  0.185E-04    3.81      65.4  T
     SCC iter.                  ...        0 min,  0.034 sec
     gradient                   ...        0 min,  0.005 sec
 * total energy  :  -106.5668479 Eh     change       -0.1055477E-01 Eh
   gradient norm :     0.0483455 Eh/α   predicted    -0.1120535E-01 (   6.16%)
   displ. norm   :     0.3338382 α      lambda       -0.6014955E-02
   maximum displ.:     0.0813728 α      in ANC's #25, #14, #71, ...

........................................................................
.............................. CYCLE    7 ..............................
........................................................................

 iter      E             dE          RMSdq      gap      omega  full diag
   1   -107.8051730 -0.107805E+03  0.149E-01    3.84       0.0  T
   2   -107.8052151 -0.421038E-04  0.859E-02    3.84       1.0  T
   3   -107.8052104  0.462934E-05  0.190E-02    3.83       1.0  T
   4   -107.8052219 -0.114369E-04  0.334E-03    3.83       3.6  T
   5   -107.8052220 -0.114034E-06  0.158E-03    3.83       7.7  T
   6   -107.8052220 -0.268589E-07  0.422E-04    3.83      28.8  T
   7   -107.8052220 -0.169742E-08  0.166E-04    3.83      72.9  T
     SCC iter.                  ...        0 min,  0.027 sec
     gradient                   ...        0 min,  0.005 sec
 * total energy  :  -106.5698657 Eh     change       -0.3017828E-02 Eh
   gradient norm :     0.0337067 Eh/α   predicted    -0.3342674E-02 (  10.76%)
   displ. norm   :     0.2837481 α      lambda       -0.3513162E-02
   maximum displ.:     0.1033984 α      in ANC's #27, #41, #44, ...

........................................................................
.............................. CYCLE    8 ..............................
........................................................................

 iter      E             dE          RMSdq      gap      omega  full diag
   1   -107.8045115 -0.107805E+03  0.138E-01    3.87       0.0  T
   2   -107.8045928 -0.813022E-04  0.798E-02    3.86       1.0  T
   3   -107.8045889  0.395986E-05  0.279E-02    3.86       1.0  T
   4   -107.8046039 -0.150463E-04  0.336E-03    3.85       3.6  T
   5   -107.8046042 -0.241402E-06  0.168E-03    3.85       7.2  T
   6   -107.8046042 -0.183622E-07  0.511E-04    3.85      23.7  T
   7   -107.8046042 -0.344126E-08  0.188E-04    3.85      64.4  T
     SCC iter.                  ...        0 min,  0.024 sec
     gradient                   ...        0 min,  0.005 sec
 * total energy  :  -106.5706591 Eh     change       -0.7933646E-03 Eh
   gradient norm :     0.0277213 Eh/α   predicted    -0.1898013E-02 ( 139.24%)
   displ. norm   :     0.1730754 α      lambda       -0.2228156E-02
   maximum displ.:     0.0514580 α      in ANC's #21, #30, #22, ...

........................................................................
.............................. CYCLE    9 ..............................
........................................................................

 iter      E             dE          RMSdq      gap      omega  full diag
   1   -107.8050184 -0.107805E+03  0.916E-02    3.85       0.0  T
   2   -107.8050353 -0.168663E-04  0.537E-02    3.85       1.0  T
   3   -107.8050335  0.180479E-05  0.112E-02    3.85       1.1  T
   4   -107.8050375 -0.407116E-05  0.221E-03    3.85       5.5  T
   5   -107.8050376 -0.792105E-07  0.102E-03    3.85      11.8  T
   6   -107.8050376 -0.117058E-07  0.332E-04    3.85      36.5  T
   7   -107.8050376 -0.849795E-09  0.103E-04    3.85     117.3  T
     SCC iter.                  ...        0 min,  0.025 sec
     gradient                   ...        0 min,  0.005 sec
 * total energy  :  -106.5717649 Eh     change       -0.1105820E-02 Eh
   gradient norm :     0.0156274 Eh/α   predicted    -0.1147455E-02 (   3.77%)
   displ. norm   :     0.1359319 α      lambda       -0.7735196E-03
   maximum displ.:     0.0473568 α      in ANC's #22, #9, #14, ...

........................................................................
.............................. CYCLE   10 ..............................
........................................................................

 iter      E             dE          RMSdq      gap      omega  full diag
   1   -107.8117496 -0.107812E+03  0.602E-02    3.85       0.0  T
   2   -107.8117569 -0.728997E-05  0.347E-02    3.86       1.0  T
   3   -107.8117565  0.374308E-06  0.720E-03    3.86       1.7  T
   4   -107.8117578 -0.136362E-05  0.165E-03    3.86       7.4  T
   5   -107.8117579 -0.326594E-07  0.771E-04    3.86      15.7  T
   6   -107.8117579 -0.539994E-08  0.218E-04    3.86      55.6  T
     SCC iter.                  ...        0 min,  0.023 sec
     gradient                   ...        0 min,  0.005 sec
 * total energy  :  -106.5720236 Eh     change       -0.2587694E-03 Eh
   gradient norm :     0.0128978 Eh/α   predicted    -0.3939002E-03 (  52.22%)
   displ. norm   :     0.1227214 α      lambda       -0.5299733E-03
   maximum displ.:     0.0365840 α      in ANC's #7, #10, #9, ...

........................................................................
.............................. CYCLE   11 ..............................
........................................................................

 iter      E             dE          RMSdq      gap      omega  full diag
   1   -107.8109654 -0.107811E+03  0.531E-02    3.87       0.0  T
   2   -107.8109688 -0.339427E-05  0.308E-02    3.87       1.0  T
   3   -107.8109686  0.194111E-06  0.458E-03    3.87       2.6  T
   4   -107.8109693 -0.779527E-06  0.120E-03    3.87      10.1  T
   5   -107.8109694 -0.103457E-07  0.506E-04    3.87      24.0  T
   6   -107.8109694 -0.265317E-08  0.154E-04    3.87      79.0  T
     SCC iter.                  ...        0 min,  0.022 sec
     gradient                   ...        0 min,  0.005 sec
 * total energy  :  -106.5722407 Eh     change       -0.2170284E-03 Eh
   gradient norm :     0.0094901 Eh/α   predicted    -0.2689801E-03 (  23.94%)
   displ. norm   :     0.1273881 α      lambda       -0.4046464E-03
   maximum displ.:     0.0462844 α      in ANC's #7, #10, #18, ...

........................................................................
.............................. CYCLE   12 ..............................
........................................................................

 iter      E             dE          RMSdq      gap      omega  full diag
   1   -107.8090672 -0.107809E+03  0.477E-02    3.88       0.0  T
   2   -107.8090710 -0.383362E-05  0.276E-02    3.88       1.0  T
   3   -107.8090707  0.343415E-06  0.551E-03    3.88       2.2  T
   4   -107.8090716 -0.941830E-06  0.112E-03    3.88      10.8  T
   5   -107.8090716 -0.109545E-07  0.566E-04    3.88      21.4  T
   6   -107.8090716 -0.217986E-08  0.127E-04    3.88      95.8  T
     SCC iter.                  ...        0 min,  0.019 sec
     gradient                   ...        0 min,  0.006 sec
 * total energy  :  -106.5723558 Eh     change       -0.1151775E-03 Eh
   gradient norm :     0.0081220 Eh/α   predicted    -0.2056102E-03 (  78.52%)
   displ. norm   :     0.0635048 α      lambda       -0.2016390E-03
   maximum displ.:     0.0218918 α      in ANC's #15, #10, #9, ...

........................................................................
.............................. CYCLE   13 ..............................
........................................................................

 iter      E             dE          RMSdq      gap      omega  full diag
   1   -107.8099514 -0.107810E+03  0.279E-02    3.88       0.0  T
   2   -107.8099526 -0.112294E-05  0.162E-02    3.88       1.0  T
   3   -107.8099524  0.107268E-06  0.281E-03    3.88       4.3  T
   4   -107.8099527 -0.261936E-06  0.603E-04    3.88      20.1  T
   5   -107.8099527 -0.483661E-08  0.303E-04    3.88      40.0  T
     SCC iter.                  ...        0 min,  0.021 sec
     gradient                   ...        0 min,  0.007 sec
 * total energy  :  -106.5724557 Eh     change       -0.9982078E-04 Eh
   gradient norm :     0.0048973 Eh/α   predicted    -0.1012249E-03 (   1.41%)
   displ. norm   :     0.0682306 α      lambda       -0.9746297E-04
   maximum displ.:     0.0265950 α      in ANC's #10, #7, #15, ...

........................................................................
.............................. CYCLE   14 ..............................
........................................................................

 iter      E             dE          RMSdq      gap      omega  full diag
   1   -107.8114459 -0.107811E+03  0.196E-02    3.88       0.0  T
   2   -107.8114471 -0.121260E-05  0.115E-02    3.88       1.1  T
   3   -107.8114471  0.551758E-07  0.307E-03    3.88       4.0  T
   4   -107.8114473 -0.197087E-06  0.492E-04    3.88      24.6  T
   5   -107.8114473 -0.303935E-08  0.243E-04    3.88      49.9  T
     SCC iter.                  ...        0 min,  0.018 sec
     gradient                   ...        0 min,  0.005 sec
 * total energy  :  -106.5724983 Eh     change       -0.4267026E-04 Eh
   gradient norm :     0.0038860 Eh/α   predicted    -0.4896250E-04 (  14.75%)
   displ. norm   :     0.0761805 α      lambda       -0.6216241E-04
   maximum displ.:     0.0326619 α      in ANC's #10, #7, #15, ...

........................................................................
.............................. CYCLE   15 ..............................
........................................................................

 iter      E             dE          RMSdq      gap      omega  full diag
   1   -107.8115490 -0.107812E+03  0.162E-02    3.88       0.0  T
   2   -107.8115495 -0.473857E-06  0.950E-03    3.88       1.3  T
   3   -107.8115494  0.430605E-07  0.188E-03    3.88       6.5  T
   4   -107.8115495 -0.112712E-06  0.373E-04    3.88      32.5  T
   5   -107.8115495 -0.113255E-08  0.177E-04    3.88      68.4  T
     SCC iter.                  ...        0 min,  0.018 sec
     gradient                   ...        0 min,  0.005 sec
 * total energy  :  -106.5725353 Eh     change       -0.3698974E-04 Eh
   gradient norm :     0.0035132 Eh/α   predicted    -0.3126359E-04 ( -15.48%)
   displ. norm   :     0.1220407 α      lambda       -0.7086675E-04
   maximum displ.:     0.0546912 α      in ANC's #10, #7, #15, ...

........................................................................
.............................. CYCLE   16 ..............................
........................................................................

 iter      E             dE          RMSdq      gap      omega  full diag
   1   -107.8113371 -0.107811E+03  0.226E-02    3.89       0.0  T
   2   -107.8113376 -0.583534E-06  0.133E-02    3.89       1.0  T
   3   -107.8113375  0.110958E-06  0.228E-03    3.89       5.3  T
   4   -107.8113378 -0.226448E-06  0.493E-04    3.89      24.6  T
   5   -107.8113378 -0.135628E-08  0.226E-04    3.89      53.7  T
     SCC iter.                  ...        0 min,  0.020 sec
     gradient                   ...        0 min,  0.005 sec
 * total energy  :  -106.5725660 Eh     change       -0.3071910E-04 Eh
   gradient norm :     0.0038954 Eh/α   predicted    -0.3596351E-04 (  17.07%)
   displ. norm   :     0.0684246 α      lambda       -0.4044229E-04
   maximum displ.:     0.0275872 α      in ANC's #10, #7, #15, ...

........................................................................
.............................. CYCLE   17 ..............................
........................................................................

 iter      E             dE          RMSdq      gap      omega  full diag
   1   -107.8113639 -0.107811E+03  0.134E-02    3.89       0.0  T
   2   -107.8113641 -0.200259E-06  0.786E-03    3.89       1.5  T
   3   -107.8113641  0.129645E-07  0.112E-03    3.89      10.8  T
   4   -107.8113642 -0.453490E-07  0.293E-04    3.89      41.3  T
   5   -107.8113642 -0.708511E-09  0.139E-04    3.89      87.3  T
     SCC iter.                  ...        0 min,  0.019 sec
     gradient                   ...        0 min,  0.005 sec
 * total energy  :  -106.5725891 Eh     change       -0.2305870E-04 Eh
   gradient norm :     0.0033955 Eh/α   predicted    -0.2031958E-04 ( -11.88%)
   displ. norm   :     0.0600662 α      lambda       -0.3231448E-04
   maximum displ.:     0.0234727 α      in ANC's #10, #15, #6, ...

........................................................................
.............................. CYCLE   18 ..............................
........................................................................

 iter      E             dE          RMSdq      gap      omega  full diag
   1   -107.8118432 -0.107812E+03  0.117E-02    3.88       0.0  T
   2   -107.8118435 -0.317509E-06  0.690E-03    3.88       1.8  T
   3   -107.8118435  0.284566E-07  0.149E-03    3.88       8.1  T
   4   -107.8118436 -0.678122E-07  0.300E-04    3.88      40.5  T
   5   -107.8118436 -0.151005E-08  0.148E-04    3.88      81.8  T
     SCC iter.                  ...        0 min,  0.017 sec
     gradient                   ...        0 min,  0.006 sec
 * total energy  :  -106.5726076 Eh     change       -0.1850237E-04 Eh
   gradient norm :     0.0024927 Eh/α   predicted    -0.1621361E-04 ( -12.37%)
   displ. norm   :     0.0659547 α      lambda       -0.2389564E-04
   maximum displ.:     0.0270407 α      in ANC's #10, #19, #15, ...

........................................................................
.............................. CYCLE   19 ..............................
........................................................................

 iter      E             dE          RMSdq      gap      omega  full diag
   1   -107.8117094 -0.107812E+03  0.119E-02    3.88       0.0  T
   2   -107.8117098 -0.406678E-06  0.696E-03    3.88       1.7  T
   3   -107.8117098  0.314919E-07  0.180E-03    3.88       6.7  T
   4   -107.8117098 -0.770952E-07  0.312E-04    3.88      38.8  T
   5   -107.8117098 -0.224118E-08  0.155E-04    3.88      78.2  T
     SCC iter.                  ...        0 min,  0.021 sec
     gradient                   ...        0 min,  0.005 sec
 * total energy  :  -106.5726201 Eh     change       -0.1246422E-04 Eh
   gradient norm :     0.0021559 Eh/α   predicted    -0.1200427E-04 (  -3.69%)
   displ. norm   :     0.0441658 α      lambda       -0.1374616E-04
   maximum displ.:     0.0176935 α      in ANC's #10, #19, #20, ...

........................................................................
.............................. CYCLE   20 ..............................
........................................................................

 iter      E             dE          RMSdq      gap      omega  full diag
   1   -107.8116830 -0.107812E+03  0.845E-03    3.88       0.0  T
   2   -107.8116832 -0.161704E-06  0.494E-03    3.88       2.5  T
   3   -107.8116831  0.195421E-07  0.120E-03    3.88      10.1  T
   4   -107.8116832 -0.417167E-07  0.205E-04    3.88      59.1  T
   5   -107.8116832 -0.731546E-09  0.105E-04    3.88     115.1  T
     SCC iter.                  ...        0 min,  0.018 sec
     gradient                   ...        0 min,  0.005 sec
 * total energy  :  -106.5726280 Eh     change       -0.7953945E-05 Eh
   gradient norm :     0.0017825 Eh/α   predicted    -0.6888695E-05 ( -13.39%)
   displ. norm   :     0.0641017 α      lambda       -0.1219640E-04
   maximum displ.:     0.0221070 α      in ANC's #10, #19, #9, ...
 * RMSD in coord.:     0.3335128 α      energy gain  -0.1205151E+01 Eh

generating ANC from exact Hessian ...
Using Lindh-Hessian (1995)
 Shifting diagonal of input Hessian by    9.6421607623023570E-003
 Lowest  eigenvalues of input Hessian
    0.000000    0.000000    0.000000    0.000000    0.000000    0.000000
    0.010000    0.010324    0.010669    0.011130    0.011604    0.011661
    0.011970    0.012593    0.012697    0.012981    0.013647    0.014125
 Highest eigenvalues
    2.282098    2.310532    2.317714    2.325093    2.346008    2.349114


........................................................................
.............................. CYCLE   21 ..............................
........................................................................

 iter      E             dE          RMSdq      gap      omega  full diag
   1   -107.8114372 -0.107811E+03  0.116E-02    3.88       0.0  T
   2   -107.8114376 -0.335709E-06  0.672E-03    3.88       1.8  T
   3   -107.8114376  0.781256E-08  0.157E-03    3.88       7.7  T
   4   -107.8114376 -0.417163E-07  0.276E-04    3.88      43.9  T
   5   -107.8114376 -0.100307E-08  0.142E-04    3.88      85.3  T
     SCC iter.                  ...        0 min,  0.025 sec
     gradient                   ...        0 min,  0.005 sec
 * total energy  :  -106.5726354 Eh     change       -0.7422488E-05 Eh
   gradient norm :     0.0020616 Eh/α   predicted     0.0000000E+00 (-100.00%)
   displ. norm   :     0.0109387 α      lambda       -0.8960772E-05
   maximum displ.:     0.0031818 α      in ANC's #9, #20, #2, ...

........................................................................
.............................. CYCLE   22 ..............................
........................................................................

 iter      E             dE          RMSdq      gap      omega  full diag
   1   -107.8115388 -0.107812E+03  0.442E-03    3.88       0.0  T
   2   -107.8115388 -0.342760E-07  0.256E-03    3.88       4.7  T
   3   -107.8115388  0.258835E-08  0.498E-04    3.88      24.4  T
   4   -107.8115388 -0.728960E-08  0.105E-04    3.88     116.0  T
     SCC iter.                  ...        0 min,  0.019 sec
     gradient                   ...        0 min,  0.005 sec
 * total energy  :  -106.5726414 Eh     change       -0.5944546E-05 Eh
   gradient norm :     0.0007763 Eh/α   predicted    -0.4491943E-05 ( -24.44%)
   displ. norm   :     0.0191065 α      lambda       -0.1192075E-05
   maximum displ.:     0.0072829 α      in ANC's #9, #20, #2, ...

........................................................................
.............................. CYCLE   23 ..............................
........................................................................

 iter      E             dE          RMSdq      gap      omega  full diag
   1   -107.8116550 -0.107812E+03  0.396E-03    3.88       0.0  T
   2   -107.8116550 -0.560791E-07  0.232E-03    3.88       5.2  T
   3   -107.8116550  0.333721E-08  0.668E-04    3.88      18.1  T
   4   -107.8116550 -0.107063E-07  0.116E-04    3.88     104.7  T
     SCC iter.                  ...        0 min,  0.019 sec
     gradient                   ...        0 min,  0.005 sec
 * total energy  :  -106.5726436 Eh     change       -0.2201793E-05 Eh
   gradient norm :     0.0006209 Eh/α   predicted    -0.1485470E-05 ( -32.53%)
   displ. norm   :     0.0125495 α      lambda       -0.9993848E-06
   maximum displ.:     0.0048956 α      in ANC's #2, #20, #9, ...

   *** GEOMETRY OPTIMIZATION CONVERGED AFTER 23 ITERATIONS ***

------------------------------------------------------------------------
 total energy gain   :        -1.2051670 Eh     -756.2537 kcal/mol
 total RMSD          :         0.3332509 a0        0.1763 Å
 total power (kW/mol):      -137.5724180 (step)-4017.6263 (real)
------------------------------------------------------------------------

 ANCopt (total)                0 d,  0 h,  0 min,  0.788 sec
 optimizer setup                ...        0 min,  0.000 sec (  0.020%)
 model hessian                  ...        0 min,  0.055 sec (  6.996%)
 ANC generation                 ...        0 min,  0.011 sec (  1.424%)
 coordinate transformation      ...        0 min,  0.001 sec (  0.079%)
 single point calculation       ...        0 min,  0.706 sec ( 89.645%)
 optimization log               ...        0 min,  0.003 sec (  0.412%)
 hessian update                 ...        0 min,  0.005 sec (  0.640%)
 rational function              ...        0 min,  0.004 sec (  0.505%)

================
 final structure:
================
68
 xtb: 6.7.1-6.fc44.fc44
O            0.77521005996062       -0.99418231981005        1.39093506507299
O            0.90070772542768       -0.95668983833529       -1.67060779139399
O           -2.58126804198429       -2.43790584629679        0.52689885045775
O           -3.87673125976267        3.03763838009985       -0.27031480837779
O           -1.40000757557776        1.80858362946892       -1.42006611350332
O            1.97611002999241        2.74778691008542        1.36506235234350
N            0.48570388199012       -2.91134150426529       -0.68742977283124
N           -1.98226525698692       -0.90048219367174       -1.01929988554480
N           -3.42102225371574        0.96762184278312        0.42595005687906
N           -0.74185167069533        2.79113644172837        0.51189662006063
N            1.72274673474147        1.51402009624383       -0.50617108859899
N            2.86549032539006       -0.68893876749532        0.64784708192440
C            1.73100548811208       -1.40301524397375        0.75432979366274
C            1.70301066957716       -2.79112650782516        0.10673971848084
C            1.54745208896943       -3.88807016260166        1.16125756177478
C            0.75367625886599       -4.95932061991219        0.42050112798333
C           -0.24367156105829       -4.13507443592393       -0.39036491337865
C            0.11782495299585       -1.87999996726148       -1.44975937889207
C           -1.33413799432171       -1.82293034143892       -1.93597424517677
C           -1.43490510067230       -1.29525002595002       -3.35812849023575
C           -2.43560556701279       -1.27916456509115        0.18529150781593
C           -2.74958158180363       -0.10260955629610        1.12601821403982
C           -3.58202852209559       -0.57933447411105        2.31581477532503
C           -3.16315669041001        2.29321813471863        0.36508202027277
C           -2.00533903679887        2.82373410124128        1.23122137494055
C           -2.30715760505401        4.26398056982040        1.64295543322470
C           -0.54694054580280        2.33901070881993       -0.72868400732086
C            0.91001743701820        2.49853767917833       -1.19965601668441
C            1.03136622607671        2.28603251783840       -2.69956092734621
C            2.15264178235625        1.70901413404541        0.74404766808957
C            2.98482722223702        0.57528847407806        1.35213545051309
C            4.47560651417078        0.90553166583931        1.24870937039012
C            4.83922451037150        0.33437971120585       -0.11912022145849
C            4.02386791017907       -0.95851680886060       -0.18567351194029
H            2.57843734088431       -2.96169645457811       -0.52768631534241
H            2.50656268562480       -4.24186733311800        1.53432775892023
H            0.95802695723071       -3.49491978473182        1.99080514802214
H            1.41245993406547       -5.52287843369732       -0.24298890362719
H            0.25763080448212       -5.65309326513883        1.09451571945002
H           -0.53393117072971       -4.63665531723466       -1.31677592247924
H           -1.13841787410433       -3.90707771525958        0.19682712602568
H           -1.83557117178194        0.09056079115757       -1.21249539803172
H           -1.81997089728140       -2.79591367761838       -1.83421353828694
H           -2.47777280202405       -1.20305920611246       -3.64750926368033
H           -0.93093757213501       -1.96901071621258       -4.04692509074154
H           -0.96832151252769       -0.31530570928897       -3.41532645149743
H           -4.22006607807550        0.68823591109720       -0.12855436967180
H           -1.76770233810184        0.23632341599184        1.47375933005866
H           -3.08412325223906       -1.41912710485369        2.79052664544059
H           -4.56144785886007       -0.90782644736364        1.97673528302233
H           -3.70842233239722        0.22344638096648        3.03772891750608
H            0.06457222733235        3.15208177801898        1.01589052173819
H           -1.90702594232921        2.20576613341038        2.13268867871807
H           -1.46447304870109        4.68296375895510        2.18790596095923
H           -3.19004276812967        4.29116583024397        2.27571986546595
H           -2.50280047935550        4.86157399208444        0.75617074804014
H            1.67917460026297        0.57895216031325       -0.90247471729385
H            1.26906814822184        3.49228343789760       -0.90669474267592
H            0.79611593935981        1.25113739418273       -2.93403497054052
H            2.04198712348280        2.50547536948093       -3.03417560095705
H            0.33092172151377        2.93094767222059       -3.22239666164513
H            2.64741685161753        0.45953676325055        2.38701802203042
H            5.02796165344490        0.39387684032922        2.03757096973316
H            4.65612840863392        1.97502119711399        1.32896418342606
H            5.90595171787867        0.15117131371469       -0.22841473363036
H            4.51775923133404        1.01894978981049       -0.90381541413596
H            3.71951598394884       -1.19249421219162       -1.20855371920084
H            4.59571800155066       -1.80036875374366        0.22313380481464

 Bond Distances (Angstroems)
 ---------------------------
O1-C13=1.2190        O2-C18=1.2305        O3-C21=1.2168        O4-C24=1.2112        O5-C27=1.2195        O6-C30=1.2231        
N7-C14=1.4584        N7-C17=1.4553        N7-C18=1.3342        N8-C19=1.4530        N8-C21=1.3416        N8-H42=1.0203        
N9-C22=1.4444        N9-C24=1.3518        N9-H47=1.0119        N10-C25=1.4543       N10-C27=1.3347       N10-H52=1.0172       
N11-C28=1.4528       N11-C30=1.3364       N11-H57=1.0165       N12-C13=1.3447       N12-C31=1.4521       N12-C34=1.4523       
C13-O1=1.2190        C13-N12=1.3447       C13-C14=1.5320       C14-N7=1.4584        C14-C13=1.5320       C14-C15=1.5295       
C14-H35=1.0945       C15-C14=1.5295       C15-C16=1.5252       C15-H36=1.0882       C15-H37=1.0909       C16-C15=1.5252       
C16-C17=1.5270       C16-H38=1.0917       C16-H39=1.0870       C17-N7=1.4553        C17-C16=1.5270       C17-H40=1.0927       
C17-H41=1.0942       C18-O2=1.2305        C18-N7=1.3342        C18-C19=1.5323       C19-N8=1.4530        C19-C18=1.5323       
C19-C20=1.5202       C19-H43=1.0923       C20-C19=1.5202       C20-H44=1.0862       C20-H45=1.0874       C20-H46=1.0869       
C21-O3=1.2168        C21-N8=1.3416        C21-C22=1.5388       C22-N9=1.4444        C22-C21=1.5388       C22-C23=1.5283       
C22-H48=1.0954       C23-C22=1.5283       C23-H49=1.0856       C23-H50=1.0873       C23-H51=1.0870       C24-O4=1.2112        
C24-N9=1.3518        C24-C25=1.5402       C25-N10=1.4543       C25-C24=1.5402       C25-C26=1.5280       C25-H53=1.0974       
C26-C25=1.5280       C26-H54=1.0875       C26-H55=1.0866       C26-H56=1.0871       C27-O5=1.2195        C27-N10=1.3347       
C27-C28=1.5395       C28-N11=1.4528       C28-C27=1.5395       C28-C29=1.5197       C28-H58=1.0965       C29-C28=1.5197       
C29-H59=1.0869       C29-H60=1.0870       C29-H61=1.0862       C30-O6=1.2231        C30-N11=1.3364       C30-C31=1.5322       
C31-N12=1.4521       C31-C30=1.5322       C31-C32=1.5304       C31-H62=1.0946       C32-C31=1.5304       C32-C33=1.5262       
C32-H63=1.0905       C32-H64=1.0876       C33-C32=1.5262       C33-C34=1.5300       C33-H65=1.0879       C33-H66=1.0898       
C34-N12=1.4523       C34-C33=1.5300       C34-H67=1.0925       C34-H68=1.0967       H35-C14=1.0945       H36-C15=1.0882       
H37-C15=1.0909       H38-C16=1.0917       H39-C16=1.0870       H40-C17=1.0927       H41-C17=1.0942       H42-N8=1.0203        
H43-C19=1.0923       H44-C20=1.0862       H45-C20=1.0874       H46-C20=1.0869       H47-N9=1.0119        H48-C22=1.0954       
H49-C23=1.0856       H50-C23=1.0873       H51-C23=1.0870       H52-N10=1.0172       H53-C25=1.0974       H54-C26=1.0875       
H55-C26=1.0866       H56-C26=1.0871       H57-N11=1.0165       H58-C28=1.0965       H59-C29=1.0869       H60-C29=1.0870       
H61-C29=1.0862       H62-C31=1.0946       H63-C32=1.0905       H64-C32=1.0876       H65-C33=1.0879       H66-C33=1.0898       
H67-C34=1.0925       H68-C34=1.0967       
 C  H  Rav=1.0901 sigma=0.0037  Rmin=1.0856  Rmax=1.0974    30
 C  C  Rav=1.5300 sigma=0.0058  Rmin=1.5197  Rmax=1.5402    16
 N  H  Rav=1.0165 sigma=0.0030  Rmin=1.0119  Rmax=1.0203     4
 N  C  Rav=1.4047 sigma=0.0558  Rmin=1.3342  Rmax=1.4584    14
 O  C  Rav=1.2200 sigma=0.0059  Rmin=1.2112  Rmax=1.2305     6

 selected bond angles (degree)
 --------------------
C17-N7-C14=112.12              C18-N7-C14=118.53              C18-N7-C17=128.94              C21-N8-C19=122.55              
H42-N8-C19=115.66              H42-N8-C21=119.52              C24-N9-C22=131.28              H47-N9-C22=115.35              
H47-N9-C24=113.37              C27-N10-C25=126.46             H52-N10-C25=115.83             H52-N10-C27=117.71             

 selected dihedral angles (degree)
 ---------------------------------


 CMA Distance (Angstroems)
 ---------------------------
R(CMA):  5.2391
           -------------------------------------------------
          |                Final Singlepoint                |
           -------------------------------------------------

          ...................................................
          :                      SETUP                      :
          :.................................................:
          :  # basis functions                 170          :
          :  # atomic orbitals                 170          :
          :  # shells                          102          :
          :  # electrons                       188          :
          :  max. iterations                   250          :
          :  Hamiltonian                  GFN2-xTB          :
          :  restarted?                      false          :
          :  GBSA solvation                  false          :
          :  PC potential                    false          :
          :  electronic temp.          300.0000000     K    :
          :  accuracy                    1.0000000          :
          :  -> integral cutoff          0.2500000E+02      :
          :  -> integral neglect         0.1000000E-07      :
          :  -> SCF convergence          0.1000000E-05 Eh   :
          :  -> wf. convergence          0.1000000E-03 e    :
          :  Broyden damping             0.4000000          :
          :  net charge                          0          :
          :  unpaired electrons                  0          :
          ...................................................

 iter      E             dE          RMSdq      gap      omega  full diag
   1   -107.8116550 -0.107812E+03  0.566E-05    3.88       0.0  T
   2   -107.8116550 -0.208047E-10  0.328E-05    3.88     369.4  T
   3   -107.8116550 -0.923706E-12  0.154E-05    3.88     787.2  T

   *** convergence criteria satisfied after 3 iterations ***

         #    Occupation            Energy/Eh            Energy/eV
      -------------------------------------------------------------
         1        2.0000           -0.7102002             -19.3255
       ...           ...                  ...                  ...
        88        2.0000           -0.4035438             -10.9810
        89        2.0000           -0.3932081             -10.6997
        90        2.0000           -0.3912194             -10.6456
        91        2.0000           -0.3873981             -10.5416
        92        2.0000           -0.3867967             -10.5253
        93        2.0000           -0.3838811             -10.4459
        94        2.0000           -0.3761224             -10.2348 (HOMO)
        95                         -0.2335350              -6.3548 (LUMO)
        96                         -0.2220857              -6.0433
        97                         -0.2177366              -5.9249
        98                         -0.2097436              -5.7074
        99                         -0.1998565              -5.4384
       ...                                ...                  ...
       170                          0.6510629              17.7163
      -------------------------------------------------------------
                  HL-Gap            0.1425874 Eh            3.8800 eV
             Fermi-level           -0.3048287 Eh           -8.2948 eV

 SCC (total)                   0 d,  0 h,  0 min,  0.049 sec
 SCC setup                      ...        0 min,  0.000 sec (  0.209%)
 Dispersion                     ...        0 min,  0.000 sec (  0.763%)
 classical contributions        ...        0 min,  0.000 sec (  0.065%)
 integral evaluation            ...        0 min,  0.001 sec (  2.838%)
 iterations                     ...        0 min,  0.042 sec ( 85.671%)
 molecular gradient             ...        0 min,  0.005 sec (  9.524%)
 printout                       ...        0 min,  0.000 sec (  0.905%)

         :::::::::::::::::::::::::::::::::::::::::::::::::::::
         ::                     SUMMARY                     ::
         :::::::::::::::::::::::::::::::::::::::::::::::::::::
         :: total energy            -106.572643595308 Eh    ::
         :: gradient norm              0.000620282508 Eh/a0 ::
         :: HOMO-LUMO gap              3.880001503180 eV    ::
         ::.................................................::
         :: SCC energy              -107.807369685098 Eh    ::
         :: -> isotropic ES            0.231984889663 Eh    ::
         :: -> anisotropic ES         -0.005759644783 Eh    ::
         :: -> anisotropic XC          0.028064581514 Eh    ::
         :: -> dispersion             -0.083933050998 Eh    ::
         :: repulsion energy           1.234726089790 Eh    ::
         :: add. restraining           0.000000000000 Eh    ::
         :: total charge              -0.000000000000 e     ::
         :::::::::::::::::::::::::::::::::::::::::::::::::::::

           -------------------------------------------------
          |                Property Printout                |
           -------------------------------------------------

    * Orbital Energies and Occupations

         #    Occupation            Energy/Eh            Energy/eV
      -------------------------------------------------------------
         1        2.0000           -0.7102002             -19.3255
       ...           ...                  ...                  ...
        82        2.0000           -0.4448351             -12.1046
        83        2.0000           -0.4297274             -11.6935
        84        2.0000           -0.4249376             -11.5631
        85        2.0000           -0.4217740             -11.4771
        86        2.0000           -0.4145297             -11.2799
        87        2.0000           -0.4083251             -11.1111
        88        2.0000           -0.4035438             -10.9810
        89        2.0000           -0.3932081             -10.6997
        90        2.0000           -0.3912194             -10.6456
        91        2.0000           -0.3873981             -10.5416
        92        2.0000           -0.3867967             -10.5253
        93        2.0000           -0.3838811             -10.4459
        94        2.0000           -0.3761224             -10.2348 (HOMO)
        95                         -0.2335350              -6.3548 (LUMO)
        96                         -0.2220857              -6.0433
        97                         -0.2177366              -5.9249
        98                         -0.2097436              -5.7074
        99                         -0.1998565              -5.4384
       100                         -0.1975997              -5.3770
       101                         -0.0322239              -0.8769
       102                         -0.0126939              -0.3454
       103                          0.0023041               0.0627
       104                          0.0073288               0.1994
       105                          0.0122676               0.3338
       ...                                ...                  ...
       170                          0.6510629              17.7163
      -------------------------------------------------------------
                  HL-Gap            0.1425874 Eh            3.8800 eV
             Fermi-level           -0.3048287 Eh           -8.2948 eV

     #   Z          covCN         q      C6AA      α(0)
     1   8 O        0.859    -0.458    22.874     6.412
     2   8 O        0.860    -0.486    23.477     6.496
     3   8 O        0.858    -0.447    22.636     6.379
     4   8 O        0.860    -0.423    22.144     6.309
     5   8 O        0.858    -0.446    22.614     6.376
     6   8 O        0.859    -0.464    23.004     6.430
     7   7 N        2.762    -0.084    22.869     7.102
     8   7 N        2.699    -0.192    25.173     7.452
     9   7 N        2.689    -0.182    24.946     7.418
    10   7 N        2.691    -0.180    24.892     7.410
    11   7 N        2.692    -0.183    24.958     7.420
    12   7 N        2.757    -0.103    23.264     7.164
    13   6 C        2.763     0.268    22.469     7.763
    14   6 C        3.832     0.028    20.086     6.377
    15   6 C        3.836    -0.060    21.624     6.616
    16   6 C        3.833    -0.060    21.638     6.618
    17   6 C        3.767    -0.012    20.825     6.504
    18   6 C        2.773     0.260    22.620     7.790
    19   6 C        3.792     0.033    20.022     6.372
    20   6 C        3.756    -0.114    22.739     6.799
    21   6 C        2.753     0.271    22.427     7.755
    22   6 C        3.787     0.018    20.289     6.415
    23   6 C        3.755    -0.113    22.711     6.795
    24   6 C        2.747     0.283    22.208     7.716
    25   6 C        3.786     0.030    20.083     6.383
    26   6 C        3.757    -0.114    22.741     6.799
    27   6 C        2.751     0.271    22.429     7.755
    28   6 C        3.797     0.026    20.135     6.389
    29   6 C        3.757    -0.115    22.747     6.800
    30   6 C        2.754     0.271    22.415     7.753
    31   6 C        3.834     0.022    20.185     6.392
    32   6 C        3.834    -0.061    21.655     6.621
    33   6 C        3.833    -0.065    21.721     6.631
    34   6 C        3.766    -0.001    20.634     6.474
    35   1 H        0.924     0.041     2.439     2.443
    36   1 H        0.925     0.042     2.422     2.434
    37   1 H        0.924     0.067     2.117     2.275
    38   1 H        0.924     0.043     2.407     2.426
    39   1 H        0.925     0.055     2.257     2.349
    40   1 H        0.924     0.047     2.358     2.401
    41   1 H        0.924     0.098     1.801     2.099
    42   1 H        0.860     0.228     0.974     1.546
    43   1 H        0.924     0.060     2.203     2.321
    44   1 H        0.925     0.056     2.251     2.346
    45   1 H        0.925     0.046     2.372     2.408
    46   1 H        0.925     0.073     2.055     2.242
    47   1 H        0.860     0.190     1.161     1.688
    48   1 H        0.924     0.071     2.079     2.255
    49   1 H        0.925     0.071     2.078     2.254
    50   1 H        0.925     0.053     2.286     2.365
    51   1 H        0.925     0.043     2.415     2.430
    52   1 H        0.860     0.215     1.035     1.593
    53   1 H        0.924     0.046     2.372     2.408
    54   1 H        0.925     0.048     2.351     2.398
    55   1 H        0.925     0.053     2.277     2.360
    56   1 H        0.925     0.072     2.067     2.248
    57   1 H        0.860     0.225     0.986     1.556
    58   1 H        0.924     0.062     2.181     2.310
    59   1 H        0.925     0.074     2.044     2.236
    60   1 H        0.925     0.045     2.382     2.413
    61   1 H        0.925     0.060     2.193     2.316
    62   1 H        0.924     0.076     2.018     2.222
    63   1 H        0.924     0.052     2.299     2.371
    64   1 H        0.925     0.063     2.169     2.303
    65   1 H        0.925     0.052     2.291     2.367
    66   1 H        0.925     0.054     2.266     2.354
    67   1 H        0.924     0.060     2.203     2.321
    68   1 H        0.924     0.044     2.390     2.418

 Mol. C6AA /au·bohr⁶  :      43596.549634
 Mol. C8AA /au·bohr⁸  :     970080.867469
 Mol. α(0) /au        :        310.361887


Wiberg/Mayer (AO) data.
largest (>0.10) Wiberg bond orders for each atom

 ---------------------------------------------------------------------------
     #   Z sym  total        # sym  WBO       # sym  WBO       # sym  WBO
 ---------------------------------------------------------------------------
     1   8 O    1.982 --    13 C    1.654    12 N    0.194
     2   8 O    1.962 --    18 C    1.586     7 N    0.189
     3   8 O    1.994 --    21 C    1.661     8 N    0.196
     4   8 O    2.015 --    24 C    1.697     9 N    0.196
     5   8 O    2.018 --    27 C    1.623    10 N    0.200
     6   8 O    1.978 --    30 C    1.628    11 N    0.196
     7   7 N    3.525 --    18 C    1.312    17 C    0.973    14 C    0.963
                             2 O    0.189
     8   7 N    3.456 --    21 C    1.286    19 C    0.972    42 H    0.873
                             3 O    0.196
     9   7 N    3.437 --    24 C    1.246    22 C    0.988    47 H    0.930
                             4 O    0.196
    10   7 N    3.478 --    27 C    1.317    25 C    0.971    52 H    0.899
                             5 O    0.200
    11   7 N    3.467 --    30 C    1.309    28 C    0.973    57 H    0.884
                             6 O    0.196
    12   7 N    3.499 --    13 C    1.262    34 C    0.980    31 C    0.972
                             1 O    0.194
    13   6 C    3.955 --     1 O    1.654    12 N    1.262    14 C    0.936
    14   6 C    3.972 --    15 C    0.982     7 N    0.963    35 H    0.957
                            13 C    0.936
    15   6 C    3.991 --    16 C    1.003    14 C    0.982    36 H    0.978
                            37 H    0.974
    16   6 C    3.995 --    17 C    1.005    15 C    1.003    38 H    0.979
                            39 H    0.976
    17   6 C    3.960 --    16 C    1.005     7 N    0.973    40 H    0.970
                            41 H    0.948
    18   6 C    3.947 --     2 O    1.586     7 N    1.312    19 C    0.930
    19   6 C    3.970 --    20 C    1.005     8 N    0.972    43 H    0.958
                            18 C    0.930
    20   6 C    3.989 --    19 C    1.005    45 H    0.984    44 H    0.984
                            46 H    0.978
    21   6 C    3.954 --     3 O    1.661     8 N    1.286    22 C    0.927
    22   6 C    3.968 --    23 C    0.997     9 N    0.988    48 H    0.940
                            21 C    0.927
    23   6 C    3.991 --    22 C    0.997    51 H    0.986    50 H    0.985
                            49 H    0.980
    24   6 C    3.953 --     4 O    1.697     9 N    1.246    25 C    0.932
    25   6 C    3.967 --    26 C    0.997    10 N    0.971    53 H    0.951
                            24 C    0.932
    26   6 C    3.989 --    25 C    0.997    54 H    0.984    55 H    0.984
                            56 H    0.982
    27   6 C    3.950 --     5 O    1.623    10 N    1.317    28 C    0.919
    28   6 C    3.967 --    29 C    1.009    11 N    0.973    58 H    0.955
                            27 C    0.919
    29   6 C    3.988 --    28 C    1.009    60 H    0.986    61 H    0.982
                            59 H    0.976
    30   6 C    3.955 --     6 O    1.628    11 N    1.309    31 C    0.934
    31   6 C    3.966 --    32 C    0.980    12 N    0.972    62 H    0.951
                            30 C    0.934
    32   6 C    3.991 --    33 C    1.006    31 C    0.980    63 H    0.976
                            64 H    0.975
    33   6 C    3.994 --    32 C    1.006    34 C    1.003    66 H    0.978
                            65 H    0.977
    34   6 C    3.972 --    33 C    1.003    12 N    0.980    68 H    0.969
                            67 H    0.967
    35   1 H    0.998 --    14 C    0.957
    36   1 H    0.998 --    15 C    0.978
    37   1 H    0.995 --    15 C    0.974
    38   1 H    0.998 --    16 C    0.979
    39   1 H    0.996 --    16 C    0.976
    40   1 H    0.998 --    17 C    0.970
    41   1 H    0.990 --    17 C    0.948
    42   1 H    0.948 --     8 N    0.873
    43   1 H    0.996 --    19 C    0.958
    44   1 H    0.996 --    20 C    0.984
    45   1 H    0.997 --    20 C    0.984
    46   1 H    0.995 --    20 C    0.978
    47   1 H    0.964 --     9 N    0.930
    48   1 H    0.995 --    22 C    0.940
    49   1 H    0.994 --    23 C    0.980
    50   1 H    0.997 --    23 C    0.985
    51   1 H    0.998 --    23 C    0.986
    52   1 H    0.954 --    10 N    0.899
    53   1 H    0.998 --    25 C    0.951
    54   1 H    0.997 --    26 C    0.984
    55   1 H    0.997 --    26 C    0.984
    56   1 H    0.995 --    26 C    0.982
    57   1 H    0.949 --    11 N    0.884
    58   1 H    0.996 --    28 C    0.955
    59   1 H    0.995 --    29 C    0.976
    60   1 H    0.997 --    29 C    0.986
    61   1 H    0.996 --    29 C    0.982
    62   1 H    0.994 --    31 C    0.951
    63   1 H    0.997 --    32 C    0.976
    64   1 H    0.996 --    32 C    0.975
    65   1 H    0.997 --    33 C    0.977
    66   1 H    0.997 --    33 C    0.978
    67   1 H    0.996 --    34 C    0.967
    68   1 H    0.998 --    34 C    0.969
 ---------------------------------------------------------------------------

Topologies differ in total number of bonds
Writing topology from bond orders to xtbtopo.mol

molecular dipole:
                 x           y           z       tot (Debye)
 q only:        2.456      -1.709      -0.130
   full:        2.841      -2.003      -0.099       8.840
molecular quadrupole (traceless):
                xx          xy          yy          xz          yz          zz
 q only:        3.076       0.473      -0.440      -7.185       5.670      -2.636
  q+dip:        3.631      -0.167      -2.040      -6.943       7.999      -1.591
   full:        3.674      -0.417      -2.424      -7.422       7.785      -1.250

           -------------------------------------------------
          |                Geometry Summary                 |
           -------------------------------------------------

      molecular mass/u    :      478.5428241
   center of mass at/Å    :        0.0090127      -0.0117722      -0.0089123
  moments of inertia/u·Å² :        0.3110795E+04   0.3878681E+04   0.5323821E+04
rotational constants/cm⁻¹ :        0.5419076E-02   0.4346228E-02   0.3166454E-02

 * 64 selected distances

     #   Z          #   Z                                           value/Å
     1   8 O       13   6 C                                       1.2189979
    12   7 N       13   6 C                                       1.3447304
     7   7 N       14   6 C                                       1.4584214
    14   6 C       15   6 C                                       1.5295399
    15   6 C       16   6 C                                       1.5252469
     7   7 N       17   6 C                                       1.4552521
    16   6 C       17   6 C                                       1.5269540
     2   8 O       18   6 C                                       1.2305208
     7   7 N       18   6 C                                       1.3342215
     8   7 N       19   6 C                                       1.4530216
    19   6 C       20   6 C                                       1.5202380
     3   8 O       21   6 C                                       1.2167969
     8   7 N       21   6 C                                       1.3416253
     9   7 N       22   6 C                                       1.4444112
    22   6 C       23   6 C                                       1.5283491
     4   8 O       24   6 C                                       1.2112306
     9   7 N       24   6 C                                       1.3518156
    10   7 N       25   6 C                                       1.4542666
    25   6 C       26   6 C                                       1.5280477
     5   8 O       27   6 C                                       1.2194612
    10   7 N       27   6 C                                       1.3347092
    11   7 N       28   6 C                                       1.4528336
    28   6 C       29   6 C                                       1.5197365
     6   8 O       30   6 C                                       1.2230584
    11   7 N       30   6 C                                       1.3363681
    12   7 N       31   6 C                                       1.4520793
    31   6 C       32   6 C                                       1.5304185 (max)
    32   6 C       33   6 C                                       1.5262342
    12   7 N       34   6 C                                       1.4523319
    33   6 C       34   6 C                                       1.5299731
    14   6 C       35   1 H                                       1.0945148
    15   6 C       36   1 H                                       1.0882312
    15   6 C       37   1 H                                       1.0909347
    16   6 C       38   1 H                                       1.0917017
    16   6 C       39   1 H                                       1.0870499
    17   6 C       40   1 H                                       1.0927358
    17   6 C       41   1 H                                       1.0942341
     8   7 N       42   1 H                                       1.0202990
    19   6 C       43   1 H                                       1.0922846
    20   6 C       44   1 H                                       1.0861923
    20   6 C       45   1 H                                       1.0873719
    20   6 C       46   1 H                                       1.0868592
     9   7 N       47   1 H                                       1.0119303 (min)
    22   6 C       48   1 H                                       1.0953933
    23   6 C       49   1 H                                       1.0855933
    23   6 C       50   1 H                                       1.0872646
    23   6 C       51   1 H                                       1.0870109
    10   7 N       52   1 H                                       1.0171583
    25   6 C       53   1 H                                       1.0973575
    26   6 C       54   1 H                                       1.0874904
    26   6 C       55   1 H                                       1.0865617
    26   6 C       56   1 H                                       1.0870977
    11   7 N       57   1 H                                       1.0165173
    28   6 C       58   1 H                                       1.0964828
    29   6 C       59   1 H                                       1.0868896
    29   6 C       60   1 H                                       1.0869577
    29   6 C       61   1 H                                       1.0862299
    31   6 C       62   1 H                                       1.0946353
    32   6 C       63   1 H                                       1.0904997
    32   6 C       64   1 H                                       1.0875831
    33   6 C       65   1 H                                       1.0878501
    33   6 C       66   1 H                                       1.0898270
    34   6 C       67   1 H                                       1.0925473
    34   6 C       68   1 H                                       1.0967456

 * 5 distinct bonds (by element types)

   Z      Z             #   av. dist./Å        max./Å        min./Å
   1 H    6 C          30     1.0900709     1.0973575     1.0855933
   6 C    6 C          10     1.5264738     1.5304185     1.5197365
   1 H    7 N           4     1.0164762     1.0202990     1.0119303
   6 C    7 N          14     1.4047206     1.4584214     1.3342215
   6 C    8 O           6     1.2200110     1.2305208     1.2112306


optimized geometry written to: xtbopt.xyz


           -------------------------------------------------
          | TOTAL ENERGY             -106.572643595308 Eh   |
          | GRADIENT NORM               0.000620282508 Eh/α |
          | HOMO-LUMO GAP               3.880001503180 eV   |
           -------------------------------------------------

------------------------------------------------------------------------
 * finished run on 2026/10/01 at 17:52:48.505     
------------------------------------------------------------------------
 total:
 * wall-time:     0 d,  0 h,  0 min,  1.054 sec
 *  cpu-time:     0 d,  0 h,  0 min, 15.557 sec
 * ratio c/w:    14.766 speedup
 SCF:
 * wall-time:     0 d,  0 h,  0 min,  0.205 sec
 *  cpu-time:     0 d,  0 h,  0 min,  2.986 sec
 * ratio c/w:    14.567 speedup
 ANC optimizer:
 * wall-time:     0 d,  0 h,  0 min,  0.838 sec
 *  cpu-time:     0 d,  0 h,  0 min, 12.420 sec
 * ratio c/w:    14.823 speedup


--- STDERR ---
normal termination of xtb
Note: The following floating-point exceptions are signalling: IEEE_UNDERFLOW_FLAG IEEE_DENORMAL
