68
 energy: -106.572643595308 gnorm: 0.000620282508 xtb: 6.7.1-6.fc44.fc44
O            0.77521005996062       -0.99418231981005        1.39093506507299
O            0.90070772542768       -0.95668983833529       -1.67060779139399
O           -2.58126804198429       -2.43790584629679        0.52689885045775
O           -3.87673125976267        3.03763838009985       -0.27031480837779
O           -1.40000757557776        1.80858362946892       -1.42006611350332
O            1.97611002999241        2.74778691008542        1.36506235234350
N            0.48570388199012       -2.91134150426529       -0.68742977283124
N           -1.98226525698692       -0.90048219367174       -1.01929988554480
N           -3.42102225371574        0.96762184278312        0.42595005687906
N           -0.74185167069533        2.79113644172837        0.51189662006063
N            1.72274673474147        1.51402009624383       -0.50617108859899
N            2.86549032539006       -0.68893876749532        0.64784708192440
C            1.73100548811208       -1.40301524397375        0.75432979366274
C            1.70301066957716       -2.79112650782516        0.10673971848084
C            1.54745208896943       -3.88807016260166        1.16125756177478
C            0.75367625886599       -4.95932061991219        0.42050112798333
C           -0.24367156105829       -4.13507443592393       -0.39036491337865
C            0.11782495299585       -1.87999996726148       -1.44975937889207
C           -1.33413799432171       -1.82293034143892       -1.93597424517677
C           -1.43490510067230       -1.29525002595002       -3.35812849023575
C           -2.43560556701279       -1.27916456509115        0.18529150781593
C           -2.74958158180363       -0.10260955629610        1.12601821403982
C           -3.58202852209559       -0.57933447411105        2.31581477532503
C           -3.16315669041001        2.29321813471863        0.36508202027277
C           -2.00533903679887        2.82373410124128        1.23122137494055
C           -2.30715760505401        4.26398056982040        1.64295543322470
C           -0.54694054580280        2.33901070881993       -0.72868400732086
C            0.91001743701820        2.49853767917833       -1.19965601668441
C            1.03136622607671        2.28603251783840       -2.69956092734621
C            2.15264178235625        1.70901413404541        0.74404766808957
C            2.98482722223702        0.57528847407806        1.35213545051309
C            4.47560651417078        0.90553166583931        1.24870937039012
C            4.83922451037150        0.33437971120585       -0.11912022145849
C            4.02386791017907       -0.95851680886060       -0.18567351194029
H            2.57843734088431       -2.96169645457811       -0.52768631534241
H            2.50656268562480       -4.24186733311800        1.53432775892023
H            0.95802695723071       -3.49491978473182        1.99080514802214
H            1.41245993406547       -5.52287843369732       -0.24298890362719
H            0.25763080448212       -5.65309326513883        1.09451571945002
H           -0.53393117072971       -4.63665531723466       -1.31677592247924
H           -1.13841787410433       -3.90707771525958        0.19682712602568
H           -1.83557117178194        0.09056079115757       -1.21249539803172
H           -1.81997089728140       -2.79591367761838       -1.83421353828694
H           -2.47777280202405       -1.20305920611246       -3.64750926368033
H           -0.93093757213501       -1.96901071621258       -4.04692509074154
H           -0.96832151252769       -0.31530570928897       -3.41532645149743
H           -4.22006607807550        0.68823591109720       -0.12855436967180
H           -1.76770233810184        0.23632341599184        1.47375933005866
H           -3.08412325223906       -1.41912710485369        2.79052664544059
H           -4.56144785886007       -0.90782644736364        1.97673528302233
H           -3.70842233239722        0.22344638096648        3.03772891750608
H            0.06457222733235        3.15208177801898        1.01589052173819
H           -1.90702594232921        2.20576613341038        2.13268867871807
H           -1.46447304870109        4.68296375895510        2.18790596095923
H           -3.19004276812967        4.29116583024397        2.27571986546595
H           -2.50280047935550        4.86157399208444        0.75617074804014
H            1.67917460026297        0.57895216031325       -0.90247471729385
H            1.26906814822184        3.49228343789760       -0.90669474267592
H            0.79611593935981        1.25113739418273       -2.93403497054052
H            2.04198712348280        2.50547536948093       -3.03417560095705
H            0.33092172151377        2.93094767222059       -3.22239666164513
H            2.64741685161753        0.45953676325055        2.38701802203042
H            5.02796165344490        0.39387684032922        2.03757096973316
H            4.65612840863392        1.97502119711399        1.32896418342606
H            5.90595171787867        0.15117131371469       -0.22841473363036
H            4.51775923133404        1.01894978981049       -0.90381541413596
H            3.71951598394884       -1.19249421219162       -1.20855371920084
H            4.59571800155066       -1.80036875374366        0.22313380481464
