68
frame_0005
O       1.266421454100000     -0.304949970700000      1.671033443400000
O       1.038202716600000     -0.932589248500000     -1.602207855600000
O      -3.432467273800000     -2.621369569700000     -0.246755458300000
O      -3.121177909400000      3.076848004300000      0.383583704300000
O      -1.266037020100000      1.632775530400000     -1.407404524900000
O       2.428071978100000      2.954464700000000      1.171381201100000
N       0.321223365400000     -2.391774017100000     -0.079369176800000
N      -2.178181044200000     -0.900780908200000     -1.001558949300000
N      -3.821223278800000      0.962122812700000      0.215143871200000
N      -0.525431237100000      2.039931466600000      0.680241056100000
N       1.974038803300000      1.729484239100000     -0.669623182100000
N       3.174266710000000     -0.465612147200000      0.507417155400000
C       2.002345611300000     -0.953175359700000      0.944307165900000
C       1.636243720800000     -2.387143692900000      0.559421560700000
C       1.456249255400000     -3.260397699600000      1.804595387200000
C       0.282104017500000     -4.162157501000000      1.434328566800000
C      -0.619751237300000     -3.206663852600000      0.662355961600000
C       0.126824997200000     -1.626042985200000     -1.159835915700000
C      -1.260533587300000     -1.674407686800000     -1.813207359500000
C      -1.204272661600000     -1.100278240700000     -3.223733900600000
C      -3.174330551500000     -1.430872458300000     -0.289527236700000
C      -3.963054716300000     -0.427429779100000      0.586082476300000
C      -5.441466288400000     -0.809354975800000      0.567833888100000
C      -2.928554324100000      1.901702773800000      0.606693781800000
C      -1.664315319500000      1.430435100800000      1.344439238000000
C      -1.706021397600000      1.889852023600000      2.795937572000000
C      -0.410037880600000      2.065180753900000     -0.648221204700000
C       0.928826712600000      2.616914290500000     -1.149361110500000
C       0.963537394900000      2.686055331900000     -2.667821601200000
C       2.584822120400000      1.946773256400000      0.506943078800000
C       3.578516233500000      0.862680439800000      0.939038862100000
C       4.954100247200000      1.064496513800000      0.299303085500000
C       4.875687191700000      0.211842360900000     -0.964356183400000
C       4.047136555900000     -0.996017229300000     -0.524601706800000
H       2.367258834200000     -2.815090647800000     -0.132090742100000
H       2.362057200500000     -3.810699085400000      2.050287890300000
H       1.184918801400000     -2.623142020300000      2.647886839000000
H       0.615144847500000     -4.973153177900000      0.785109210600000
H      -0.214166539400000     -4.587236696300000      2.303200248500000
H      -1.329177077900000     -3.712927798300000      0.009481566200000
H      -1.186264941800000     -2.576930382500000      1.357603332600000
H      -2.055267900000000      0.113011777500000     -1.077212192100000
H      -1.622112929800000     -2.708525409200000     -1.831021578500000
H      -0.437778890100000     -1.605752732200000     -3.804878775800000
H      -0.967923132800000     -0.040826560000000     -3.170151637600000
H      -2.166730540100000     -1.224180484900000     -3.712599270100000
H      -4.585316941600000      1.342413622900000     -0.328513290800000
H      -3.581602252700000     -0.567792803200000      1.606751549300000
H      -5.997097567600000     -0.231100974200000      1.301652062600000
H      -5.537914523500000     -1.867794867400000      0.793208790700000
H      -5.861010631300000     -0.630850905600000     -0.420019836700000
H       0.220611926300000      2.397202258100000      1.260574872300000
H      -1.555095854500000      0.340293856000000      1.294682842800000
H      -2.535203833300000      1.418730798600000      3.318655911800000
H      -1.836766660200000      2.968779704700000      2.832877340500000
H      -0.776538740300000      1.618469079000000      3.290982662000000
H       1.953689378000000      0.799069121100000     -1.074861686400000
H       1.104080656700000      3.600525007100000     -0.699653710100000
H       1.894424416900000      3.133664321100000     -3.005761856400000
H       0.127462667000000      3.279566669000000     -3.025720110800000
H       0.877441624900000      1.683057218600000     -3.079390231800000
H       3.617265867700000      0.904966600400000      2.032901454700000
H       5.731594770800000      0.688624157100000      0.965428588600000
H       5.150636747600000      2.114121828400000      0.091995025400000
H       5.856972997200000     -0.078641886700000     -1.333642811600000
H       4.352980860400000      0.755873717500000     -1.750594293900000
H       3.461701064200000     -1.403193777600000     -1.351015454700000
H       4.689615025400000     -1.781186819400000     -0.107790239300000
