68
 energy: -106.574155169770 gnorm: 0.000912504379 xtb: 6.7.1-6.fc44.fc44
O            1.13486608127296       -0.67269801580938        1.53258471226594
O            0.92703827082486       -0.88030323630976       -1.59990868136708
O           -3.21665310929578       -2.55864954827809        0.16559650901907
O           -3.19461562955889        3.18666106327728        0.11856989359933
O           -1.22183049969780        1.61992405998144       -1.42257346392932
O            2.25024262824518        2.85913124558193        1.27450736524184
N            0.45286593707503       -2.65473726193803       -0.34531568852324
N           -2.16451980873216       -0.90387398280020       -0.95229851370886
N           -3.77336154151940        1.02966930410101        0.18827902452841
N           -0.55657495027773        2.30456231743226        0.62054784679680
N            1.96065082221169        1.66625637972251       -0.62064042600091
N            3.13484248322975       -0.54075452498002        0.53020127531984
C            1.97884153015845       -1.17130005127411        0.80843952671122
C            1.79141514235418       -2.57811074779696        0.23115319630168
C            1.80027525996012       -3.63483815145706        1.34296269319409
C            0.31835153996876       -3.80660090586262        1.66887612544327
C           -0.34028860408590       -3.68449012173153        0.29880147259921
C            0.10682196889350       -1.71854482373816       -1.23392096517922
C           -1.32609618741693       -1.75075924360851       -1.78038932143733
C           -1.34806405930497       -1.22814325207929       -3.21258922268580
C           -3.04130327327933       -1.37162751116269       -0.06507644076654
C           -3.84357772622907       -0.31101559826269        0.72004036794244
C           -5.30503718182227       -0.75445378292081        0.78374616690910
C           -2.94875398808491        2.05995711793190        0.48961231601064
C           -1.69810055637002        1.75204692853878        1.32751078252751
C           -1.82039400063170        2.41771334504250        2.69234141496176
C           -0.39032043489884        2.13849344002169       -0.69281432539480
C            0.98811507967263        2.58256463347178       -1.19604753809140
C            1.06830717967345        2.52616807718004       -2.71210286093901
C            2.45544117206196        1.85567154181863        0.61150451313386
C            3.39195142818524        0.75820026746486        1.12753880227971
C            4.84405865429690        1.05630096852184        0.74910041715459
C            4.98042259411660        0.37222240777871       -0.60813953312923
C            4.14883283813588       -0.90150960276788       -0.44522243484305
H            2.53509040058746       -2.78490677338398       -0.54193588515862
H            2.22158672849324       -4.56770524393781        0.96608957713638
H            2.38210934820945       -3.30873369894281        2.20347052201331
H            0.09702163602391       -4.75281012538368        2.15681299394568
H           -0.01218137500455       -2.98600992606544        2.30497369149562
H           -0.23983063873616       -4.62242606749813       -0.26290114567764
H           -1.39417960618743       -3.41750028184271        0.36447923527435
H           -2.02533005056268        0.10131666717685       -1.08769107323532
H           -1.72244572837186       -2.76947074513809       -1.72907669767300
H           -1.02319387345368       -0.19095018997152       -3.21746414239655
H           -2.35630220978552       -1.28701245616970       -3.61419886015545
H           -0.67895127044841       -1.81331580359123       -3.83803876846710
H           -4.53432724734255        1.29203769917662       -0.42529323136193
H           -3.43622451537567       -0.32068739051165        1.73859935428545
H           -5.35241099742221       -1.77583946283104        1.15024325654732
H           -5.74884015818271       -0.72564560990883       -0.20936234447508
H           -5.87234384205562       -0.10610234033553        1.44638977108023
H            0.18532625834046        2.72134939867851        1.16971400688660
H           -1.54403169552394        0.67143631603999        1.43836582218418
H           -0.90018223720180        2.28241432011104        3.25569377343328
H           -2.64341498863391        1.98091658480497        3.25270784411663
H           -2.01103631172169        3.48043015827381        2.56177108180201
H            1.92937221075439        0.73292959704527       -1.01960115463912
H            1.21079534650835        3.58518512695968       -0.81524281395833
H            0.91820170349924        1.50036127728635       -3.04047753867462
H            2.03793928119554        2.87645104176990       -3.05613035263645
H            0.28770768276652        3.14625490743683       -3.14308481470909
H            3.24126741575882        0.70891054392151        2.21103563098051
H            5.51846994980961        0.60300839281478        1.47646102702994
H            5.03820841458017        2.12580952199477        0.70943545449942
H            6.01463034733619        0.15481707572565       -0.86654644090651
H            4.54920554800511        1.00251709666284       -1.38542785223142
H            3.69131049564782       -1.20379944173029       -1.39012399976049
H            4.76378960638771       -1.72496125686323       -0.06241588030005
