68
 energy: -106.565287538467 gnorm: 0.000548901547 xtb: 6.7.1-6.fc44.fc44
O            2.12242707153101       -1.51295450361372        1.32370606082442
O           -1.20564581652021       -4.15575010893074        1.53933158733630
O           -0.62146263658245        0.04924176533017       -0.71188542009686
O           -1.05508396591032        2.95508616872594       -2.63611336780086
O           -2.13895553597711        1.38777682913631        1.77379811497626
O            1.82290590378732        2.85644359526999        0.29231759530898
N            0.44538351653508       -3.42828180383787        0.21679987593806
N           -2.02379295664467       -1.28837456652678        0.43226911151227
N           -2.48677610673636        1.34043593085184       -2.05500701915913
N           -0.92162094949017        2.78457608207800        0.48522438155794
N            1.28104467941497        1.15125951991864        1.68807932190871
N            2.32076383389058       -0.35261761197567       -0.58319191105107
C            1.90399885049955       -1.41032564515385        0.11892207410607
C            1.13809667187235       -2.48800251589727       -0.65209506110351
C            2.09454775611440       -3.37116391981187       -1.47589824622096
C            1.44711309333852       -4.75200035714120       -1.43558852410946
C            0.88776502719320       -4.79496501105675       -0.02314668179178
C           -0.60412283409916       -3.22318080639084        1.03680006405849
C           -1.00350500820691       -1.77188456970258        1.34875248206684
C           -1.52186889941039       -1.69069252736217        2.77973254376643
C           -1.75533052247151       -0.30215025495982       -0.43201635663223
C           -2.96980851043270        0.36286221142179       -1.10533578425544
C           -3.85756186930864       -0.64465727699069       -1.83049586811517
C           -1.76924077262783        2.46405290968106       -1.78811987903179
C           -1.98865560301722        3.14172960413748       -0.42614635244723
C           -2.00078730443997        4.65596083705740       -0.61897399814357
C           -1.08225259148538        1.94071314862907        1.50503165316653
C            0.16001381971399        1.75197692220918        2.39852610659454
C            0.54658760211092        3.07822283339685        3.05684398727788
C            1.97399126547031        1.71350472729115        0.69182142505212
C            3.01191375895243        0.75972231324078        0.06507113688597
C            3.74284152458929        1.44024229921491       -1.08467750996176
C            2.74143604077689        1.28984044725189       -2.22752368561219
C            2.14945791687117       -0.10233089513368       -2.00398300688975
H            0.41075145691656       -1.98540904619244       -1.29914374026909
H            2.22199166504360       -3.00472879374143       -2.49182119204541
H            3.06957324449822       -3.40479965171630       -0.98649021997291
H            0.63786093305005       -4.81136497409769       -2.16484529925194
H            2.15610003076867       -5.55308713260515       -1.63076015042653
H            0.04407600370107       -5.47375803181851        0.10518750567490
H            1.66450075435471       -5.05747270132567        0.70293910255716
H           -2.97687510321380       -1.46337344444946        0.71010077250027
H           -0.14602129329382       -1.11465212005527        1.21645261096202
H           -2.28209137102342       -2.45257098467019        2.93724713851213
H           -1.94362898630623       -0.70420569596694        2.95805228701197
H           -0.70657410409288       -1.87272201724667        3.47473655075982
H           -2.23469573363335        0.94162127760003       -2.95315555395210
H           -3.53885518064325        0.86302328000617       -0.31484131558183
H           -4.30036881832315       -1.34995598870746       -1.13311365465871
H           -3.27859125082658       -1.20199795173860       -2.56503362791899
H           -4.65902382226972       -0.11994136712091       -2.34551472323439
H            0.01377340310304        3.12026236987552        0.26046289102560
H           -2.92582677979427        2.80633323568864        0.02683539303337
H           -2.07151721884407        5.15412677469271        0.34450846075587
H           -2.84772751207400        4.94639053160756       -1.23480201217412
H           -1.08687225217497        4.96341296673607       -1.12060247085048
H            1.52230036582958        0.19391214511437        1.92592739461097
H           -0.13016116702601        1.03843608339053        3.17547038731324
H            1.34208014565041        2.91041169713253        3.77953864575412
H           -0.31524573595007        3.49456324888992        3.57210849228950
H            0.89568046653738        3.78905507056821        2.31406628213327
H            3.66962455146944        0.37318728373631        0.85016309770736
H            4.67488660828741        0.91845929666186       -1.30463398590895
H            3.95209492626144        2.48252421862609       -0.85708778476275
H            3.20310133831925        1.38379657101807       -3.20800918501232
H            1.96314441689627        2.04547924395660       -2.13221366962536
H            1.09261677572926       -0.13347977416786       -2.27117028904568
H            2.69777740022298       -0.85455173324707       -2.57930094021992
