34
frame_0031
O      -4.542371362517406      0.811365347701948      0.631649009605869
C      -4.424269666695413      1.649502187024140     -0.430842667599070
O      -5.148000964490927      2.567660979986569      0.036148154000424
H      -3.867418228646657     -0.108711205021044      0.509553177195506
C      -3.900229691718377      1.377768763906085     -1.459348512918887
H      -4.109922012963740      2.080609821413319     -2.417508860465679
H      -4.180905679706681      0.333935147153525     -2.004569755879722
N      -2.663110523647560      0.956112901932326     -1.229540099722817
H      -1.727357741116571      1.662399161031612     -1.896598191905028
C      -1.917912843012581     -0.039406917911983     -0.840490204616337
O      -2.484783366171845     -0.825633097834565     -0.048521355726771
C      -0.483762768396936     -0.015130558247887     -0.691741008353939
H      -0.199137552278670     -1.077518047839581     -1.055447414409734
N       0.117937078810338      0.548379007955822     -1.967833535461760
H       0.022985802394743      0.006640490169507     -3.029654158541266
H       1.139911247716544      0.916686806826863     -1.895714343200382
C       0.287861340619027      0.511578216435685      0.313257685156913
H      -0.204189101660421     -0.040705056676359      1.266791558600274
H       0.025660035448724      1.625355497012420      0.344633385631518
C       1.842291617189244      0.391781429668974      0.457201379973996
C       2.485057982172404      1.377128738563482      0.447502946213356
H       2.546742448881604      2.290699494893758     -0.129156541391037
N       3.899258877684099      0.774521870181634      0.546887153464575
H       4.692753535924927      1.184598305943390      0.323559767193967
C       3.546772237104653     -0.600544207778081      0.764224328820169
C       4.690705261369525     -1.437454587731792      0.937068812229390
H       5.833058065852488     -1.295533600177882      0.881543744564350
C       4.360557674987035     -2.870711679701146      1.110938790578660
H       5.023552091104558     -3.717498582202124      1.356665691557724
C       3.034159570900169     -3.201037934746336      1.221852833800606
H       2.480150555116269     -4.156678933980620      1.564701643016103
C       2.045369789028507     -2.127648887547544      1.036795668508823
H       0.864930238103154     -2.459359968313884      1.223759145882481
C       2.396241478871833     -0.819713151780325      0.777411115178700
