      -----------------------------------------------------------      
     |                   =====================                   |     
     |                           x T B                           |     
     |                   =====================                   |     
     |                         S. Grimme                         |     
     |          Mulliken Center for Theoretical Chemistry        |     
     |                    University of Bonn                     |     
      -----------------------------------------------------------      

   * xtb version 6.7.1-6.fc44.fc44 compiled by Fedora project on Sun Jan 18 23:32:34 UTC 2026

   xtb is free software: you can redistribute it and/or modify it under
   the terms of the GNU Lesser General Public License as published by
   the Free Software Foundation, either version 3 of the License, or
   (at your option) any later version.
   
   xtb is distributed in the hope that it will be useful,
   but WITHOUT ANY WARRANTY; without even the implied warranty of
   MERCHANTABILITY or FITNESS FOR A PARTICULAR PURPOSE.  See the
   GNU Lesser General Public License for more details.
   
   Cite this work as:
   * C. Bannwarth, E. Caldeweyher, S. Ehlert, A. Hansen, P. Pracht,
     J. Seibert, S. Spicher, S. Grimme, WIREs Comput. Mol. Sci., 2020, 11,
     e01493. DOI: 10.1002/wcms.1493
   
   for GFN2-xTB:
   * C. Bannwarth, S. Ehlert and S. Grimme., J. Chem. Theory Comput., 2019,
     15, 1652-1671. DOI: 10.1021/acs.jctc.8b01176
   for GFN1-xTB:
   * S. Grimme, C. Bannwarth, P. Shushkov, J. Chem. Theory Comput., 2017,
     13, 1989-2009. DOI: 10.1021/acs.jctc.7b00118
   for GFN0-xTB:
   * P. Pracht, E. Caldeweyher, S. Ehlert, S. Grimme, ChemRxiv, 2019, preprint.
     DOI: 10.26434/chemrxiv.8326202.v1
   for GFN-FF:
   * S. Spicher and S. Grimme, Angew. Chem. Int. Ed., 2020, 59, 15665-15673.
     DOI: 10.1002/anie.202004239
   
   for ALPB and GBSA implicit solvation:
   * S. Ehlert, M. Stahn, S. Spicher, S. Grimme, J. Chem. Theory Comput.,
     2021, 17, 4250-4261. DOI: 10.1021/acs.jctc.1c00471
   
   for ddCOSMO and CPCM-X implicit solvation:
   * M. Stahn, S. Ehlert, S. Grimme, J. Phys. Chem. A,
     2023, XX, XXXX-XXXX. DOI: 10.1021/acs.jpca.3c04382
   
   for DFT-D4:
   * E. Caldeweyher, C. Bannwarth and S. Grimme, J. Chem. Phys., 2017,
     147, 034112. DOI: 10.1063/1.4993215
   * E. Caldeweyher, S. Ehlert, A. Hansen, H. Neugebauer, S. Spicher,
     C. Bannwarth and S. Grimme, J. Chem. Phys., 2019, 150, 154122.
     DOI: 10.1063/1.5090222
   * E. Caldeweyher, J.-M. Mewes, S. Ehlert and S. Grimme, Phys. Chem. Chem. Phys.
     2020, 22, 8499-8512. DOI: 10.1039/D0CP00502A
   
   for sTDA-xTB:
   * S. Grimme and C. Bannwarth, J. Chem. Phys., 2016, 145, 054103.
     DOI: 10.1063/1.4959605
   
   in the mass-spec context:
   * V. Asgeirsson, C. Bauer and S. Grimme, Chem. Sci., 2017, 8, 4879.
     DOI: 10.1039/c7sc00601b
   * J. Koopman and S. Grimme, ACS Omega 2019, 4, 12, 15120-15133.
     DOI: 10.1021/acsomega.9b02011
   
   for metadynamics refer to:
   * S. Grimme, J. Chem. Theory Comput., 2019, 155, 2847-2862
     DOI: 10.1021/acs.jctc.9b00143
   
   for SPH calculations refer to:
   * S. Spicher and S. Grimme, J. Chem. Theory Comput., 2021, 17, 1701-1714
     DOI: 10.1021/acs.jctc.0c01306
   
   for ONIOM refer to:
   * C. Plett, A. Katbashev, S. Ehlert, S. Grimme, M. Bursch,
     Phys. Chem. Chem. Phys., 2023, 25, 17860-17868. DOI: 10.1039/D3CP02178E
   
   for DIPRO refer to:
   * J. Kohn, N. Gildemeister, S. Grimme, D. Fazzi, A. Hansen,
     J. Chem. Phys., 2023, just accepted.
   
   for PTB refer to:
   * S. Grimme, M. Mueller, A. Hansen, J. Chem. Phys., 2023, 158, 124111.
     DOI: 10.1063/5.0137838
   
   with help from (in alphabetical order)
   P. Atkinson, C. Bannwarth, F. Bohle, G. Brandenburg, E. Caldeweyher
   M. Checinski, S. Dohm, S. Ehlert, S. Ehrlich, I. Gerasimov, C. Hölzer
   A. Katbashev, J. Kohn, J. Koopman, C. Lavigne, S. Lehtola, F. März, M. Müller,
   F. Musil, H. Neugebauer, J. Pisarek, C. Plett, P. Pracht, F. Pultar,
   J. Seibert, P. Shushkov, S. Spicher, M. Stahn, M. Steiner, T. Strunk,
   J. Stückrath, T. Rose, and J. Unsleber
   
 * started run on 2026/10/01 at 18:05:18.441     
   ID    Z sym.   atoms
    1    8 O      1, 3, 11
    2    6 C      2, 5, 10, 12, 17, 20, 21, 25, 26, 28, 30, 32, 34
    3    1 H      4, 6, 7, 9, 13, 15, 16, 18, 19, 22, 24, 27, 29, 31, 33
    4    7 N      8, 14, 23

           -------------------------------------------------
          |                Calculation Setup                |
           -------------------------------------------------

          program call               : /usr/bin/xtb input.xyz --opt --gfn 2 --chrg 0 --uhf 0
          hostname                   : fedora
          coordinate file            : input.xyz
          omp threads                :                    16


           -------------------------------------------------
          |                 G F N 2 - x T B                 |
           -------------------------------------------------

        Reference                      10.1021/acs.jctc.8b01176
      * Hamiltonian:
        H0-scaling (s, p, d)           1.850000    2.230000    2.230000
        zeta-weighting                 0.500000
      * Dispersion:
        s8                             2.700000
        a1                             0.520000
        a2                             5.000000
        s9                             5.000000
      * Repulsion:
        kExp                           1.500000    1.000000
        rExp                           1.000000
      * Coulomb:
        alpha                          2.000000
        third order                    shell-resolved
        anisotropic                    true
        a3                             3.000000
        a5                             4.000000
        cn-shift                       1.200000
        cn-exp                         4.000000
        max-rad                        5.000000


          ...................................................
          :                      SETUP                      :
          :.................................................:
          :  # basis functions                  91          :
          :  # atomic orbitals                  91          :
          :  # shells                           53          :
          :  # electrons                       100          :
          :  max. iterations                   250          :
          :  Hamiltonian                  GFN2-xTB          :
          :  restarted?                      false          :
          :  GBSA solvation                  false          :
          :  PC potential                    false          :
          :  electronic temp.          300.0000000     K    :
          :  accuracy                    1.0000000          :
          :  -> integral cutoff          0.2500000E+02      :
          :  -> integral neglect         0.1000000E-07      :
          :  -> SCF convergence          0.1000000E-05 Eh   :
          :  -> wf. convergence          0.1000000E-03 e    :
          :  Broyden damping             0.4000000          :
          :  net charge                          0          :
          :  unpaired electrons                  0          :
          ...................................................

 iter      E             dE          RMSdq      gap      omega  full diag
   1    -56.6784377 -0.566784E+02  0.468E+00    2.34       0.0  T
   2    -56.8230190 -0.144581E+00  0.269E+00    2.81       1.0  T
   3    -56.8373121 -0.142930E-01  0.151E+00    3.01       1.0  T
   4    -56.8471154 -0.980333E-02  0.367E-01    2.91       1.0  T
   5    -56.8496138 -0.249836E-02  0.199E-01    2.93       1.0  T
   6    -56.8505201 -0.906353E-03  0.876E-02    2.90       1.0  T
   7    -56.8506328 -0.112653E-03  0.372E-02    2.89       1.0  T
   8    -56.8506360 -0.327370E-05  0.180E-02    2.90       1.0  T
   9    -56.8506438 -0.772521E-05  0.525E-03    2.90       3.3  T
  10    -56.8506441 -0.291946E-06  0.223E-03    2.90       7.7  T
  11    -56.8506441 -0.108041E-07  0.843E-04    2.90      20.4  T
  12    -56.8506441 -0.653179E-08  0.249E-04    2.90      68.8  T

   *** convergence criteria satisfied after 12 iterations ***

         #    Occupation            Energy/Eh            Energy/eV
      -------------------------------------------------------------
         1        2.0000           -0.7451215             -20.2758
       ...           ...                  ...                  ...
        44        2.0000           -0.4266269             -11.6091
        45        2.0000           -0.4252697             -11.5722
        46        2.0000           -0.4203021             -11.4370
        47        2.0000           -0.4166967             -11.3389
        48        2.0000           -0.3864758             -10.5165
        49        2.0000           -0.3835211             -10.4361
        50        2.0000           -0.3756330             -10.2215 (HOMO)
        51                         -0.2690679              -7.3217 (LUMO)
        52                         -0.2648986              -7.2083
        53                         -0.2498754              -6.7995
        54                         -0.2222824              -6.0486
        55                         -0.2095143              -5.7012
       ...                                ...                  ...
        91                          1.3581375              36.9568
      -------------------------------------------------------------
                  HL-Gap            0.1065651 Eh            2.8998 eV
             Fermi-level           -0.3223504 Eh           -8.7716 eV

 SCC (total)                   0 d,  0 h,  0 min,  0.057 sec
 SCC setup                      ...        0 min,  0.004 sec (  7.744%)
 Dispersion                     ...        0 min,  0.000 sec (  0.348%)
 classical contributions        ...        0 min,  0.003 sec (  4.448%)
 integral evaluation            ...        0 min,  0.011 sec ( 19.419%)
 iterations                     ...        0 min,  0.036 sec ( 62.199%)
 molecular gradient             ...        0 min,  0.003 sec (  5.328%)
 printout                       ...        0 min,  0.000 sec (  0.497%)

         :::::::::::::::::::::::::::::::::::::::::::::::::::::
         ::                     SUMMARY                     ::
         :::::::::::::::::::::::::::::::::::::::::::::::::::::
         :: total energy             -55.912728837565 Eh    ::
         :: gradient norm              1.106831896206 Eh/a0 ::
         :: HOMO-LUMO gap              2.899784295115 eV    ::
         ::.................................................::
         :: SCC energy               -56.850598033440 Eh    ::
         :: -> isotropic ES            0.121669446352 Eh    ::
         :: -> anisotropic ES          0.008173244421 Eh    ::
         :: -> anisotropic XC          0.022881710555 Eh    ::
         :: -> dispersion             -0.033105862618 Eh    ::
         :: repulsion energy           0.937869195875 Eh    ::
         :: add. restraining           0.000000000000 Eh    ::
         :: total charge              -0.000000000000 e     ::
         :::::::::::::::::::::::::::::::::::::::::::::::::::::

      ----------------------------------------------------------- 
     |                   =====================                   |
     |                        A N C O P T                        |
     |                   =====================                   |
     |               Approximate Normal Coordinate               |
     |                Rational Function Optimizer                |
      ----------------------------------------------------------- 
      ----------------------------------------------------------- 
     |                   =====================                   |
     |                        A N C O P T                        |
     |                   =====================                   |
     |               Approximate Normal Coordinate               |
     |                Rational Function Optimizer                |
      ----------------------------------------------------------- 

          ...................................................
          :                      SETUP                      :
          :.................................................:
          :   optimization level            normal          :
          :   max. optcycles                   200          :
          :   ANC micro-cycles                  20          :
          :   degrees of freedom                96          :
          :.................................................:
          :   RF solver                   davidson          :
          :   write xtbopt.log                true          :
          :   linear?                        false          :
          :   energy convergence         0.5000000E-05 Eh   :
          :   grad. convergence          0.1000000E-02 Eh/α :
          :   maxmium RF displ.          1.0000000          :
          :   Hlow (freq-cutoff)         0.1000000E-01      :
          :   Hmax (freq-cutoff)         5.0000000          :
          :   S6 in model hess.         20.0000000          :
          ...................................................

generating ANC from exact Hessian ...
Using Lindh-Hessian (1995)
 Shifting diagonal of input Hessian by    9.6451285446431615E-003
 Lowest  eigenvalues of input Hessian
    0.000000    0.000000    0.000000    0.000000    0.000000    0.000000
    0.010000    0.010120    0.010625    0.011302    0.011905    0.015210
    0.016005    0.017005    0.017984    0.019982    0.021847    0.022469
 Highest eigenvalues
    2.229241    2.339839    2.502457    2.763405    2.869088    2.976536


........................................................................
.............................. CYCLE    1 ..............................
........................................................................

 iter      E             dE          RMSdq      gap      omega  full diag
   1    -56.8506441 -0.568506E+02  0.105E-04    2.90       0.0  T
   2    -56.8506441 -0.455600E-10  0.610E-05    2.90     281.3  T
   3    -56.8506441  0.159872E-11  0.452E-05    2.90     379.7  T
     SCC iter.                  ...        0 min,  0.005 sec
     gradient                   ...        0 min,  0.002 sec
 * total energy  :   -55.9127288 Eh     change       -0.5862546E-09 Eh
   gradient norm :     1.1068327 Eh/α   predicted     0.0000000E+00 (-100.00%)
   displ. norm   :     0.5195355 α      lambda       -0.5097719E+00
   maximum displ.:     0.1694913 α      in ANC's #96, #73, #94, ...

........................................................................
.............................. CYCLE    2 ..............................
........................................................................

 iter      E             dE          RMSdq      gap      omega  full diag
   1    -57.0086400 -0.570086E+02  0.712E-01    3.12       0.0  T
   2    -57.0139411 -0.530106E-02  0.454E-01    3.28       1.0  T
   3    -57.0151582 -0.121718E-02  0.245E-01    3.25       1.0  T
   4    -57.0150000  0.158238E-03  0.143E-01    3.25       1.0  T
   5    -57.0155086 -0.508649E-03  0.258E-02    3.26       1.0  T
   6    -57.0155176 -0.894254E-05  0.116E-02    3.26       1.5  T
   7    -57.0155181 -0.557572E-06  0.471E-03    3.26       3.6  T
   8    -57.0155185 -0.321859E-06  0.192E-03    3.26       8.9  T
   9    -57.0155185 -0.238864E-07  0.754E-04    3.26      22.7  T
  10    -57.0155185 -0.446899E-08  0.335E-04    3.26      51.2  T
     SCC iter.                  ...        0 min,  0.010 sec
     gradient                   ...        0 min,  0.001 sec
 * total energy  :   -56.2727293 Eh     change       -0.3600005E+00 Eh
   gradient norm :     0.4868329 Eh/α   predicted    -0.3236899E+00 ( -10.09%)
   displ. norm   :     0.5405156 α      lambda       -0.2277538E+00
   maximum displ.:     0.1581095 α      in ANC's #77, #73, #60, ...

........................................................................
.............................. CYCLE    3 ..............................
........................................................................

 iter      E             dE          RMSdq      gap      omega  full diag
   1    -57.1683906 -0.571684E+02  0.720E-01    3.40       0.0  T
   2    -57.1722801 -0.388941E-02  0.440E-01    3.43       1.0  T
   3    -57.1732314 -0.951313E-03  0.262E-01    3.45       1.0  T
   4    -57.1736527 -0.421344E-03  0.107E-01    3.44       1.0  T
   5    -57.1738790 -0.226268E-03  0.194E-02    3.44       1.0  T
   6    -57.1738828 -0.380127E-05  0.104E-02    3.44       1.7  T
   7    -57.1738832 -0.394302E-06  0.357E-03    3.44       4.8  T
   8    -57.1738834 -0.178749E-06  0.136E-03    3.44      12.6  T
   9    -57.1738834 -0.109808E-07  0.586E-04    3.44      29.3  T
  10    -57.1738834 -0.358100E-08  0.228E-04    3.44      75.1  T
     SCC iter.                  ...        0 min,  0.010 sec
     gradient                   ...        0 min,  0.002 sec
 * total energy  :   -56.4330272 Eh     change       -0.1602979E+00 Eh
   gradient norm :     0.1845252 Eh/α   predicted    -0.1471469E+00 (  -8.20%)
   displ. norm   :     0.4212466 α      lambda       -0.6055656E-01
   maximum displ.:     0.0987708 α      in ANC's #38, #40, #25, ...

........................................................................
.............................. CYCLE    4 ..............................
........................................................................

 iter      E             dE          RMSdq      gap      omega  full diag
   1    -57.2294129 -0.572294E+02  0.513E-01    3.52       0.0  T
   2    -57.2308393 -0.142642E-02  0.313E-01    3.51       1.0  T
   3    -57.2311222 -0.282873E-03  0.195E-01    3.53       1.0  T
   4    -57.2314851 -0.362911E-03  0.588E-02    3.52       1.0  T
   5    -57.2315509 -0.657902E-04  0.117E-02    3.52       1.5  T
   6    -57.2315520 -0.111547E-05  0.649E-03    3.53       2.6  T
   7    -57.2315523 -0.317354E-06  0.230E-03    3.53       7.5  T
   8    -57.2315524 -0.449353E-07  0.871E-04    3.52      19.7  T
   9    -57.2315524 -0.592077E-08  0.359E-04    3.53      47.8  T
     SCC iter.                  ...        0 min,  0.009 sec
     gradient                   ...        0 min,  0.002 sec
 * total energy  :   -56.4659779 Eh     change       -0.3295070E-01 Eh
   gradient norm :     0.0900442 Eh/α   predicted    -0.3565126E-01 (   8.20%)
   displ. norm   :     0.3722767 α      lambda       -0.1974927E-01
   maximum displ.:     0.1228299 α      in ANC's #53, #44, #43, ...

........................................................................
.............................. CYCLE    5 ..............................
........................................................................

 iter      E             dE          RMSdq      gap      omega  full diag
   1    -57.2164565 -0.572165E+02  0.307E-01    3.58       0.0  T
   2    -57.2165808 -0.124304E-03  0.182E-01    3.58       1.0  T
   3    -57.2164285  0.152342E-03  0.894E-02    3.59       1.0  T
   4    -57.2166182 -0.189705E-03  0.171E-02    3.58       1.0  T
   5    -57.2166245 -0.625859E-05  0.540E-03    3.58       3.2  T
   6    -57.2166247 -0.235046E-06  0.281E-03    3.58       6.1  T
   7    -57.2166248 -0.625894E-07  0.995E-04    3.58      17.2  T
   8    -57.2166248 -0.932995E-08  0.340E-04    3.58      50.5  T
     SCC iter.                  ...        0 min,  0.009 sec
     gradient                   ...        0 min,  0.002 sec
 * total energy  :   -56.4722161 Eh     change       -0.6238247E-02 Eh
   gradient norm :     0.0668358 Eh/α   predicted    -0.1124318E-01 (  80.23%)
   displ. norm   :     0.1978365 α      lambda       -0.5925580E-02
   maximum displ.:     0.0668040 α      in ANC's #7, #18, #2, ...

........................................................................
.............................. CYCLE    6 ..............................
........................................................................

 iter      E             dE          RMSdq      gap      omega  full diag
   1    -57.2229870 -0.572230E+02  0.129E-01    3.58       0.0  T
   2    -57.2230390 -0.520131E-04  0.764E-02    3.58       1.0  T
   3    -57.2230261  0.129302E-04  0.408E-02    3.58       1.0  T
   4    -57.2230476 -0.215453E-04  0.129E-02    3.58       1.3  T
   5    -57.2230523 -0.468404E-05  0.281E-03    3.58       6.1  T
   6    -57.2230524 -0.385851E-07  0.135E-03    3.58      12.7  T
   7    -57.2230524 -0.169362E-07  0.560E-04    3.58      30.6  T
   8    -57.2230524 -0.276629E-08  0.206E-04    3.58      83.2  T
     SCC iter.                  ...        0 min,  0.008 sec
     gradient                   ...        0 min,  0.003 sec
 * total energy  :   -56.4762728 Eh     change       -0.4056721E-02 Eh
   gradient norm :     0.0339710 Eh/α   predicted    -0.3078817E-02 ( -24.11%)
   displ. norm   :     0.1876431 α      lambda       -0.2809869E-02
   maximum displ.:     0.0555124 α      in ANC's #7, #6, #2, ...

........................................................................
.............................. CYCLE    7 ..............................
........................................................................

 iter      E             dE          RMSdq      gap      omega  full diag
   1    -57.2326286 -0.572326E+02  0.995E-02    3.59       0.0  T
   2    -57.2326547 -0.260331E-04  0.595E-02    3.59       1.0  T
   3    -57.2326504  0.427343E-05  0.243E-02    3.59       1.0  T
   4    -57.2326562 -0.584325E-05  0.888E-03    3.59       1.9  T
   5    -57.2326585 -0.227111E-05  0.188E-03    3.59       9.1  T
   6    -57.2326585 -0.199342E-07  0.974E-04    3.59      17.6  T
   7    -57.2326585 -0.111399E-07  0.344E-04    3.59      49.9  T
     SCC iter.                  ...        0 min,  0.007 sec
     gradient                   ...        0 min,  0.001 sec
 * total energy  :   -56.4778751 Eh     change       -0.1602276E-02 Eh
   gradient norm :     0.0203194 Eh/α   predicted    -0.1454410E-02 (  -9.23%)
   displ. norm   :     0.1185640 α      lambda       -0.8160551E-03
   maximum displ.:     0.0445116 α      in ANC's #6, #2, #10, ...

........................................................................
.............................. CYCLE    8 ..............................
........................................................................

 iter      E             dE          RMSdq      gap      omega  full diag
   1    -57.2338786 -0.572339E+02  0.610E-02    3.59       0.0  T
   2    -57.2338845 -0.596271E-05  0.354E-02    3.60       1.0  T
   3    -57.2338844  0.146533E-06  0.971E-03    3.60       1.8  T
   4    -57.2338850 -0.589894E-06  0.221E-03    3.60       7.8  T
   5    -57.2338851 -0.814129E-07  0.105E-03    3.60      16.3  T
   6    -57.2338851 -0.107425E-07  0.394E-04    3.60      43.5  T
   7    -57.2338851 -0.182258E-08  0.160E-04    3.60     107.1  T
     SCC iter.                  ...        0 min,  0.008 sec
     gradient                   ...        0 min,  0.002 sec
 * total energy  :   -56.4784349 Eh     change       -0.5598345E-03 Eh
   gradient norm :     0.0124420 Eh/α   predicted    -0.4137803E-03 ( -26.09%)
   displ. norm   :     0.1216923 α      lambda       -0.5477468E-03
   maximum displ.:     0.0451317 α      in ANC's #8, #10, #6, ...

........................................................................
.............................. CYCLE    9 ..............................
........................................................................

 iter      E             dE          RMSdq      gap      omega  full diag
   1    -57.2345825 -0.572346E+02  0.621E-02    3.61       0.0  T
   2    -57.2345848 -0.239212E-05  0.364E-02    3.61       1.0  T
   3    -57.2345844  0.451217E-06  0.705E-03    3.61       2.4  T
   4    -57.2345853 -0.937188E-06  0.220E-03    3.61       7.8  T
   5    -57.2345854 -0.540574E-07  0.102E-03    3.61      16.7  T
   6    -57.2345854 -0.677250E-08  0.323E-04    3.61      53.0  T
   7    -57.2345854 -0.111577E-08  0.133E-04    3.61     129.0  T
     SCC iter.                  ...        0 min,  0.007 sec
     gradient                   ...        0 min,  0.004 sec
 * total energy  :   -56.4787295 Eh     change       -0.2945818E-03 Eh
   gradient norm :     0.0080353 Eh/α   predicted    -0.2779404E-03 (  -5.65%)
   displ. norm   :     0.0558743 α      lambda       -0.1333698E-03
   maximum displ.:     0.0222877 α      in ANC's #8, #10, #7, ...

........................................................................
.............................. CYCLE   10 ..............................
........................................................................

 iter      E             dE          RMSdq      gap      omega  full diag
   1    -57.2355895 -0.572356E+02  0.276E-02    3.61       0.0  T
   2    -57.2355900 -0.498902E-06  0.162E-02    3.61       1.1  T
   3    -57.2355896  0.388359E-06  0.456E-03    3.61       3.8  T
   4    -57.2355901 -0.521172E-06  0.103E-03    3.61      16.7  T
   5    -57.2355902 -0.158439E-07  0.504E-04    3.61      34.0  T
   6    -57.2355902 -0.463992E-09  0.221E-04    3.61      77.8  T
     SCC iter.                  ...        0 min,  0.007 sec
     gradient                   ...        0 min,  0.002 sec
 * total energy  :   -56.4788192 Eh     change       -0.8972114E-04 Eh
   gradient norm :     0.0058230 Eh/α   predicted    -0.6690958E-04 ( -25.42%)
   displ. norm   :     0.0635691 α      lambda       -0.9540501E-04
   maximum displ.:     0.0251958 α      in ANC's #10, #4, #8, ...

........................................................................
.............................. CYCLE   11 ..............................
........................................................................

 iter      E             dE          RMSdq      gap      omega  full diag
   1    -57.2354597 -0.572355E+02  0.258E-02    3.61       0.0  T
   2    -57.2354601 -0.372612E-06  0.152E-02    3.61       1.1  T
   3    -57.2354591  0.950549E-06  0.674E-03    3.61       2.5  T
   4    -57.2354603 -0.116864E-05  0.107E-03    3.61      16.0  T
   5    -57.2354603 -0.177552E-07  0.480E-04    3.61      35.7  T
   6    -57.2354603  0.199499E-09  0.214E-04    3.61      80.3  T
     SCC iter.                  ...        0 min,  0.006 sec
     gradient                   ...        0 min,  0.001 sec
 * total energy  :   -56.4788811 Eh     change       -0.6189906E-04 Eh
   gradient norm :     0.0035355 Eh/α   predicted    -0.4791301E-04 ( -22.59%)
   displ. norm   :     0.0500780 α      lambda       -0.3898506E-04
   maximum displ.:     0.0302038 α      in ANC's #4, #8, #10, ...

........................................................................
.............................. CYCLE   12 ..............................
........................................................................

 iter      E             dE          RMSdq      gap      omega  full diag
   1    -57.2358197 -0.572358E+02  0.181E-02    3.60       0.0  T
   2    -57.2358200 -0.253857E-06  0.106E-02    3.60       1.6  T
   3    -57.2358194  0.621468E-06  0.567E-03    3.60       3.0  T
   4    -57.2358202 -0.799775E-06  0.782E-04    3.60      21.9  T
   5    -57.2358202 -0.840001E-08  0.368E-04    3.60      46.6  T
     SCC iter.                  ...        0 min,  0.005 sec
     gradient                   ...        0 min,  0.001 sec
 * total energy  :   -56.4789066 Eh     change       -0.2543746E-04 Eh
   gradient norm :     0.0023967 Eh/α   predicted    -0.1954704E-04 ( -23.16%)
   displ. norm   :     0.0506917 α      lambda       -0.2398267E-04
   maximum displ.:     0.0335577 α      in ANC's #4, #5, #8, ...

........................................................................
.............................. CYCLE   13 ..............................
........................................................................

 iter      E             dE          RMSdq      gap      omega  full diag
   1    -57.2355645 -0.572356E+02  0.173E-02    3.60       0.0  T
   2    -57.2355647 -0.221097E-06  0.102E-02    3.60       1.7  T
   3    -57.2355644  0.326844E-06  0.361E-03    3.60       4.7  T
   4    -57.2355648 -0.395464E-06  0.850E-04    3.60      20.2  T
   5    -57.2355648 -0.144764E-07  0.324E-04    3.60      52.9  T
     SCC iter.                  ...        0 min,  0.006 sec
     gradient                   ...        0 min,  0.002 sec
 * total energy  :   -56.4789224 Eh     change       -0.1584880E-04 Eh
   gradient norm :     0.0018307 Eh/α   predicted    -0.1202365E-04 ( -24.14%)
   displ. norm   :     0.0721214 α      lambda       -0.1623785E-04
   maximum displ.:     0.0501096 α      in ANC's #4, #5, #1, ...

........................................................................
.............................. CYCLE   14 ..............................
........................................................................

 iter      E             dE          RMSdq      gap      omega  full diag
   1    -57.2356744 -0.572357E+02  0.238E-02    3.60       0.0  T
   2    -57.2356747 -0.316296E-06  0.139E-02    3.60       1.2  T
   3    -57.2356746  0.114708E-06  0.252E-03    3.60       6.8  T
   4    -57.2356747 -0.169311E-06  0.769E-04    3.60      22.3  T
   5    -57.2356747 -0.127398E-07  0.398E-04    3.60      43.1  T
     SCC iter.                  ...        0 min,  0.005 sec
     gradient                   ...        0 min,  0.002 sec
 * total energy  :   -56.4789344 Eh     change       -0.1195876E-04 Eh
   gradient norm :     0.0020950 Eh/α   predicted    -0.8143327E-05 ( -31.90%)
   displ. norm   :     0.0171358 α      lambda       -0.6644137E-05
   maximum displ.:     0.0100285 α      in ANC's #5, #4, #1, ...

........................................................................
.............................. CYCLE   15 ..............................
........................................................................

 iter      E             dE          RMSdq      gap      omega  full diag
   1    -57.2357910 -0.572358E+02  0.617E-03    3.60       0.0  T
   2    -57.2357910 -0.218104E-07  0.361E-03    3.60       4.8  T
   3    -57.2357909  0.724429E-07  0.183E-03    3.60       9.4  T
   4    -57.2357910 -0.889010E-07  0.207E-04    3.60      82.7  T
   5    -57.2357910 -0.554948E-09  0.103E-04    3.60     165.9  T
     SCC iter.                  ...        0 min,  0.006 sec
     gradient                   ...        0 min,  0.002 sec
 * total energy  :   -56.4789390 Eh     change       -0.4662579E-05 Eh
   gradient norm :     0.0014523 Eh/α   predicted    -0.3325991E-05 ( -28.67%)
   displ. norm   :     0.0366671 α      lambda       -0.6148281E-05
   maximum displ.:     0.0220556 α      in ANC's #5, #4, #1, ...

........................................................................
.............................. CYCLE   16 ..............................
........................................................................

 iter      E             dE          RMSdq      gap      omega  full diag
   1    -57.2357752 -0.572358E+02  0.124E-02    3.60       0.0  T
   2    -57.2357753 -0.823378E-07  0.734E-03    3.60       2.3  T
   3    -57.2357751  0.184457E-06  0.276E-03    3.60       6.2  T
   4    -57.2357754 -0.221482E-06  0.487E-04    3.60      35.2  T
   5    -57.2357754 -0.438598E-08  0.209E-04    3.60      82.0  T
     SCC iter.                  ...        0 min,  0.006 sec
     gradient                   ...        0 min,  0.001 sec
 * total energy  :   -56.4789430 Eh     change       -0.3935017E-05 Eh
   gradient norm :     0.0011110 Eh/α   predicted    -0.3077147E-05 ( -21.80%)
   displ. norm   :     0.0171888 α      lambda       -0.2060311E-05
   maximum displ.:     0.0106706 α      in ANC's #5, #4, #17, ...

........................................................................
.............................. CYCLE   17 ..............................
........................................................................

 iter      E             dE          RMSdq      gap      omega  full diag
   1    -57.2358857 -0.572359E+02  0.579E-03    3.60       0.0  T
   2    -57.2358858 -0.186410E-07  0.337E-03    3.60       5.1  T
   3    -57.2358857  0.490999E-07  0.150E-03    3.60      11.4  T
   4    -57.2358858 -0.596910E-07  0.209E-04    3.60      82.0  T
   5    -57.2358858 -0.666041E-09  0.994E-05    3.60     172.5  T
     SCC iter.                  ...        0 min,  0.006 sec
     gradient                   ...        0 min,  0.002 sec
 * total energy  :   -56.4789450 Eh     change       -0.2005729E-05 Eh
   gradient norm :     0.0007389 Eh/α   predicted    -0.1033339E-05 ( -48.48%)
   displ. norm   :     0.0255754 α      lambda       -0.2042817E-05
   maximum displ.:     0.0179833 α      in ANC's #5, #4, #1, ...

   *** GEOMETRY OPTIMIZATION CONVERGED AFTER 17 ITERATIONS ***

------------------------------------------------------------------------
 total energy gain   :        -0.5662162 Eh     -355.3060 kcal/mol
 total RMSD          :         0.3040156 a0        0.1609 Å
 total power (kW/mol):       -87.4470768 (step)-8125.7102 (real)
------------------------------------------------------------------------

 ANCopt (total)                0 d,  0 h,  0 min,  0.183 sec
 optimizer setup                ...        0 min,  0.000 sec (  0.075%)
 model hessian                  ...        0 min,  0.005 sec (  2.675%)
 ANC generation                 ...        0 min,  0.002 sec (  1.210%)
 coordinate transformation      ...        0 min,  0.000 sec (  0.043%)
 single point calculation       ...        0 min,  0.169 sec ( 92.282%)
 optimization log               ...        0 min,  0.001 sec (  0.610%)
 hessian update                 ...        0 min,  0.001 sec (  0.665%)
 rational function              ...        0 min,  0.002 sec (  0.868%)

================
 final structure:
================
34
 xtb: 6.7.1-6.fc44.fc44
O           -4.42036645467461        0.74284958167018        0.72910878061168
C           -4.52682885425157        1.63975772438581       -0.22979359949239
O           -5.13097839155701        2.66791190425207       -0.10692347112202
H           -3.84453842467409       -0.03036268205183        0.46505938952890
C           -3.83932272433494        1.25717441495281       -1.56002431449708
H           -4.00386804946721        2.05863475877100       -2.27837575615883
H           -4.32168474955639        0.33927054623676       -1.92119616331013
N           -2.41542946296010        1.02671269117753       -1.42222440736856
H           -1.75486229863484        1.63727049218160       -1.88625995650319
C           -1.88743230313798       -0.03899852061161       -0.81151562535075
O           -2.55453465868672       -0.86557970494878       -0.19691416509379
C           -0.37144065310982       -0.10592071117082       -0.88695098289557
H           -0.08190778269697       -1.16773138107202       -0.91451184060624
N            0.10552465345997        0.66210531113926       -2.03037040467232
H           -0.00299722994870        0.13003818438637       -2.88739916604799
H            1.09490755563178        0.85810066444396       -1.91269214124366
C            0.18272377628255        0.50983985292511        0.41703988811947
H           -0.29447053205542        0.01091612379808        1.26228592385599
H           -0.07560987849975        1.57011033123317        0.43880199376457
C            1.66254230972811        0.34310661427410        0.49265784315666
C            2.61617949605777        1.29419274786963        0.26961693003907
H            2.49245182218637        2.33600729257805        0.04196167892923
N            3.86557319851723        0.74811203579624        0.39246356303795
H            4.73241844637928        1.25021455320666        0.30852678663992
C            3.74253654988568       -0.57682969711677        0.69980397322011
C            4.71114404627215       -1.54797361501529        0.91997554680458
H            5.76310991151187       -1.30867393010082        0.86566686538178
C            4.27906269021326       -2.82322236988656        1.21287673383105
H            5.00442833144849       -3.60328654272420        1.39043631250125
C            2.91742450191428       -3.13070880935546        1.28901736507906
H            2.62280924739543       -4.14245119783706        1.52601460972998
C            1.95245544445456       -2.17377081784233        1.07154422746123
H            0.90306692584620       -2.41866805124787        1.13937920662340
C            2.36049896731758       -0.87471004398682        0.76809371702793

 Bond Distances (Angstroems)
 ---------------------------
O1-C2=1.3173         O1-H4=0.9996         C2-O1=1.3173         C2-O3=1.1988         C2-C5=1.5455         O3-C2=1.1988         
H4-O1=0.9996         C5-C2=1.5455         C5-H6=1.0888         C5-H7=1.0980         C5-N8=1.4490         H6-C5=1.0888         
H7-C5=1.0980         N8-C5=1.4490         N8-H9=1.0122         N8-C10=1.3370        H9-N8=1.0122         C10-N8=1.3370        
C10-O11=1.2272       C10-C12=1.5193       O11-C10=1.2272       C12-C10=1.5193       C12-H13=1.1009       C12-N14=1.4577       
C12-C17=1.5449       H13-C12=1.1009       N14-C12=1.4577       N14-H15=1.0146       N14-H16=1.0155       H15-N14=1.0146       
H16-N14=1.0155       C17-C12=1.5449       C17-H18=1.0914       C17-H19=1.0915       C17-C20=1.4911       H18-C17=1.0914       
H19-C17=1.0915       C20-C17=1.4911       C20-C21=1.3652       C20-C34=1.4304       C21-C20=1.3652       C21-H22=1.0736       
C21-N23=1.3690       H22-C21=1.0736       N23-C21=1.3690       N23-H24=1.0053       N23-C25=1.3657       H24-N23=1.0053       
C25-N23=1.3657       C25-C26=1.3892       C25-C34=1.4154       C26-C25=1.3892       C26-H27=1.0802       C26-C28=1.3779       
H27-C26=1.0802       C28-C26=1.3779       C28-H29=1.0799       C28-C30=1.3980       H29-C28=1.0799       C30-C28=1.3980       
C30-H31=1.0801       C30-C32=1.3763       H31-C30=1.0801       C32-C30=1.3763       C32-H33=1.0797       C32-C34=1.3950       
H33-C32=1.0797       C34-C20=1.4304       C34-C25=1.4154       C34-C32=1.3950       
 C  H  Rav=1.0864 sigma=0.0086  Rmin=1.0736  Rmax=1.1009    10
 C  C  Rav=1.4374 sigma=0.0655  Rmin=1.3652  Rmax=1.5455    12
 N  H  Rav=1.0119 sigma=0.0040  Rmin=1.0053  Rmax=1.0155     4
 N  C  Rav=1.3957 sigma=0.0485  Rmin=1.3370  Rmax=1.4577     5
 O  H  Rav=0.9996 sigma=0.0000  Rmin=0.9996  Rmax=0.9996     1
 O  C  Rav=1.2478 sigma=0.0505  Rmin=1.1988  Rmax=1.3173     3

 selected bond angles (degree)
 --------------------
H4-O1-C2=112.39                O3-C2-O1=123.37                C5-C2-O1=114.96                C5-C2-O3=121.65                
H6-C5-C2=108.57                H7-C5-C2=107.14                H7-C5-H6=109.39                N8-C5-C2=113.24                
N8-C5-H6=109.17                N8-C5-H7=109.27                H9-N8-C5=120.12                C10-N8-C5=123.94               
C10-N8-H9=115.63               O11-C10-N8=123.43              C12-C10-N8=113.98              C12-C10-O11=122.52             

 selected dihedral angles (degree)
 ---------------------------------
O3-C2-O1-H4=182.77            C5-C2-O1-H4=  4.27            H6-C5-C2-O1=179.14            H6-C5-C2-O3=  0.61            
H7-C5-C2-O1= 61.11            H7-C5-C2-O3=242.58            N8-C5-C2-O1=300.56            N8-C5-C2-O3=122.03            
H9-N8-C5-C2=244.87            H9-N8-C5-H6=  5.94            H9-N8-C5-H7=125.54            C10-N8-C5-C2= 71.61           
C10-N8-C5-H6=192.69           C10-N8-C5-H7=312.28           O11-C10-N8-C5=352.91          O11-C10-N8-H9=179.37          
C12-C10-N8-C5=175.68          C12-C10-N8-H9=  2.15          
           -------------------------------------------------
          |                Final Singlepoint                |
           -------------------------------------------------

          ...................................................
          :                      SETUP                      :
          :.................................................:
          :  # basis functions                  91          :
          :  # atomic orbitals                  91          :
          :  # shells                           53          :
          :  # electrons                       100          :
          :  max. iterations                   250          :
          :  Hamiltonian                  GFN2-xTB          :
          :  restarted?                      false          :
          :  GBSA solvation                  false          :
          :  PC potential                    false          :
          :  electronic temp.          300.0000000     K    :
          :  accuracy                    1.0000000          :
          :  -> integral cutoff          0.2500000E+02      :
          :  -> integral neglect         0.1000000E-07      :
          :  -> SCF convergence          0.1000000E-05 Eh   :
          :  -> wf. convergence          0.1000000E-03 e    :
          :  Broyden damping             0.4000000          :
          :  net charge                          0          :
          :  unpaired electrons                  0          :
          ...................................................

 iter      E             dE          RMSdq      gap      omega  full diag
   1    -57.2358858 -0.572359E+02  0.459E-05    3.60       0.0  T
   2    -57.2358858 -0.137419E-10  0.287E-05    3.60     597.9  T
   3    -57.2358858 -0.112692E-10  0.168E-05    3.60    1018.3  T

   *** convergence criteria satisfied after 3 iterations ***

         #    Occupation            Energy/Eh            Energy/eV
      -------------------------------------------------------------
         1        2.0000           -0.7340530             -19.9746
       ...           ...                  ...                  ...
        44        2.0000           -0.4257770             -11.5860
        45        2.0000           -0.4225726             -11.4988
        46        2.0000           -0.4197227             -11.4212
        47        2.0000           -0.4021839             -10.9440
        48        2.0000           -0.3962900             -10.7836
        49        2.0000           -0.3898620             -10.6087
        50        2.0000           -0.3728577             -10.1460 (HOMO)
        51                         -0.2404868              -6.5440 (LUMO)
        52                         -0.2332224              -6.3463
        53                         -0.2293488              -6.2409
        54                         -0.2047010              -5.5702
        55                         -0.1674894              -4.5576
       ...                                ...                  ...
        91                          0.7100920              19.3226
      -------------------------------------------------------------
                  HL-Gap            0.1323709 Eh            3.6020 eV
             Fermi-level           -0.3066722 Eh           -8.3450 eV

 SCC (total)                   0 d,  0 h,  0 min,  0.006 sec
 SCC setup                      ...        0 min,  0.000 sec (  3.072%)
 Dispersion                     ...        0 min,  0.000 sec (  1.848%)
 classical contributions        ...        0 min,  0.000 sec (  0.198%)
 integral evaluation            ...        0 min,  0.000 sec (  8.384%)
 iterations                     ...        0 min,  0.003 sec ( 57.123%)
 molecular gradient             ...        0 min,  0.001 sec ( 24.328%)
 printout                       ...        0 min,  0.000 sec (  4.945%)

         :::::::::::::::::::::::::::::::::::::::::::::::::::::
         ::                     SUMMARY                     ::
         :::::::::::::::::::::::::::::::::::::::::::::::::::::
         :: total energy             -56.478944990152 Eh    ::
         :: gradient norm              0.000738818096 Eh/a0 ::
         :: HOMO-LUMO gap              3.601995595672 eV    ::
         ::.................................................::
         :: SCC energy               -57.235827638890 Eh    ::
         :: -> isotropic ES            0.098409544665 Eh    ::
         :: -> anisotropic ES          0.003617280119 Eh    ::
         :: -> anisotropic XC          0.019384538157 Eh    ::
         :: -> dispersion             -0.034013061004 Eh    ::
         :: repulsion energy           0.756882648738 Eh    ::
         :: add. restraining           0.000000000000 Eh    ::
         :: total charge              -0.000000000000 e     ::
         :::::::::::::::::::::::::::::::::::::::::::::::::::::

           -------------------------------------------------
          |                Property Printout                |
           -------------------------------------------------

    * Orbital Energies and Occupations

         #    Occupation            Energy/Eh            Energy/eV
      -------------------------------------------------------------
         1        2.0000           -0.7340530             -19.9746
       ...           ...                  ...                  ...
        38        2.0000           -0.4708942             -12.8137
        39        2.0000           -0.4627606             -12.5924
        40        2.0000           -0.4619910             -12.5714
        41        2.0000           -0.4583413             -12.4721
        42        2.0000           -0.4454996             -12.1227
        43        2.0000           -0.4334475             -11.7947
        44        2.0000           -0.4257770             -11.5860
        45        2.0000           -0.4225726             -11.4988
        46        2.0000           -0.4197227             -11.4212
        47        2.0000           -0.4021839             -10.9440
        48        2.0000           -0.3962900             -10.7836
        49        2.0000           -0.3898620             -10.6087
        50        2.0000           -0.3728577             -10.1460 (HOMO)
        51                         -0.2404868              -6.5440 (LUMO)
        52                         -0.2332224              -6.3463
        53                         -0.2293488              -6.2409
        54                         -0.2047010              -5.5702
        55                         -0.1674894              -4.5576
        56                         -0.0787122              -2.1419
        57                         -0.0195168              -0.5311
        58                          0.0099637               0.2711
        59                          0.0256718               0.6986
        60                          0.0633972               1.7251
        61                          0.0818389               2.2270
       ...                                ...                  ...
        91                          0.7100920              19.3226
      -------------------------------------------------------------
                  HL-Gap            0.1323709 Eh            3.6020 eV
             Fermi-level           -0.3066722 Eh           -8.3450 eV

     #   Z          covCN         q      C6AA      α(0)
     1   8 O        1.655    -0.375    20.375     6.093
     2   6 C        2.684     0.358    20.917     7.484
     3   8 O        0.856    -0.379    21.257     6.182
     4   1 H        0.800     0.365     0.555     1.170
     5   6 C        3.737    -0.039    21.362     6.596
     6   1 H        0.925     0.077     2.007     2.215
     7   1 H        0.923     0.074     2.040     2.233
     8   7 N        2.688    -0.164    24.538     7.357
     9   1 H        0.860     0.205     1.080     1.628
    10   6 C        2.758     0.262    22.587     7.783
    11   8 O        0.858    -0.460    22.921     6.419
    12   6 C        3.790     0.032    20.051     6.377
    13   1 H        0.923     0.041     2.431     2.438
    14   7 N        2.633    -0.357    29.191     8.024
    15   1 H        0.860     0.142     1.457     1.891
    16   1 H        0.860     0.156     1.363     1.829
    17   6 C        3.810    -0.061    21.668     6.626
    18   1 H        0.924     0.059     2.216     2.328
    19   1 H        0.924     0.045     2.383     2.414
    20   6 C        3.056    -0.031    28.709     8.787
    21   6 C        3.031    -0.010    28.242     8.717
    22   1 H        0.926     0.031     2.570     2.507
    23   7 N        2.777    -0.106    23.328     7.173
    24   1 H        0.860     0.158     1.345     1.817
    25   6 C        3.085     0.044    26.916     8.505
    26   6 C        2.908    -0.053    29.314     8.878
    27   1 H        0.926     0.024     2.678     2.559
    28   6 C        2.925    -0.035    28.874     8.812
    29   1 H        0.926     0.030     2.593     2.518
    30   6 C        2.920    -0.040    29.002     8.831
    31   1 H        0.926     0.029     2.596     2.519
    32   6 C        2.911    -0.036    28.905     8.816
    33   1 H        0.926     0.034     2.536     2.490
    34   6 C        3.117    -0.020    28.327     8.718

 Mol. C6AA /au·bohr⁶  :      13330.374914
 Mol. C8AA /au·bohr⁸  :     312376.912708
 Mol. α(0) /au        :        178.735864


Wiberg/Mayer (AO) data.
largest (>0.10) Wiberg bond orders for each atom

 ---------------------------------------------------------------------------
     #   Z sym  total        # sym  WBO       # sym  WBO       # sym  WBO
 ---------------------------------------------------------------------------
     1   8 O    2.233 --     2 C    1.203     4 H    0.767     3 O    0.183
     2   6 C    3.932 --     3 O    1.772     1 O    1.203     5 C    0.925
     3   8 O    2.065 --     2 C    1.772     1 O    0.183
     4   1 H    0.867 --     1 O    0.767
     5   6 C    3.964 --     8 N    0.991     6 H    0.974     7 H    0.952
                             2 C    0.925
     6   1 H    0.994 --     5 C    0.974
     7   1 H    0.994 --     5 C    0.952
     8   7 N    3.477 --    10 C    1.307     5 C    0.991     9 H    0.915
                            11 O    0.193
     9   1 H    0.958 --     8 N    0.915
    10   6 C    3.947 --    11 O    1.602     8 N    1.307    12 C    0.954
    11   8 O    2.007 --    10 C    1.602     8 N    0.193
    12   6 C    3.982 --    14 N    1.015    10 C    0.954    17 C    0.953
                            13 H    0.952
    13   1 H    0.998 --    12 C    0.952
    14   7 N    3.019 --    12 C    1.015    15 H    0.966    16 H    0.953
    15   1 H    0.980 --    14 N    0.966
    16   1 H    0.976 --    14 N    0.953
    17   6 C    3.992 --    20 C    1.017    19 H    0.974    18 H    0.966
                            12 C    0.953
    18   1 H    0.997 --    17 C    0.966
    19   1 H    0.998 --    17 C    0.974
    20   6 C    3.976 --    21 C    1.578    34 C    1.200    17 C    1.017
    21   6 C    3.948 --    20 C    1.578    23 N    1.194    22 H    0.969
    22   1 H    0.998 --    21 C    0.969
    23   7 N    3.539 --    21 C    1.194    25 C    1.174    24 H    0.947
    24   1 H    0.974 --    23 N    0.947
    25   6 C    3.958 --    26 C    1.338    34 C    1.252    23 N    1.174
    26   6 C    3.989 --    28 C    1.494    25 C    1.338    27 H    0.969
                            32 C    0.114
    27   1 H    0.999 --    26 C    0.969
    28   6 C    3.991 --    26 C    1.494    30 C    1.372    29 H    0.972
    29   1 H    0.999 --    28 C    0.972
    30   6 C    3.991 --    32 C    1.506    28 C    1.372    31 H    0.972
    31   1 H    0.999 --    30 C    0.972
    32   6 C    3.992 --    30 C    1.506    34 C    1.331    33 H    0.968
                            26 C    0.114
    33   1 H    0.998 --    32 C    0.968
    34   6 C    3.984 --    32 C    1.331    25 C    1.252    20 C    1.200
 ---------------------------------------------------------------------------

Topologies differ in total number of bonds
Writing topology from bond orders to xtbtopo.mol

molecular dipole:
                 x           y           z       tot (Debye)
 q only:        2.186       0.168      -1.308
   full:        2.964      -0.042      -1.723       8.715
molecular quadrupole (traceless):
                xx          xy          yy          xz          yz          zz
 q only:      -10.554      16.640      -1.350       9.582      -4.221      11.905
  q+dip:      -10.195      23.029      -0.135      11.332      -4.180      10.330
   full:      -11.179      23.324      -2.173      11.781      -2.849      13.353

           -------------------------------------------------
          |                Geometry Summary                 |
           -------------------------------------------------

      molecular mass/u    :      261.2770023
   center of mass at/Å    :        0.0082067      -0.0093739       0.0130593
  moments of inertia/u·Å² :        0.5134656E+03   0.3239738E+04   0.3446088E+04
rotational constants/cm⁻¹ :        0.3283108E-01   0.5203394E-02   0.4891818E-02

 * 32 selected distances

     #   Z          #   Z                                           value/Å
     1   8 O        2   6 C                                       1.3172974
     2   6 C        3   8 O                                       1.1988307
     1   8 O        4   1 H                                       0.9995786 (min)
     5   6 C        6   1 H                                       1.0887804
     5   6 C        7   1 H                                       1.0980282
     5   6 C        8   7 N                                       1.4489906
     8   7 N        9   1 H                                       1.0121556
     8   7 N       10   6 C                                       1.3369693
    10   6 C       11   8 O                                       1.2271908
    12   6 C       13   1 H                                       1.1009228
    12   6 C       14   7 N                                       1.4576585
    14   7 N       15   1 H                                       1.0145792
    14   7 N       16   1 H                                       1.0154512
    17   6 C       18   1 H                                       1.0913663
    17   6 C       19   1 H                                       1.0915052
    17   6 C       20   6 C                                       1.4911007 (max)
    20   6 C       21   6 C                                       1.3651873
    21   6 C       22   1 H                                       1.0735517
    21   6 C       23   7 N                                       1.3690436
    23   7 N       24   1 H                                       1.0052727
    23   7 N       25   6 C                                       1.3656746
    25   6 C       26   6 C                                       1.3891713
    26   6 C       27   1 H                                       1.0802065
    26   6 C       28   6 C                                       1.3779496
    28   6 C       29   1 H                                       1.0798996
    28   6 C       30   6 C                                       1.3980001
    30   6 C       31   1 H                                       1.0800874
    30   6 C       32   6 C                                       1.3762959
    32   6 C       33   1 H                                       1.0797188
    20   6 C       34   6 C                                       1.4304147
    25   6 C       34   6 C                                       1.4154238
    32   6 C       34   6 C                                       1.3950416

 * 6 distinct bonds (by element types)

   Z      Z             #   av. dist./Å        max./Å        min./Å
   1 H    6 C          10     1.0864067     1.1009228     1.0735517
   6 C    6 C           9     1.4042872     1.4911007     1.3651873
   1 H    7 N           4     1.0118647     1.0154512     1.0052727
   6 C    7 N           5     1.3956673     1.4576585     1.3369693
   1 H    8 O           1     0.9995786     0.9995786     0.9995786
   6 C    8 O           3     1.2477730     1.3172974     1.1988307


optimized geometry written to: xtbopt.xyz


           -------------------------------------------------
          | TOTAL ENERGY              -56.478944990152 Eh   |
          | GRADIENT NORM               0.000738818096 Eh/α |
          | HOMO-LUMO GAP               3.601995595672 eV   |
           -------------------------------------------------

------------------------------------------------------------------------
 * finished run on 2026/10/01 at 18:05:18.710     
------------------------------------------------------------------------
 total:
 * wall-time:     0 d,  0 h,  0 min,  0.269 sec
 *  cpu-time:     0 d,  0 h,  0 min,  4.148 sec
 * ratio c/w:    15.420 speedup
 SCF:
 * wall-time:     0 d,  0 h,  0 min,  0.058 sec
 *  cpu-time:     0 d,  0 h,  0 min,  0.867 sec
 * ratio c/w:    15.033 speedup
 ANC optimizer:
 * wall-time:     0 d,  0 h,  0 min,  0.190 sec
 *  cpu-time:     0 d,  0 h,  0 min,  2.980 sec
 * ratio c/w:    15.675 speedup


--- STDERR ---
normal termination of xtb
Note: The following floating-point exceptions are signalling: IEEE_UNDERFLOW_FLAG IEEE_DENORMAL
