34
 energy: -56.478944990152 gnorm: 0.000738818096 xtb: 6.7.1-6.fc44.fc44
O           -4.42036645467461        0.74284958167018        0.72910878061168
C           -4.52682885425157        1.63975772438581       -0.22979359949239
O           -5.13097839155701        2.66791190425207       -0.10692347112202
H           -3.84453842467409       -0.03036268205183        0.46505938952890
C           -3.83932272433494        1.25717441495281       -1.56002431449708
H           -4.00386804946721        2.05863475877100       -2.27837575615883
H           -4.32168474955639        0.33927054623676       -1.92119616331013
N           -2.41542946296010        1.02671269117753       -1.42222440736856
H           -1.75486229863484        1.63727049218160       -1.88625995650319
C           -1.88743230313798       -0.03899852061161       -0.81151562535075
O           -2.55453465868672       -0.86557970494878       -0.19691416509379
C           -0.37144065310982       -0.10592071117082       -0.88695098289557
H           -0.08190778269697       -1.16773138107202       -0.91451184060624
N            0.10552465345997        0.66210531113926       -2.03037040467232
H           -0.00299722994870        0.13003818438637       -2.88739916604799
H            1.09490755563178        0.85810066444396       -1.91269214124366
C            0.18272377628255        0.50983985292511        0.41703988811947
H           -0.29447053205542        0.01091612379808        1.26228592385599
H           -0.07560987849975        1.57011033123317        0.43880199376457
C            1.66254230972811        0.34310661427410        0.49265784315666
C            2.61617949605777        1.29419274786963        0.26961693003907
H            2.49245182218637        2.33600729257805        0.04196167892923
N            3.86557319851723        0.74811203579624        0.39246356303795
H            4.73241844637928        1.25021455320666        0.30852678663992
C            3.74253654988568       -0.57682969711677        0.69980397322011
C            4.71114404627215       -1.54797361501529        0.91997554680458
H            5.76310991151187       -1.30867393010082        0.86566686538178
C            4.27906269021326       -2.82322236988656        1.21287673383105
H            5.00442833144849       -3.60328654272420        1.39043631250125
C            2.91742450191428       -3.13070880935546        1.28901736507906
H            2.62280924739543       -4.14245119783706        1.52601460972998
C            1.95245544445456       -2.17377081784233        1.07154422746123
H            0.90306692584620       -2.41866805124787        1.13937920662340
C            2.36049896731758       -0.87471004398682        0.76809371702793
