68
frame_0004
O       1.238431332100000     -0.188311533000000      1.441924580600000
O       1.020768267400000     -0.917164580600000     -1.661717145400000
O      -3.431366122100000     -2.633864545400000     -0.231299733700000
O      -3.188569878200000      3.069526911700000      0.397330147600000
O      -1.322394024200000      1.639743942500000     -1.390936223600000
O       2.282751545200000      2.836073232900000      1.226683095600000
N       0.320541718700000     -2.348222448100000     -0.106618532200000
N      -2.199534320500000     -0.897593448700000     -0.988407997800000
N      -3.850568009100000      0.941785414800000      0.249506879700000
N      -0.571053403800000      2.078115317600000      0.687441879300000
N       1.935641696100000      1.762009169600000     -0.730824985400000
N       3.241147513200000     -0.467812059400000      0.474676523700000
C       2.023786892400000     -0.898499530100000      0.835378462500000
C       1.652303884400000     -2.341399483000000      0.491465294300000
C       1.511957489100000     -3.203751592400000      1.748896549100000
C       0.315987408900000     -4.097505774200000      1.428794126700000
C      -0.603212314900000     -3.143475305500000      0.674640528500000
C       0.111676092000000     -1.596185934800000     -1.194995861900000
C      -1.287422389500000     -1.653888804400000     -1.821744257800000
C      -1.264940135000000     -1.070804471000000     -3.229513483100000
C      -3.181652328600000     -1.440962612700000     -0.268091166700000
C      -3.964507439100000     -0.448675629000000      0.625724626200000
C      -5.437455863800000     -0.851320417800000      0.643030173500000
C      -2.971617039400000      1.899941288600000      0.627940782200000
C      -1.696290415700000      1.458949348300000      1.364751109200000
C      -1.740243949500000      1.941322143000000      2.809039508400000
C      -0.463032091400000      2.082238592600000     -0.640126077800000
C       0.864213470000000      2.645108882300000     -1.159278193000000
C       0.862590195900000      2.749387847000000     -2.676067615200000
C       2.520938714400000      1.913013060400000      0.470136065100000
C       3.632862974600000      0.905778665700000      0.764199779700000
C       4.861909221700000      1.133645142700000     -0.118451117500000
C       5.473578579700000     -0.260785666600000     -0.216327339200000
C       4.247840035700000     -1.168874091600000     -0.301774717000000
H       2.353302112700000     -2.770391888000000     -0.229940297000000
H       2.420404421800000     -3.762484274100000      1.965078509900000
H       1.278790986200000     -2.560401670800000      2.598879155900000
H       0.619715441500000     -4.919160579800000      0.778652605600000
H      -0.154460108900000     -4.507837524700000      2.318927861900000
H      -1.338269981300000     -3.651416237800000      0.051884802100000
H      -1.140545562200000     -2.499165390300000      1.380145857400000
H      -2.083378510900000      0.118090507700000     -1.053757292100000
H      -1.635318489900000     -2.693069008500000     -1.839113944200000
H      -0.499150976400000     -1.559174155800000     -3.825939937600000
H      -1.046185770100000     -0.007766577400000     -3.172589635100000
H      -2.233045347900000     -1.208434620400000     -3.703401741700000
H      -4.622600868600000      1.304338209100000     -0.295035129300000
H      -3.557318770400000     -0.581428042600000      1.637246199200000
H      -5.983601943300000     -0.279786864300000      1.389146119800000
H      -5.513628777700000     -1.910750561500000      0.871438222800000
H      -5.882789528900000     -0.680063559700000     -0.334748740400000
H       0.195375057900000      2.416554267700000      1.255350993300000
H      -1.569298062900000      0.370111466900000      1.330064942000000
H      -2.553482132600000      1.458167549500000      3.345759312900000
H      -1.898223225900000      3.017029941000000      2.827844282600000
H      -0.800432883900000      1.704516618200000      3.302093144300000
H       1.956341484300000      0.860480578800000     -1.196582709800000
H       1.042853976700000      3.619942976200000     -0.691850929400000
H       0.019362041900000      3.352405675200000     -2.999702895100000
H       0.763730663400000      1.756495041100000     -3.108562048100000
H       1.786118196500000      3.202859705100000     -3.026290797000000
H       3.879824567900000      1.002907852200000      1.829349166800000
H       5.539528384200000      1.867652332600000      0.310393344900000
H       4.547270415600000      1.478131933900000     -1.104465864200000
H       6.040887735900000     -0.484459640300000      0.687708496400000
H       6.128694606600000     -0.373723603100000     -1.077150993900000
H       3.908584333400000     -1.277730496400000     -1.338815262600000
H       4.450997635400000     -2.157701734600000      0.115272605600000
