      -----------------------------------------------------------      
     |                   =====================                   |     
     |                           x T B                           |     
     |                   =====================                   |     
     |                         S. Grimme                         |     
     |          Mulliken Center for Theoretical Chemistry        |     
     |                    University of Bonn                     |     
      -----------------------------------------------------------      

   * xtb version 6.7.1-6.fc44.fc44 compiled by Fedora project on Sun Jan 18 23:32:34 UTC 2026

   xtb is free software: you can redistribute it and/or modify it under
   the terms of the GNU Lesser General Public License as published by
   the Free Software Foundation, either version 3 of the License, or
   (at your option) any later version.
   
   xtb is distributed in the hope that it will be useful,
   but WITHOUT ANY WARRANTY; without even the implied warranty of
   MERCHANTABILITY or FITNESS FOR A PARTICULAR PURPOSE.  See the
   GNU Lesser General Public License for more details.
   
   Cite this work as:
   * C. Bannwarth, E. Caldeweyher, S. Ehlert, A. Hansen, P. Pracht,
     J. Seibert, S. Spicher, S. Grimme, WIREs Comput. Mol. Sci., 2020, 11,
     e01493. DOI: 10.1002/wcms.1493
   
   for GFN2-xTB:
   * C. Bannwarth, S. Ehlert and S. Grimme., J. Chem. Theory Comput., 2019,
     15, 1652-1671. DOI: 10.1021/acs.jctc.8b01176
   for GFN1-xTB:
   * S. Grimme, C. Bannwarth, P. Shushkov, J. Chem. Theory Comput., 2017,
     13, 1989-2009. DOI: 10.1021/acs.jctc.7b00118
   for GFN0-xTB:
   * P. Pracht, E. Caldeweyher, S. Ehlert, S. Grimme, ChemRxiv, 2019, preprint.
     DOI: 10.26434/chemrxiv.8326202.v1
   for GFN-FF:
   * S. Spicher and S. Grimme, Angew. Chem. Int. Ed., 2020, 59, 15665-15673.
     DOI: 10.1002/anie.202004239
   
   for ALPB and GBSA implicit solvation:
   * S. Ehlert, M. Stahn, S. Spicher, S. Grimme, J. Chem. Theory Comput.,
     2021, 17, 4250-4261. DOI: 10.1021/acs.jctc.1c00471
   
   for ddCOSMO and CPCM-X implicit solvation:
   * M. Stahn, S. Ehlert, S. Grimme, J. Phys. Chem. A,
     2023, XX, XXXX-XXXX. DOI: 10.1021/acs.jpca.3c04382
   
   for DFT-D4:
   * E. Caldeweyher, C. Bannwarth and S. Grimme, J. Chem. Phys., 2017,
     147, 034112. DOI: 10.1063/1.4993215
   * E. Caldeweyher, S. Ehlert, A. Hansen, H. Neugebauer, S. Spicher,
     C. Bannwarth and S. Grimme, J. Chem. Phys., 2019, 150, 154122.
     DOI: 10.1063/1.5090222
   * E. Caldeweyher, J.-M. Mewes, S. Ehlert and S. Grimme, Phys. Chem. Chem. Phys.
     2020, 22, 8499-8512. DOI: 10.1039/D0CP00502A
   
   for sTDA-xTB:
   * S. Grimme and C. Bannwarth, J. Chem. Phys., 2016, 145, 054103.
     DOI: 10.1063/1.4959605
   
   in the mass-spec context:
   * V. Asgeirsson, C. Bauer and S. Grimme, Chem. Sci., 2017, 8, 4879.
     DOI: 10.1039/c7sc00601b
   * J. Koopman and S. Grimme, ACS Omega 2019, 4, 12, 15120-15133.
     DOI: 10.1021/acsomega.9b02011
   
   for metadynamics refer to:
   * S. Grimme, J. Chem. Theory Comput., 2019, 155, 2847-2862
     DOI: 10.1021/acs.jctc.9b00143
   
   for SPH calculations refer to:
   * S. Spicher and S. Grimme, J. Chem. Theory Comput., 2021, 17, 1701-1714
     DOI: 10.1021/acs.jctc.0c01306
   
   for ONIOM refer to:
   * C. Plett, A. Katbashev, S. Ehlert, S. Grimme, M. Bursch,
     Phys. Chem. Chem. Phys., 2023, 25, 17860-17868. DOI: 10.1039/D3CP02178E
   
   for DIPRO refer to:
   * J. Kohn, N. Gildemeister, S. Grimme, D. Fazzi, A. Hansen,
     J. Chem. Phys., 2023, just accepted.
   
   for PTB refer to:
   * S. Grimme, M. Mueller, A. Hansen, J. Chem. Phys., 2023, 158, 124111.
     DOI: 10.1063/5.0137838
   
   with help from (in alphabetical order)
   P. Atkinson, C. Bannwarth, F. Bohle, G. Brandenburg, E. Caldeweyher
   M. Checinski, S. Dohm, S. Ehlert, S. Ehrlich, I. Gerasimov, C. Hölzer
   A. Katbashev, J. Kohn, J. Koopman, C. Lavigne, S. Lehtola, F. März, M. Müller,
   F. Musil, H. Neugebauer, J. Pisarek, C. Plett, P. Pracht, F. Pultar,
   J. Seibert, P. Shushkov, S. Spicher, M. Stahn, M. Steiner, T. Strunk,
   J. Stückrath, T. Rose, and J. Unsleber
   
 * started run on 2026/10/01 at 13:39:05.928     
   ID    Z sym.   atoms
    1    8 O      1-6
    2    7 N      7-12
    3    6 C      13-34
    4    1 H      35-68

           -------------------------------------------------
          |                Calculation Setup                |
           -------------------------------------------------

          program call               : /usr/bin/xtb input.xyz --opt --gfn 2 --chrg 0 --uhf 0
          hostname                   : fedora
          coordinate file            : input.xyz
          omp threads                :                    16


           -------------------------------------------------
          |                 G F N 2 - x T B                 |
           -------------------------------------------------

        Reference                      10.1021/acs.jctc.8b01176
      * Hamiltonian:
        H0-scaling (s, p, d)           1.850000    2.230000    2.230000
        zeta-weighting                 0.500000
      * Dispersion:
        s8                             2.700000
        a1                             0.520000
        a2                             5.000000
        s9                             5.000000
      * Repulsion:
        kExp                           1.500000    1.000000
        rExp                           1.000000
      * Coulomb:
        alpha                          2.000000
        third order                    shell-resolved
        anisotropic                    true
        a3                             3.000000
        a5                             4.000000
        cn-shift                       1.200000
        cn-exp                         4.000000
        max-rad                        5.000000


          ...................................................
          :                      SETUP                      :
          :.................................................:
          :  # basis functions                 170          :
          :  # atomic orbitals                 170          :
          :  # shells                          102          :
          :  # electrons                       188          :
          :  max. iterations                   250          :
          :  Hamiltonian                  GFN2-xTB          :
          :  restarted?                      false          :
          :  GBSA solvation                  false          :
          :  PC potential                    false          :
          :  electronic temp.          300.0000000     K    :
          :  accuracy                    1.0000000          :
          :  -> integral cutoff          0.2500000E+02      :
          :  -> integral neglect         0.1000000E-07      :
          :  -> SCF convergence          0.1000000E-05 Eh   :
          :  -> wf. convergence          0.1000000E-03 e    :
          :  Broyden damping             0.4000000          :
          :  net charge                          0          :
          :  unpaired electrons                  0          :
          ...................................................

 iter      E             dE          RMSdq      gap      omega  full diag
   1   -107.5134557 -0.107513E+03  0.392E+00    4.30       0.0  T
   2   -107.7998804 -0.286425E+00  0.214E+00    3.92       1.0  T
   3   -107.8107698 -0.108894E-01  0.116E+00    4.10       1.0  T
   4   -107.8125982 -0.182840E-02  0.165E-01    4.03       1.0  T
   5   -107.8136022 -0.100397E-02  0.800E-02    4.07       1.0  T
   6   -107.8136499 -0.477267E-04  0.356E-02    4.06       1.0  T
   7   -107.8136530 -0.313372E-05  0.997E-03    4.06       1.2  T
   8   -107.8136543 -0.126521E-05  0.431E-03    4.05       2.8  T
   9   -107.8136545 -0.170181E-06  0.133E-03    4.06       9.1  T
  10   -107.8136545 -0.289915E-07  0.533E-04    4.06      22.7  T
  11   -107.8136545 -0.379843E-08  0.129E-04    4.06      94.1  T

   *** convergence criteria satisfied after 11 iterations ***

         #    Occupation            Energy/Eh            Energy/eV
      -------------------------------------------------------------
         1        2.0000           -0.7112412             -19.3539
       ...           ...                  ...                  ...
        88        2.0000           -0.4077638             -11.0958
        89        2.0000           -0.3937177             -10.7136
        90        2.0000           -0.3923011             -10.6751
        91        2.0000           -0.3885149             -10.5720
        92        2.0000           -0.3842994             -10.4573
        93        2.0000           -0.3828386             -10.4176
        94        2.0000           -0.3792475             -10.3198 (HOMO)
        95                         -0.2302147              -6.2645 (LUMO)
        96                         -0.2190756              -5.9613
        97                         -0.2174964              -5.9184
        98                         -0.2082411              -5.6665
        99                         -0.2033567              -5.5336
       ...                                ...                  ...
       170                          0.6479616              17.6319
      -------------------------------------------------------------
                  HL-Gap            0.1490328 Eh            4.0554 eV
             Fermi-level           -0.3047311 Eh           -8.2922 eV

 SCC (total)                   0 d,  0 h,  0 min,  0.045 sec
 SCC setup                      ...        0 min,  0.000 sec (  0.504%)
 Dispersion                     ...        0 min,  0.001 sec (  1.388%)
 classical contributions        ...        0 min,  0.000 sec (  0.161%)
 integral evaluation            ...        0 min,  0.001 sec (  3.056%)
 iterations                     ...        0 min,  0.038 sec ( 83.457%)
 molecular gradient             ...        0 min,  0.005 sec ( 10.613%)
 printout                       ...        0 min,  0.000 sec (  0.794%)

         :::::::::::::::::::::::::::::::::::::::::::::::::::::
         ::                     SUMMARY                     ::
         :::::::::::::::::::::::::::::::::::::::::::::::::::::
         :: total energy            -106.573606897317 Eh    ::
         :: gradient norm              0.000079500020 Eh/a0 ::
         :: HOMO-LUMO gap              4.055388999893 eV    ::
         ::.................................................::
         :: SCC energy              -107.809244883105 Eh    ::
         :: -> isotropic ES            0.232452793017 Eh    ::
         :: -> anisotropic ES         -0.003884622140 Eh    ::
         :: -> anisotropic XC          0.028156178168 Eh    ::
         :: -> dispersion             -0.084795784630 Eh    ::
         :: repulsion energy           1.235637985788 Eh    ::
         :: add. restraining           0.000000000000 Eh    ::
         :: total charge              -0.000000000000 e     ::
         :::::::::::::::::::::::::::::::::::::::::::::::::::::

      ----------------------------------------------------------- 
     |                   =====================                   |
     |                        A N C O P T                        |
     |                   =====================                   |
     |               Approximate Normal Coordinate               |
     |                Rational Function Optimizer                |
      ----------------------------------------------------------- 
      ----------------------------------------------------------- 
     |                   =====================                   |
     |                        A N C O P T                        |
     |                   =====================                   |
     |               Approximate Normal Coordinate               |
     |                Rational Function Optimizer                |
      ----------------------------------------------------------- 

          ...................................................
          :                      SETUP                      :
          :.................................................:
          :   optimization level            normal          :
          :   max. optcycles                   204          :
          :   ANC micro-cycles                  20          :
          :   degrees of freedom               198          :
          :.................................................:
          :   RF solver                   davidson          :
          :   write xtbopt.log                true          :
          :   linear?                        false          :
          :   energy convergence         0.5000000E-05 Eh   :
          :   grad. convergence          0.1000000E-02 Eh/α :
          :   maxmium RF displ.          1.0000000          :
          :   Hlow (freq-cutoff)         0.1000000E-01      :
          :   Hmax (freq-cutoff)         5.0000000          :
          :   S6 in model hess.         20.0000000          :
          ...................................................

generating ANC from exact Hessian ...
Using Lindh-Hessian (1995)
 Shifting diagonal of input Hessian by    9.6484895902868399E-003
 Lowest  eigenvalues of input Hessian
    0.000000    0.000000    0.000000    0.000000    0.000000    0.000000
    0.010000    0.010209    0.010526    0.011051    0.011397    0.011584
    0.011862    0.012411    0.012586    0.013183    0.013556    0.013901
 Highest eigenvalues
    2.287262    2.318104    2.320752    2.325550    2.337670    2.350825


........................................................................
.............................. CYCLE    1 ..............................
........................................................................

 iter      E             dE          RMSdq      gap      omega  full diag
   1   -107.8136545 -0.107814E+03  0.573E-05    4.06       0.0  T
   2   -107.8136545 -0.273417E-10  0.321E-05    4.06     377.3  T
   3   -107.8136545 -0.176215E-11  0.154E-05    4.06     786.1  T
     SCC iter.                  ...        0 min,  0.011 sec
     gradient                   ...        0 min,  0.005 sec
 * total energy  :  -106.5736069 Eh     change       -0.2496705E-09 Eh
   gradient norm :     0.0000795 Eh/α   predicted     0.0000000E+00 (-100.00%)
   displ. norm   :     0.0001192 α      lambda        0.0000000E+00
   maximum displ.:     0.0000358 α      in ANC's #102, #198, #144, ...

   *** GEOMETRY OPTIMIZATION CONVERGED AFTER 1 ITERATIONS ***

------------------------------------------------------------------------
 total energy gain   :        -0.0000000 Eh       -0.0000 kcal/mol
 total RMSD          :         0.0000000 a0        0.0000 Å
 total power (kW/mol):        -0.0000007 (step)   -0.0000 (real)
------------------------------------------------------------------------

 ANCopt (total)                0 d,  0 h,  0 min,  0.050 sec
 optimizer setup                ...        0 min,  0.000 sec (  0.330%)
 model hessian                  ...        0 min,  0.028 sec ( 55.576%)
 ANC generation                 ...        0 min,  0.003 sec (  5.508%)
 coordinate transformation      ...        0 min,  0.000 sec (  0.053%)
 single point calculation       ...        0 min,  0.018 sec ( 37.078%)
 optimization log               ...        0 min,  0.000 sec (  0.258%)
 hessian update                 ...        0 min,  0.000 sec (  0.002%)
 rational function              ...        0 min,  0.000 sec (  0.140%)

================
 final structure:
================
68
 xtb: 6.7.1-6.fc44.fc44
O            1.23843133210000       -0.18831153300000        1.44192458060000
O            1.02076826740000       -0.91716458060000       -1.66171714540000
O           -3.43136612210000       -2.63386454540000       -0.23129973370000
O           -3.18856987820000        3.06952691170000        0.39733014760000
O           -1.32239402420000        1.63974394250000       -1.39093622360000
O            2.28275154520000        2.83607323290000        1.22668309560000
N            0.32054171870000       -2.34822244810000       -0.10661853220000
N           -2.19953432050000       -0.89759344870000       -0.98840799780000
N           -3.85056800910000        0.94178541480000        0.24950687970000
N           -0.57105340380000        2.07811531760000        0.68744187930000
N            1.93564169610000        1.76200916960000       -0.73082498540000
N            3.24114751320000       -0.46781205940000        0.47467652370000
C            2.02378689240000       -0.89849953010000        0.83537846250000
C            1.65230388440000       -2.34139948300000        0.49146529430000
C            1.51195748910000       -3.20375159240000        1.74889654910000
C            0.31598740890000       -4.09750577420000        1.42879412670000
C           -0.60321231490000       -3.14347530550000        0.67464052850000
C            0.11167609200000       -1.59618593480000       -1.19499586190000
C           -1.28742238950000       -1.65388880440000       -1.82174425780000
C           -1.26494013500000       -1.07080447100000       -3.22951348310000
C           -3.18165232860000       -1.44096261270000       -0.26809116670000
C           -3.96450743910000       -0.44867562900000        0.62572462620000
C           -5.43745586380000       -0.85132041780000        0.64303017350000
C           -2.97161703940000        1.89994128860000        0.62794078220000
C           -1.69629041570000        1.45894934830000        1.36475110920000
C           -1.74024394950000        1.94132214300000        2.80903950840000
C           -0.46303209140000        2.08223859260000       -0.64012607780000
C            0.86421347000000        2.64510888230000       -1.15927819300000
C            0.86259019590000        2.74938784700000       -2.67606761520000
C            2.52093871440000        1.91301306040000        0.47013606510000
C            3.63286297460000        0.90577866570000        0.76419977970000
C            4.86190922170000        1.13364514270000       -0.11845111750000
C            5.47357857970000       -0.26078566660000       -0.21632733920000
C            4.24784003570000       -1.16887409160000       -0.30177471700000
H            2.35330211270000       -2.77039188800000       -0.22994029700000
H            2.42040442180000       -3.76248427410000        1.96507850990000
H            1.27879098620000       -2.56040167080000        2.59887915590000
H            0.61971544150000       -4.91916057980000        0.77865260560000
H           -0.15446010890000       -4.50783752470000        2.31892786190000
H           -1.33826998130000       -3.65141623780000        0.05188480210000
H           -1.14054556220000       -2.49916539030000        1.38014585740000
H           -2.08337851090000        0.11809050770000       -1.05375729210000
H           -1.63531848990000       -2.69306900850000       -1.83911394420000
H           -0.49915097640000       -1.55917415580000       -3.82593993760000
H           -1.04618577010000       -0.00776657740000       -3.17258963510000
H           -2.23304534790000       -1.20843462040000       -3.70340174170000
H           -4.62260086860000        1.30433820910000       -0.29503512930000
H           -3.55731877040000       -0.58142804260000        1.63724619920000
H           -5.98360194330000       -0.27978686430000        1.38914611980000
H           -5.51362877770000       -1.91075056150000        0.87143822280000
H           -5.88278952890000       -0.68006355970000       -0.33474874040000
H            0.19537505790000        2.41655426770000        1.25535099330000
H           -1.56929806290000        0.37011146690000        1.33006494200000
H           -2.55348213260000        1.45816754950000        3.34575931290000
H           -1.89822322590000        3.01702994100000        2.82784428260000
H           -0.80043288390000        1.70451661820000        3.30209314430000
H            1.95634148430000        0.86048057880000       -1.19658270980000
H            1.04285397670000        3.61994297620000       -0.69185092940000
H            0.01936204190000        3.35240567520000       -2.99970289510000
H            0.76373066340000        1.75649504110000       -3.10856204810000
H            1.78611819650000        3.20285970510000       -3.02629079700000
H            3.87982456790000        1.00290785220000        1.82934916680000
H            5.53952838420000        1.86765233260000        0.31039334490000
H            4.54727041560000        1.47813193390000       -1.10446586420000
H            6.04088773590000       -0.48445964030000        0.68770849640000
H            6.12869460660000       -0.37372360310000       -1.07715099390000
H            3.90858433340000       -1.27773049640000       -1.33881526260000
H            4.45099763540000       -2.15770173460000        0.11527260560000

 Bond Distances (Angstroems)
 ---------------------------
O1-C13=1.2203        O2-C18=1.2269        O3-C21=1.2193        O4-C24=1.2117        O5-C27=1.2239        O6-C30=1.2170        
N7-C14=1.4599        N7-C17=1.4478        N7-C18=1.3393        N8-C19=1.4486        N8-C21=1.3337        N8-H42=1.0244        
N9-C22=1.4450        N9-C24=1.3542        N9-H47=1.0119        N10-C25=1.4520       N10-C27=1.3320       N10-H52=1.0122       
N11-C28=1.4531       N11-C30=1.3445       N11-H57=1.0149       N12-C13=1.3407       N12-C31=1.4574       N12-C34=1.4518       
C13-O1=1.2203        C13-N12=1.3407       C13-C14=1.5291       C14-N7=1.4599        C14-C13=1.5291       C14-C15=1.5312       
C14-H35=1.0936       C15-C14=1.5312       C15-C16=1.5270       C15-H36=1.0882       C15-H37=1.0912       C16-C15=1.5270       
C16-C17=1.5244       C16-H38=1.0909       C16-H39=1.0872       C17-N7=1.4478        C17-C16=1.5244       C17-H40=1.0891       
C17-H41=1.0962       C18-O2=1.2269        C18-N7=1.3393        C18-C19=1.5342       C19-N8=1.4486        C19-C18=1.5342       
C19-C20=1.5239       C19-H43=1.0960       C20-C19=1.5239       C20-H44=1.0866       C20-H45=1.0868       C20-H46=1.0866       
C21-O3=1.2193        C21-N8=1.3337        C21-C22=1.5480       C22-N9=1.4450        C22-C21=1.5480       C22-C23=1.5271       
C22-H48=1.0985       C23-C22=1.5271       C23-H49=1.0870       C23-H50=1.0864       C23-H51=1.0880       C24-O4=1.2117        
C24-N9=1.3542        C24-C25=1.5375       C25-N10=1.4520       C25-C24=1.5375       C25-C26=1.5233       C25-H53=1.0968       
C26-C25=1.5233       C26-H54=1.0876       C26-H55=1.0874       C26-H56=1.0874       C27-O5=1.2239        C27-N10=1.3320       
C27-C28=1.5323       C28-N11=1.4531       C28-C27=1.5323       C28-C29=1.5204       C28-H58=1.0958       C29-C28=1.5204       
C29-H59=1.0860       C29-H60=1.0875       C29-H61=1.0868       C30-O6=1.2170        C30-N11=1.3445       C30-C31=1.5288       
C31-N12=1.4574       C31-C30=1.5288       C31-C32=1.5302       C31-H62=1.0977       C32-C31=1.5302       C32-C33=1.5258       
C32-H63=1.0871       C32-H64=1.0908       C33-C32=1.5258       C33-C34=1.5279       C33-H65=1.0905       C33-H66=1.0876       
C34-N12=1.4518       C34-C33=1.5279       C34-H67=1.0965       C34-H68=1.0922       H35-C14=1.0936       H36-C15=1.0882       
H37-C15=1.0912       H38-C16=1.0909       H39-C16=1.0872       H40-C17=1.0891       H41-C17=1.0962       H42-N8=1.0244        
H43-C19=1.0960       H44-C20=1.0866       H45-C20=1.0868       H46-C20=1.0866       H47-N9=1.0119        H48-C22=1.0985       
H49-C23=1.0870       H50-C23=1.0864       H51-C23=1.0880       H52-N10=1.0122       H53-C25=1.0968       H54-C26=1.0876       
H55-C26=1.0874       H56-C26=1.0874       H57-N11=1.0149       H58-C28=1.0958       H59-C29=1.0860       H60-C29=1.0875       
H61-C29=1.0868       H62-C31=1.0977       H63-C32=1.0871       H64-C32=1.0908       H65-C33=1.0905       H66-C33=1.0876       
H67-C34=1.0965       H68-C34=1.0922       
 C  H  Rav=1.0903 sigma=0.0040  Rmin=1.0860  Rmax=1.0985    30
 C  C  Rav=1.5294 sigma=0.0064  Rmin=1.5204  Rmax=1.5480    16
 N  H  Rav=1.0159 sigma=0.0051  Rmin=1.0119  Rmax=1.0244     4
 N  C  Rav=1.4043 sigma=0.0554  Rmin=1.3320  Rmax=1.4599    14
 O  C  Rav=1.2199 sigma=0.0049  Rmin=1.2117  Rmax=1.2269     6

 selected bond angles (degree)
 --------------------
C17-N7-C14=111.32              C18-N7-C14=118.20              C18-N7-C17=130.35              C21-N8-C19=124.17              
H42-N8-C19=114.18              H42-N8-C21=121.46              C24-N9-C22=131.25              H47-N9-C22=115.13              
H47-N9-C24=113.08              C27-N10-C25=121.94             H52-N10-C25=117.88             H52-N10-C27=119.79             

 selected dihedral angles (degree)
 ---------------------------------

           -------------------------------------------------
          |                Final Singlepoint                |
           -------------------------------------------------

          ...................................................
          :                      SETUP                      :
          :.................................................:
          :  # basis functions                 170          :
          :  # atomic orbitals                 170          :
          :  # shells                          102          :
          :  # electrons                       188          :
          :  max. iterations                   250          :
          :  Hamiltonian                  GFN2-xTB          :
          :  restarted?                      false          :
          :  GBSA solvation                  false          :
          :  PC potential                    false          :
          :  electronic temp.          300.0000000     K    :
          :  accuracy                    1.0000000          :
          :  -> integral cutoff          0.2500000E+02      :
          :  -> integral neglect         0.1000000E-07      :
          :  -> SCF convergence          0.1000000E-05 Eh   :
          :  -> wf. convergence          0.1000000E-03 e    :
          :  Broyden damping             0.4000000          :
          :  net charge                          0          :
          :  unpaired electrons                  0          :
          ...................................................

 iter      E             dE          RMSdq      gap      omega  full diag
   1   -107.8136545 -0.107814E+03  0.316E-06    4.06       0.0  T
   2   -107.8136545  0.454747E-12  0.188E-06    4.06    6434.7  T
   3   -107.8136545 -0.582645E-12  0.752E-07    4.06   16116.2  T

   *** convergence criteria satisfied after 3 iterations ***

         #    Occupation            Energy/Eh            Energy/eV
      -------------------------------------------------------------
         1        2.0000           -0.7112406             -19.3538
       ...           ...                  ...                  ...
        88        2.0000           -0.4077622             -11.0958
        89        2.0000           -0.3937174             -10.7136
        90        2.0000           -0.3923015             -10.6751
        91        2.0000           -0.3885135             -10.5720
        92        2.0000           -0.3842986             -10.4573
        93        2.0000           -0.3828369             -10.4175
        94        2.0000           -0.3792453             -10.3198 (HOMO)
        95                         -0.2302143              -6.2644 (LUMO)
        96                         -0.2190750              -5.9613
        97                         -0.2174959              -5.9184
        98                         -0.2082396              -5.6665
        99                         -0.2033535              -5.5335
       ...                                ...                  ...
       170                          0.6479638              17.6320
      -------------------------------------------------------------
                  HL-Gap            0.1490310 Eh            4.0553 eV
             Fermi-level           -0.3047298 Eh           -8.2921 eV

 SCC (total)                   0 d,  0 h,  0 min,  0.017 sec
 SCC setup                      ...        0 min,  0.000 sec (  1.151%)
 Dispersion                     ...        0 min,  0.000 sec (  2.769%)
 classical contributions        ...        0 min,  0.000 sec (  0.188%)
 integral evaluation            ...        0 min,  0.001 sec (  7.945%)
 iterations                     ...        0 min,  0.010 sec ( 57.473%)
 molecular gradient             ...        0 min,  0.005 sec ( 28.060%)
 printout                       ...        0 min,  0.000 sec (  2.370%)

         :::::::::::::::::::::::::::::::::::::::::::::::::::::
         ::                     SUMMARY                     ::
         :::::::::::::::::::::::::::::::::::::::::::::::::::::
         :: total energy            -106.573606897572 Eh    ::
         :: gradient norm              0.000079499124 Eh/a0 ::
         :: HOMO-LUMO gap              4.055338948569 eV    ::
         ::.................................................::
         :: SCC energy              -107.809244883360 Eh    ::
         :: -> isotropic ES            0.232456341259 Eh    ::
         :: -> anisotropic ES         -0.003884407708 Eh    ::
         :: -> anisotropic XC          0.028156188766 Eh    ::
         :: -> dispersion             -0.084795834808 Eh    ::
         :: repulsion energy           1.235637985788 Eh    ::
         :: add. restraining           0.000000000000 Eh    ::
         :: total charge               0.000000000000 e     ::
         :::::::::::::::::::::::::::::::::::::::::::::::::::::

           -------------------------------------------------
          |                Property Printout                |
           -------------------------------------------------

    * Orbital Energies and Occupations

         #    Occupation            Energy/Eh            Energy/eV
      -------------------------------------------------------------
         1        2.0000           -0.7112406             -19.3538
       ...           ...                  ...                  ...
        82        2.0000           -0.4440678             -12.0837
        83        2.0000           -0.4255958             -11.5811
        84        2.0000           -0.4223928             -11.4939
        85        2.0000           -0.4214554             -11.4684
        86        2.0000           -0.4174366             -11.3590
        87        2.0000           -0.4141039             -11.2683
        88        2.0000           -0.4077622             -11.0958
        89        2.0000           -0.3937174             -10.7136
        90        2.0000           -0.3923015             -10.6751
        91        2.0000           -0.3885135             -10.5720
        92        2.0000           -0.3842986             -10.4573
        93        2.0000           -0.3828369             -10.4175
        94        2.0000           -0.3792453             -10.3198 (HOMO)
        95                         -0.2302143              -6.2644 (LUMO)
        96                         -0.2190750              -5.9613
        97                         -0.2174959              -5.9184
        98                         -0.2082396              -5.6665
        99                         -0.2033535              -5.5335
       100                         -0.2019266              -5.4947
       101                         -0.0295364              -0.8037
       102                         -0.0124879              -0.3398
       103                         -0.0089880              -0.2446
       104                          0.0063091               0.1717
       105                          0.0115313               0.3138
       ...                                ...                  ...
       170                          0.6479638              17.6320
      -------------------------------------------------------------
                  HL-Gap            0.1490310 Eh            4.0553 eV
             Fermi-level           -0.3047298 Eh           -8.2921 eV

     #   Z          covCN         q      C6AA      α(0)
     1   8 O        0.859    -0.459    22.884     6.414
     2   8 O        0.860    -0.476    23.266     6.467
     3   8 O        0.858    -0.461    22.938     6.421
     4   8 O        0.860    -0.424    22.165     6.312
     5   8 O        0.858    -0.454    22.788     6.400
     6   8 O        0.858    -0.444    22.575     6.370
     7   7 N        2.763    -0.087    22.941     7.114
     8   7 N        2.691    -0.198    25.290     7.469
     9   7 N        2.688    -0.192    25.155     7.449
    10   7 N        2.695    -0.158    24.417     7.339
    11   7 N        2.692    -0.186    25.025     7.430
    12   7 N        2.757    -0.099    23.182     7.151
    13   6 C        2.763     0.267    22.485     7.765
    14   6 C        3.833     0.027    20.101     6.379
    15   6 C        3.835    -0.060    21.624     6.616
    16   6 C        3.834    -0.062    21.658     6.621
    17   6 C        3.773     0.001    20.597     6.467
    18   6 C        2.766     0.258    22.655     7.795
    19   6 C        3.791     0.032    20.048     6.377
    20   6 C        3.757    -0.114    22.740     6.799
    21   6 C        2.750     0.262    22.583     7.781
    22   6 C        3.785     0.019    20.268     6.413
    23   6 C        3.757    -0.114    22.736     6.798
    24   6 C        2.750     0.278    22.301     7.733
    25   6 C        3.793     0.034    20.019     6.372
    26   6 C        3.757    -0.114    22.726     6.797
    27   6 C        2.758     0.273    22.387     7.748
    28   6 C        3.797     0.027    20.131     6.389
    29   6 C        3.757    -0.113    22.719     6.796
    30   6 C        2.754     0.280    22.252     7.724
    31   6 C        3.831     0.020    20.213     6.397
    32   6 C        3.832    -0.065    21.717     6.630
    33   6 C        3.832    -0.063    21.680     6.625
    34   6 C        3.766    -0.000    20.624     6.473
    35   1 H        0.924     0.045     2.385     2.415
    36   1 H        0.925     0.043     2.413     2.429
    37   1 H        0.924     0.060     2.201     2.320
    38   1 H        0.924     0.048     2.351     2.398
    39   1 H        0.925     0.054     2.269     2.355
    40   1 H        0.925     0.078     1.999     2.211
    41   1 H        0.924     0.053     2.285     2.364
    42   1 H        0.859     0.232     0.959     1.534
    43   1 H        0.924     0.063     2.160     2.298
    44   1 H        0.925     0.051     2.304     2.373
    45   1 H        0.925     0.078     2.003     2.213
    46   1 H        0.925     0.048     2.350     2.397
    47   1 H        0.860     0.195     1.130     1.665
    48   1 H        0.923     0.054     2.267     2.355
    49   1 H        0.925     0.049     2.335     2.390
    50   1 H        0.925     0.077     2.015     2.220
    51   1 H        0.925     0.050     2.322     2.383
    52   1 H        0.860     0.217     1.025     1.586
    53   1 H        0.924     0.045     2.379     2.412
    54   1 H        0.925     0.046     2.370     2.408
    55   1 H        0.925     0.068     2.110     2.272
    56   1 H        0.925     0.063     2.169     2.303
    57   1 H        0.860     0.211     1.053     1.607
    58   1 H        0.924     0.073     2.050     2.239
    59   1 H        0.925     0.064     2.148     2.292
    60   1 H        0.925     0.065     2.138     2.286
    61   1 H        0.925     0.047     2.362     2.403
    62   1 H        0.924     0.067     2.115     2.274
    63   1 H        0.925     0.058     2.227     2.334
    64   1 H        0.924     0.054     2.267     2.355
    65   1 H        0.924     0.051     2.312     2.378
    66   1 H        0.925     0.053     2.278     2.360
    67   1 H        0.924     0.059     2.209     2.324
    68   1 H        0.924     0.046     2.364     2.405

 Mol. C6AA /au·bohr⁶  :      43602.409278
 Mol. C8AA /au·bohr⁸  :     970067.320295
 Mol. α(0) /au        :        310.390233


Wiberg/Mayer (AO) data.
largest (>0.10) Wiberg bond orders for each atom

 ---------------------------------------------------------------------------
     #   Z sym  total        # sym  WBO       # sym  WBO       # sym  WBO
 ---------------------------------------------------------------------------
     1   8 O    1.987 --    13 C    1.643    12 N    0.197
     2   8 O    1.965 --    18 C    1.612     7 N    0.195
     3   8 O    1.978 --    21 C    1.645     8 N    0.204
     4   8 O    2.015 --    24 C    1.700     9 N    0.194
     5   8 O    2.015 --    27 C    1.606    10 N    0.198
     6   8 O    1.995 --    30 C    1.659    11 N    0.193
     7   7 N    3.522 --    18 C    1.296    17 C    0.981    14 C    0.963
                             2 O    0.195
     8   7 N    3.469 --    21 C    1.311    19 C    0.978    42 H    0.854
                             3 O    0.204
     9   7 N    3.430 --    24 C    1.239    22 C    0.991    47 H    0.927
                             4 O    0.194
    10   7 N    3.492 --    27 C    1.329    25 C    0.975    52 H    0.908
                             5 O    0.198
    11   7 N    3.445 --    30 C    1.276    28 C    0.974    57 H    0.905
                             6 O    0.193
    12   7 N    3.503 --    13 C    1.276    34 C    0.980    31 C    0.963
                             1 O    0.197
    13   6 C    3.956 --     1 O    1.643    12 N    1.276    14 C    0.936
    14   6 C    3.973 --    15 C    0.983     7 N    0.963    35 H    0.958
                            13 C    0.936
    15   6 C    3.992 --    16 C    1.003    14 C    0.983    36 H    0.979
                            37 H    0.975
    16   6 C    3.995 --    17 C    1.006    15 C    1.003    38 H    0.979
                            39 H    0.976
    17   6 C    3.965 --    16 C    1.006     7 N    0.981    41 H    0.963
                            40 H    0.959
    18   6 C    3.949 --     2 O    1.612     7 N    1.296    19 C    0.933
    19   6 C    3.970 --    20 C    1.002     8 N    0.978    43 H    0.948
                            18 C    0.933
    20   6 C    3.988 --    19 C    1.002    46 H    0.986    44 H    0.983
                            45 H    0.976
    21   6 C    3.956 --     3 O    1.645     8 N    1.311    22 C    0.917
    22   6 C    3.968 --    23 C    1.000     9 N    0.991    48 H    0.944
                            21 C    0.917
    23   6 C    3.989 --    22 C    1.000    49 H    0.986    51 H    0.984
                            50 H    0.978
    24   6 C    3.952 --     4 O    1.700     9 N    1.239    25 C    0.932
    25   6 C    3.970 --    26 C    0.998    10 N    0.975    53 H    0.952
                            24 C    0.932
    26   6 C    3.989 --    25 C    0.998    54 H    0.984    55 H    0.983
                            56 H    0.980
    27   6 C    3.949 --     5 O    1.606    10 N    1.329    28 C    0.929
    28   6 C    3.966 --    29 C    1.008    11 N    0.974    58 H    0.950
                            27 C    0.929
    29   6 C    3.990 --    28 C    1.008    61 H    0.986    59 H    0.981
                            60 H    0.981
    30   6 C    3.955 --     6 O    1.659    11 N    1.276    31 C    0.936
    31   6 C    3.965 --    32 C    0.982    12 N    0.963    62 H    0.956
                            30 C    0.936
    32   6 C    3.992 --    33 C    1.004    31 C    0.982    63 H    0.977
                            64 H    0.976
    33   6 C    3.994 --    32 C    1.004    34 C    1.004    65 H    0.979
                            66 H    0.977
    34   6 C    3.972 --    33 C    1.004    12 N    0.980    68 H    0.970
                            67 H    0.965
    35   1 H    0.998 --    14 C    0.958
    36   1 H    0.998 --    15 C    0.979
    37   1 H    0.996 --    15 C    0.975
    38   1 H    0.998 --    16 C    0.979
    39   1 H    0.996 --    16 C    0.976
    40   1 H    0.994 --    17 C    0.959
    41   1 H    0.997 --    17 C    0.963
    42   1 H    0.946 --     8 N    0.854
    43   1 H    0.996 --    19 C    0.948
    44   1 H    0.997 --    20 C    0.983
    45   1 H    0.994 --    20 C    0.976
    46   1 H    0.997 --    20 C    0.986
    47   1 H    0.962 --     9 N    0.927
    48   1 H    0.997 --    22 C    0.944
    49   1 H    0.997 --    23 C    0.986
    50   1 H    0.993 --    23 C    0.978
    51   1 H    0.997 --    23 C    0.984
    52   1 H    0.953 --    10 N    0.908
    53   1 H    0.998 --    25 C    0.952
    54   1 H    0.997 --    26 C    0.984
    55   1 H    0.995 --    26 C    0.983
    56   1 H    0.996 --    26 C    0.980
    57   1 H    0.956 --    11 N    0.905
    58   1 H    0.994 --    28 C    0.950
    59   1 H    0.995 --    29 C    0.981
    60   1 H    0.996 --    29 C    0.981
    61   1 H    0.997 --    29 C    0.986
    62   1 H    0.995 --    31 C    0.956
    63   1 H    0.996 --    32 C    0.977
    64   1 H    0.997 --    32 C    0.976
    65   1 H    0.997 --    33 C    0.979
    66   1 H    0.996 --    33 C    0.977
    67   1 H    0.996 --    34 C    0.965
    68   1 H    0.998 --    34 C    0.970
 ---------------------------------------------------------------------------

Topologies differ in total number of bonds
Writing topology from bond orders to xtbtopo.mol

molecular dipole:
                 x           y           z       tot (Debye)
 q only:        1.909      -1.871       0.079
   full:        2.099      -2.253       0.157       7.836
molecular quadrupole (traceless):
                xx          xy          yy          xz          yz          zz
 q only:       19.331      -4.895     -17.719      -9.670      -9.696      -1.613
  q+dip:       20.306      -8.236     -20.423      -8.345      -8.523       0.117
   full:       20.713      -8.389     -20.815      -8.918      -9.217       0.102

           -------------------------------------------------
          |                Geometry Summary                 |
           -------------------------------------------------

      molecular mass/u    :      478.5428241
   center of mass at/Å    :        0.0000000       0.0000000       0.0000000
  moments of inertia/u·Å² :        0.2714095E+04   0.4282232E+04   0.5362637E+04
rotational constants/cm⁻¹ :        0.6211143E-02   0.3936646E-02   0.3143534E-02

 * 64 selected distances

     #   Z          #   Z                                           value/Å
     1   8 O       13   6 C                                       1.2202659
    12   7 N       13   6 C                                       1.3407329
     7   7 N       14   6 C                                       1.4599115
    14   6 C       15   6 C                                       1.5311702 (max)
    15   6 C       16   6 C                                       1.5269600
     7   7 N       17   6 C                                       1.4477965
    16   6 C       17   6 C                                       1.5244180
     2   8 O       18   6 C                                       1.2269261
     7   7 N       18   6 C                                       1.3393093
     8   7 N       19   6 C                                       1.4485788
    19   6 C       20   6 C                                       1.5239119
     3   8 O       21   6 C                                       1.2193137
     8   7 N       21   6 C                                       1.3336651
     9   7 N       22   6 C                                       1.4449582
    22   6 C       23   6 C                                       1.5270887
     4   8 O       24   6 C                                       1.2116850
     9   7 N       24   6 C                                       1.3541898
    10   7 N       25   6 C                                       1.4519893
    25   6 C       26   6 C                                       1.5233466
     5   8 O       27   6 C                                       1.2239365
    10   7 N       27   6 C                                       1.3319619
    11   7 N       28   6 C                                       1.4530644
    28   6 C       29   6 C                                       1.5203708
     6   8 O       30   6 C                                       1.2170197
    11   7 N       30   6 C                                       1.3445009
    12   7 N       31   6 C                                       1.4574006
    31   6 C       32   6 C                                       1.5302127
    32   6 C       33   6 C                                       1.5258299
    12   7 N       34   6 C                                       1.4518246
    33   6 C       34   6 C                                       1.5278617
    14   6 C       35   1 H                                       1.0935535
    15   6 C       36   1 H                                       1.0882063
    15   6 C       37   1 H                                       1.0912087
    16   6 C       38   1 H                                       1.0908948
    16   6 C       39   1 H                                       1.0872126
    17   6 C       40   1 H                                       1.0890999
    17   6 C       41   1 H                                       1.0961753
     8   7 N       42   1 H                                       1.0243909
    19   6 C       43   1 H                                       1.0960060
    20   6 C       44   1 H                                       1.0865830
    20   6 C       45   1 H                                       1.0868043
    20   6 C       46   1 H                                       1.0866186
     9   7 N       47   1 H                                       1.0119315 (min)
    22   6 C       48   1 H                                       1.0984543
    23   6 C       49   1 H                                       1.0870213
    23   6 C       50   1 H                                       1.0864460
    23   6 C       51   1 H                                       1.0879811
    10   7 N       52   1 H                                       1.0121633
    25   6 C       53   1 H                                       1.0967672
    26   6 C       54   1 H                                       1.0875951
    26   6 C       55   1 H                                       1.0874091
    26   6 C       56   1 H                                       1.0873931
    11   7 N       57   1 H                                       1.0149447
    28   6 C       58   1 H                                       1.0957657
    29   6 C       59   1 H                                       1.0860038
    29   6 C       60   1 H                                       1.0875022
    29   6 C       61   1 H                                       1.0868290
    31   6 C       62   1 H                                       1.0977101
    32   6 C       63   1 H                                       1.0871256
    32   6 C       64   1 H                                       1.0908226
    33   6 C       65   1 H                                       1.0904819
    33   6 C       66   1 H                                       1.0876349
    34   6 C       67   1 H                                       1.0965389
    34   6 C       68   1 H                                       1.0922371

 * 5 distinct bonds (by element types)

   Z      Z             #   av. dist./Å        max./Å        min./Å
   1 H    6 C          30     1.0903361     1.0984543     1.0860038
   6 C    6 C          10     1.5261170     1.5311702     1.5203708
   1 H    7 N           4     1.0158576     1.0243909     1.0119315
   6 C    7 N          14     1.4042774     1.4599115     1.3319619
   6 C    8 O           6     1.2198578     1.2269261     1.2116850


optimized geometry written to: xtbopt.xyz


           -------------------------------------------------
          | TOTAL ENERGY             -106.573606897572 Eh   |
          | GRADIENT NORM               0.000079499124 Eh/α |
          | HOMO-LUMO GAP               4.055338948569 eV   |
           -------------------------------------------------

------------------------------------------------------------------------
 * finished run on 2026/10/01 at 13:39:06.052     
------------------------------------------------------------------------
 total:
 * wall-time:     0 d,  0 h,  0 min,  0.124 sec
 *  cpu-time:     0 d,  0 h,  0 min,  1.600 sec
 * ratio c/w:    12.892 speedup
 SCF:
 * wall-time:     0 d,  0 h,  0 min,  0.046 sec
 *  cpu-time:     0 d,  0 h,  0 min,  0.725 sec
 * ratio c/w:    15.717 speedup
 ANC optimizer:
 * wall-time:     0 d,  0 h,  0 min,  0.068 sec
 *  cpu-time:     0 d,  0 h,  0 min,  0.730 sec
 * ratio c/w:    10.754 speedup


--- STDERR ---
normal termination of xtb
Note: The following floating-point exceptions are signalling: IEEE_UNDERFLOW_FLAG IEEE_DENORMAL
