18
sample=0 source_index=0 ttm21f_energy_kcal_mol=-46.5315552000
O 25.912679700000 4.293653960000 27.711782500000
H 26.444246300000 4.543996810000 26.946777300000
H 25.213033700000 3.736179110000 27.346357300000
O 26.799160000000 5.094679830000 25.013477300000
H 25.877580600000 5.411566260000 25.017498000000
H 27.340652500000 5.834766390000 24.754196200000
O 24.454282800000 6.668626790000 27.862234100000
H 24.161592500000 6.911662580000 28.736475000000
H 24.991546600000 5.867288110000 27.973411600000
O 24.149583800000 5.721189500000 25.253721200000
H 24.128166200000 6.195539950000 26.098583200000
H 23.859783200000 4.823386670000 25.457431800000
O 26.118789700000 2.454352380000 24.440214200000
H 26.872474700000 1.880906220000 24.325225800000
H 26.475761400000 3.351440910000 24.540573100000
O 23.954107300000 2.931914570000 26.066835400000
H 24.653793300000 2.637912750000 25.458795500000
H 23.290927900000 2.246947530000 26.070920900000
18
sample=1 source_index=3 ttm21f_energy_kcal_mol=-46.0908012000
O 23.288229000000 2.444116120000 27.481222200000
H 22.676927600000 3.200273510000 27.518068300000
H 23.813430800000 2.478799820000 28.276672400000
O 22.389474900000 0.341884196000 25.852668800000
H 22.679031400000 1.030897140000 26.470357900000
H 21.484045000000 0.148232445000 26.084978100000
O 22.705799100000 5.733836650000 25.153410000000
H 23.288444500000 4.978228570000 24.960542700000
H 23.085487400000 6.481212140000 24.700367000000
O 24.257228900000 3.497642760000 24.926960000000
H 24.074184400000 2.779091120000 24.305561100000
H 24.111368200000 3.121567010000 25.802053500000
O 21.666544000000 4.633308410000 27.430872000000
H 20.788890800000 4.961599830000 27.605188400000
H 21.977329300000 5.102759360000 26.637411100000
O 23.576723100000 1.201207400000 23.481330900000
H 24.060020400000 0.483210921000 23.079551700000
H 23.127006500000 0.818031967000 24.251686100000
18
sample=2 source_index=7 ttm21f_energy_kcal_mol=-45.9105644000
O 22.483064700000 4.566174030000 27.321525600000
H 21.969034200000 5.274115090000 27.702077900000
H 22.251834900000 4.532824520000 26.379011200000
O 22.233522400000 1.837177040000 26.436948800000
H 21.963144300000 2.301314590000 25.635370300000
H 22.273128500000 2.541480060000 27.095689800000
O 25.312210100000 4.148791310000 26.832258200000
H 24.424726500000 4.355258940000 27.150798800000
H 25.325552000000 3.190198180000 26.715589500000
O 22.007604600000 4.069475170000 24.581649800000
H 22.939552300000 3.946421150000 24.326791800000
H 21.549194300000 4.372858050000 23.803407700000
O 24.662715900000 3.627150060000 24.163848900000
H 24.819105100000 2.705672500000 24.402412400000
H 25.003128100000 4.107781410000 24.932891800000
O 24.916473400000 1.354898810000 25.935487700000
H 23.968078600000 1.392398950000 26.142198600000
H 25.203077300000 0.469612837000 26.143272400000
18
sample=3 source_index=10 ttm21f_energy_kcal_mol=-45.6464653000
O 22.762008700000 1.385982280000 26.637434000000
H 22.119890200000 2.104040380000 26.722520800000
H 22.764110600000 1.144519810000 25.700109500000
O 25.105968500000 2.655879260000 27.036174800000
H 24.290800100000 2.123856540000 26.965713500000
H 25.651533100000 2.237402680000 27.694942500000
O 23.799537700000 5.018880370000 26.278186800000
H 24.201604800000 5.811580180000 26.625499700000
H 24.306320200000 4.273384570000 26.640832900000
O 23.023500400000 1.097322580000 23.862974200000
H 23.662809400000 1.826967840000 23.841293300000
H 23.262680100000 0.519177914000 23.142896700000
O 21.270551700000 3.783631090000 26.641439400000
H 20.658884000000 4.028247830000 25.949615500000
H 22.065322900000 4.316257000000 26.490366000000
O 24.863027600000 3.176435230000 24.213411300000
H 25.215789800000 2.831495760000 25.044162800000
H 24.417806600000 3.986765620000 24.481403400000
18
sample=4 source_index=14 ttm21f_energy_kcal_mol=-45.5610428000
O 25.662008300000 3.045511960000 24.936004600000
H 25.832202900000 3.412020210000 25.808906600000
H 24.925582900000 3.577046870000 24.609834700000
O 23.244274100000 4.700343130000 24.891931500000
H 22.649240500000 3.929080490000 24.889827700000
H 22.900165600000 5.311568260000 24.246748000000
O 24.181617700000 2.145332570000 28.483850500000
H 23.725328400000 2.231716630000 29.317461000000
H 24.339038800000 3.049604420000 28.171943700000
O 21.774154700000 2.428368810000 24.922914500000
H 21.060037600000 1.864923950000 24.640474300000
H 22.460786800000 1.837812540000 25.280908600000
O 23.881721500000 1.031879660000 25.923427600000
H 23.958869900000 1.252887960000 26.862285600000
H 24.599906900000 1.510857460000 25.489913900000
O 24.662767400000 4.654759880000 27.313282000000
H 24.121887200000 4.738303180000 26.511800800000
H 24.967697100000 5.533701420000 27.524744000000
18
sample=5 source_index=17 ttm21f_energy_kcal_mol=-45.2845001000
O 28.440937000000 4.695313930000 25.623508500000
H 27.844707500000 5.191766260000 26.211746200000
H 29.319818500000 5.028401850000 25.782907500000
O 24.620365100000 3.456207040000 24.377355600000
H 24.224090600000 2.912635800000 23.701631500000
H 25.417450000000 2.987731460000 24.684196500000
O 24.580982200000 3.839973690000 27.190496400000
H 23.760128000000 3.651198630000 27.639356600000
H 24.392549500000 3.779434680000 26.241310100000
O 26.769512200000 2.439601900000 25.720628700000
H 26.288263300000 2.651159520000 26.527616500000
H 27.468092000000 3.107192040000 25.655979200000
O 26.421629000000 6.029518130000 26.920505500000
H 26.177995700000 6.246926780000 26.008623100000
H 25.777545900000 5.368168830000 27.201870000000
O 26.175497100000 5.891358850000 24.109197600000
H 27.042202000000 5.499396800000 24.266845700000
H 25.567028000000 5.143437390000 24.062356900000
18
sample=6 source_index=21 ttm21f_energy_kcal_mol=-45.1675949000
O 23.380647700000 2.077336310000 28.373230000000
H 22.847871800000 1.605049730000 29.007854500000
H 22.861085900000 2.858852860000 28.122535700000
O 25.238363300000 1.323867080000 26.497570000000
H 26.084585200000 1.558843140000 26.869522100000
H 24.578384400000 1.574933530000 27.164619400000
O 20.890001300000 4.119385720000 25.086101500000
H 21.549982100000 3.868319270000 24.419054000000
H 20.043779400000 3.884409670000 24.714151400000
O 22.747716900000 3.365916490000 23.210443500000
H 23.267280600000 2.584399940000 23.461135900000
H 23.280492800000 3.838203190000 22.575819000000
O 21.883714700000 4.259224410000 27.641470000000
H 21.518253300000 4.203959940000 26.743167900000
H 21.918863300000 5.189287660000 27.849796300000
O 24.244649900000 1.184028630000 23.942203500000
H 24.209501300000 0.253965020000 23.733877200000
H 24.610111200000 1.239292740000 24.840505600000
18
sample=7 source_index=24 ttm21f_energy_kcal_mol=-44.8303146000
O 25.676841700000 6.820438390000 27.146925000000
H 24.830766700000 7.274232860000 27.032918900000
H 25.523799900000 5.913264750000 26.846792200000
O 26.877206800000 7.168007370000 24.727386500000
H 27.823011400000 7.270035270000 24.785606400000
H 26.544916200000 7.136263850000 25.642837500000
O 25.373024000000 4.587927340000 25.426635700000
H 26.008731800000 5.118835450000 24.937549600000
H 24.514017100000 4.816605570000 25.046594600000
O 23.010351200000 5.721696850000 24.262620900000
H 23.484931900000 6.470304970000 23.865970600000
H 22.337431000000 5.463290210000 23.637527500000
O 23.246925400000 7.921949860000 26.170089700000
H 22.897533400000 7.090245250000 25.828441600000
H 23.632700000000 8.336432460000 25.391120900000
O 24.549373600000 7.937203410000 23.478441200000
H 24.710144000000 8.568678860000 22.782377200000
H 25.417686500000 7.704998970000 23.849039100000
18
sample=8 source_index=27 ttm21f_energy_kcal_mol=-44.6163902000
O 23.708795500000 1.480973360000 28.073667500000
H 23.025152200000 2.164468290000 27.998998600000
H 24.527797700000 1.955022220000 28.203634300000
O 22.305612600000 1.202135920000 25.635906200000
H 22.937574400000 0.979818583000 26.331979800000
H 21.787714000000 1.911413310000 26.033931700000
O 22.615087500000 5.449872490000 26.063764600000
H 23.179216400000 5.160748000000 25.327014900000
H 22.449443800000 6.377152440000 25.916032800000
O 24.174989700000 4.588119980000 23.982875800000
H 25.074121500000 4.692110540000 23.682853700000
H 23.895095800000 3.708011870000 23.680084200000
O 21.612781500000 3.336427930000 27.465082200000
H 20.823268900000 3.615387440000 27.920724900000
H 21.954031000000 4.115641590000 26.993907900000
O 23.364545800000 2.072438720000 23.265071900000
H 23.023048400000 1.538650510000 22.553020500000
H 22.988613100000 1.701444030000 24.081291200000
18
sample=9 source_index=31 ttm21f_energy_kcal_mol=-44.4484749000
O 22.607978800000 5.730077270000 24.874256100000
H 22.053463000000 6.344285010000 24.401407200000
H 23.056785600000 5.196545120000 24.196945200000
O 23.884948700000 4.074016570000 23.096927600000
H 23.601104700000 3.163807870000 23.237951300000
H 24.842485400000 4.022623060000 23.218320800000
O 24.045393000000 1.296880360000 23.957023600000
H 23.653249700000 1.379610420000 24.843584100000
H 23.725334200000 0.474816114000 23.595962500000
O 22.917249700000 1.629099130000 26.412153200000
H 22.959669100000 2.558332680000 26.693668400000
H 22.380556100000 1.185063120000 27.063026400000
O 26.380640000000 2.934927230000 23.732946400000
H 25.685129200000 2.270710230000 23.857870100000
H 27.082845700000 2.487449410000 23.266037000000
O 23.036628700000 4.265942100000 27.151498800000
H 23.720357900000 4.726588250000 27.631946600000
H 22.839399300000 4.821677680000 26.379039800000
18
sample=10 source_index=34 ttm21f_energy_kcal_mol=-43.7666702000
O 26.504726400000 11.621212000000 21.401840200000
H 26.688598600000 11.862516400000 20.489149100000
H 27.181480400000 10.966573700000 21.622402200000
O 28.338504800000 9.344357490000 21.666944500000
H 29.133768100000 9.647489550000 21.198080100000
H 28.643240000000 8.880345340000 22.442445800000
O 29.395341900000 11.071042100000 17.867452600000
H 29.526662800000 10.836610800000 16.951906200000
H 28.435468700000 11.143706300000 17.989696500000
O 25.940155000000 9.166361810000 20.103334400000
H 25.672876400000 9.921906470000 20.644485500000
H 26.774848900000 8.900376320000 20.510919600000
O 30.485326800000 10.307770700000 20.273077000000
H 31.226705600000 10.878062200000 20.460239400000
H 30.156230900000 10.577487900000 19.399803200000
O 26.668087000000 11.166021300000 18.343816800000
H 26.402141600000 10.373591400000 18.839275400000
H 25.886499400000 11.474406200000 17.891780900000
18
sample=11 source_index=38 ttm21f_energy_kcal_mol=-43.4918518000
O 3.597869630000 -3.901199820000 24.162014000000
H 2.859938860000 -4.456669810000 23.864795700000
H 3.383366350000 -3.630929710000 25.064243300000
O 1.402820110000 -5.151678090000 22.992561300000
H 1.088932870000 -5.951757430000 22.578098300000
H 1.220990180000 -4.435456280000 22.365663500000
O 1.322478770000 -2.887382750000 21.304435700000
H 1.037796260000 -2.575597050000 20.449691800000
H 2.295750620000 -2.867545130000 21.297058100000
O 2.452998640000 -2.654367210000 26.405160900000
H 2.005082370000 -2.171457290000 25.692131000000
H 2.660861730000 -1.999482630000 27.067647900000
O 4.062027450000 -2.969693180000 21.617424000000
H 4.080302240000 -3.354849340000 22.509719800000
H 4.862280850000 -2.457244870000 21.535675000000
O 1.812082170000 -1.577354070000 23.913494100000
H 1.333179950000 -1.789432290000 23.107212100000
H 2.566200970000 -2.181365730000 23.887783100000
18
sample=12 source_index=41 ttm21f_energy_kcal_mol=-43.2963905000
O 24.016271600000 5.031108380000 24.509023700000
H 23.247793200000 4.651685240000 24.927650500000
H 24.273822800000 4.409554960000 23.807731600000
O 26.931074100000 7.393920900000 27.483247800000
H 27.653205900000 7.609626290000 28.068948700000
H 26.993274700000 8.023780820000 26.746946300000
O 27.030210500000 8.594323160000 24.955081900000
H 26.887764000000 7.651277540000 24.777154900000
H 26.391567200000 9.056859970000 24.416675600000
O 26.563777900000 5.823788640000 25.194416000000
H 25.630405400000 5.609900000000 25.042926800000
H 26.653745700000 6.139699460000 26.102821400000
O 25.060722400000 3.327281240000 22.600353200000
H 25.054904900000 3.223027710000 21.652244600000
H 25.992466000000 3.448398110000 22.848955200000
O 27.607257800000 3.917008160000 23.494813900000
H 27.349405300000 4.611785890000 24.123441700000
H 28.409193000000 3.533883570000 23.840412100000
18
sample=13 source_index=45 ttm21f_energy_kcal_mol=-43.1984177000
O 24.070541400000 4.316235540000 24.329528800000
H 23.286113700000 3.781957860000 24.432281500000
H 24.707405100000 3.975681780000 24.978050200000
O 24.083250000000 8.517567630000 27.362239800000
H 24.355943700000 7.774394040000 26.799125700000
H 24.008890200000 8.164992330000 28.245245000000
O 26.439659100000 8.570859910000 24.289934200000
H 26.094158200000 9.333009720000 24.783811600000
H 27.193038900000 8.890812870000 23.801574700000
O 25.279314000000 10.517259600000 25.875120200000
H 24.675634400000 11.246272100000 25.756189300000
H 24.829582200000 9.895809170000 26.471923800000
O 25.052686700000 6.602624420000 25.615778000000
H 24.579727200000 6.001660820000 25.024931000000
H 25.578088800000 7.208398820000 25.071846000000
O 25.980855900000 4.071354390000 26.371685000000
H 26.930671700000 3.975166560000 26.366651500000
H 25.812377900000 5.023424630000 26.282760600000
18
sample=14 source_index=48 ttm21f_energy_kcal_mol=-43.0837212000
O 22.345098500000 5.596988200000 25.873273800000
H 23.230047200000 5.693922520000 26.252712200000
H 21.721231500000 5.615392680000 26.613075300000
O 22.400713000000 8.353957180000 26.763748200000
H 22.172533000000 8.975157740000 26.058712000000
H 22.354436900000 7.486289500000 26.336732900000
O 21.683458300000 9.557684900000 24.378324500000
H 22.063095100000 10.112170200000 23.701168100000
H 21.620136300000 8.669495580000 23.989460000000
O 21.604417800000 6.900900360000 23.531402600000
H 21.314985300000 6.313169480000 22.838077500000
H 21.865682600000 6.329965110000 24.271017100000
O 20.735937100000 6.458462240000 28.015668900000
H 21.183223700000 7.294449330000 27.813974400000
H 19.810071900000 6.676259520000 28.101543400000
O 24.620092400000 6.648807050000 27.151823000000
H 24.962316500000 6.560197350000 28.039096800000
H 24.069284400000 7.445930000000 27.162565200000
18
sample=15 source_index=52 ttm21f_energy_kcal_mol=-42.9796715000
O 20.247997300000 12.039672900000 16.120807600000
H 20.998062100000 11.507965100000 15.817266500000
H 19.914009100000 12.455323200000 15.314053500000
O 22.728820800000 12.593898800000 17.352539100000
H 21.788887000000 12.654840500000 17.124836000000
H 23.060155900000 13.488842000000 17.321659100000
O 19.817043300000 12.882779100000 13.521592100000
H 19.225935000000 12.884341200000 12.773198100000
H 20.585655200000 12.352343600000 13.253285400000
O 22.580843000000 10.389307000000 15.621289300000
H 21.984373100000 9.796383860000 16.099857300000
H 22.893310500000 11.048546800000 16.257778200000
O 20.341127400000 9.347342490000 16.961725200000
H 20.017509500000 10.252845800000 16.842119200000
H 19.594120000000 8.780066490000 16.783708600000
O 22.042711300000 11.271814300000 13.044113200000
H 22.769880300000 11.137023900000 12.441593200000
H 22.324234000000 10.886365900000 13.889061900000
18
sample=16 source_index=55 ttm21f_energy_kcal_mol=-42.8795433000
O -20.521946000000 -22.950450900000 5.024860860000
H -19.595579100000 -23.149055500000 5.133680340000
H -20.900047300000 -23.688076000000 4.517017840000
O -24.239049900000 -20.606500600000 3.804610730000
H -25.165414800000 -20.407896000000 3.695791480000
H -23.860948600000 -19.868875500000 4.312453750000
O -21.758518200000 -24.684509300000 3.278635740000
H -22.008043300000 -23.841047300000 2.863157990000
H -22.443748500000 -25.306757000000 3.050866840000
O -23.002477600000 -18.872442200000 5.550836090000
H -22.317245500000 -18.250194500000 5.778604030000
H -22.752950700000 -19.715904200000 5.966313360000
O -22.642810800000 -21.522285500000 6.196404460000
H -21.873701100000 -22.032403900000 5.907702920000
H -23.304969800000 -21.644912700000 5.508423810000
O -22.118183100000 -22.034666100000 2.633067370000
H -22.887292900000 -21.524547600000 2.921768900000
H -21.456024200000 -21.912038800000 3.321047780000
18
sample=17 source_index=58 ttm21f_energy_kcal_mol=-42.6620064000
O 23.621566800000 1.593552350000 21.083345400000
H 22.717453000000 1.357674480000 20.895513500000
H 23.650245700000 2.566032410000 21.149663900000
O 26.085422500000 1.543740270000 19.637193700000
H 25.197761500000 1.453793410000 20.012968100000
H 26.352174800000 0.663056314000 19.382062900000
O 25.428375200000 1.542685150000 23.336580300000
H 24.763940800000 1.411944270000 22.645271300000
H 24.936899200000 1.667644620000 24.146225000000
O 26.241869000000 5.840746880000 20.429649400000
H 26.789186500000 6.565479760000 20.724155400000
H 26.622627300000 5.049848080000 20.840578100000
O 24.132642700000 4.222599030000 21.456493400000
H 24.424562500000 4.973401550000 20.928176900000
H 24.972547500000 3.882531400000 21.796293300000
O 26.849126800000 3.318828340000 21.667593000000
H 26.619445800000 2.734629630000 22.401733400000
H 26.746313100000 2.769742970000 20.875381500000
18
sample=18 source_index=62 ttm21f_energy_kcal_mol=-42.3856010000
O 25.582063700000 5.379578590000 21.579383900000
H 24.694030800000 5.015447140000 21.501142500000
H 25.902677500000 5.078077320000 22.440254200000
O 26.592372900000 4.044326780000 23.941602700000
H 27.449342700000 3.814752580000 23.540674200000
H 26.765577300000 4.237770080000 24.858776100000
O 28.828886000000 3.348471400000 22.532257100000
H 28.287115100000 3.191657540000 21.739692700000
H 29.728220000000 3.427116870000 22.227497100000
O 25.073368100000 2.042320730000 22.496385600000
H 24.319530500000 2.550820590000 22.179521600000
H 25.534254100000 2.631305220000 23.109031700000
O 26.917436600000 3.066581490000 20.577388800000
H 26.553859700000 3.954369540000 20.701545700000
H 26.335315700000 2.495076660000 21.097099300000
O 23.092378600000 3.824311020000 21.206201600000
H 22.184866000000 4.021562100000 21.437696500000
H 23.078197500000 3.567816970000 20.282381100000
18
sample=19 source_index=65 ttm21f_energy_kcal_mol=-42.3076630000
O 26.537571000000 -15.221177100000 -4.904255870000
H 26.871311200000 -15.366018300000 -4.008658410000
H 27.016983000000 -14.454667100000 -5.247611520000
O 27.873752600000 -15.720306400000 -2.464926240000
H 27.986995700000 -15.289588000000 -1.621363160000
H 28.084392500000 -16.658008600000 -2.321662900000
O 28.838249200000 -18.304502500000 -2.430454250000
H 28.699022300000 -19.232439000000 -2.600003960000
H 29.333633400000 -17.961032900000 -3.192922830000
O 29.853015900000 -16.721866600000 -4.463530540000
H 29.378774600000 -16.067615500000 -3.937559130000
H 29.368267100000 -16.771606400000 -5.298064230000
O 28.104644800000 -16.556343100000 -6.692893030000
H 27.652692800000 -17.034933100000 -7.382143500000
H 27.419120800000 -16.234191900000 -6.079238410000
O 28.464447000000 -13.713045100000 -6.366946220000
H 29.363586400000 -13.443494800000 -6.188447480000
H 28.528829600000 -14.627083800000 -6.678080080000
18
sample=20 source_index=69 ttm21f_energy_kcal_mol=-42.1440620000
O 29.073238400000 -16.676330600000 -1.227300880000
H 29.290691400000 -17.517252000000 -1.625904320000
H 28.132019000000 -16.541481000000 -1.405495640000
O 28.262500800000 -12.349772500000 -0.569479108000
H 27.422117200000 -12.730617500000 -0.269007921000
H 28.213197700000 -11.417589200000 -0.373192340000
O 26.608024600000 -15.417108500000 -2.036821370000
H 27.386905700000 -14.838395100000 -2.028987170000
H 26.484003100000 -15.567790000000 -2.980672360000
O 27.537488900000 -15.137278600000 -4.690912720000
H 27.464878100000 -14.540994600000 -5.432829380000
H 28.183876000000 -14.728629100000 -4.094308380000
O 25.895233200000 -13.694201500000 0.038379099200
H 25.950986900000 -14.363850600000 -0.661013603000
H 25.540252700000 -14.144060100000 0.801776350000
O 29.090890900000 -14.146765700000 -2.502046350000
H 29.395168300000 -14.932627700000 -2.027878760000
H 28.955253600000 -13.445082700000 -1.847866650000
18
sample=21 source_index=72 ttm21f_energy_kcal_mol=-42.1042900000
O 20.007986100000 12.109681100000 14.772740400000
H 19.628027000000 12.798758500000 15.312369300000
H 19.253723100000 11.636434600000 14.388545000000
O 18.192340900000 10.242593800000 13.582132300000
H 18.527404800000 10.048715600000 12.695744500000
H 17.791795700000 9.427452090000 13.919382100000
O 20.133419000000 6.984899040000 15.211482000000
H 20.709703400000 6.606715680000 15.870961200000
H 20.562641100000 7.805618290000 14.921906500000
O 19.910265000000 9.420972820000 11.490602500000
H 19.963838600000 8.548717500000 11.103562400000
H 20.528667400000 9.411568640000 12.234328300000
O 17.525819800000 7.751677040000 14.596153300000
H 18.380405400000 7.371768950000 14.855004300000
H 16.861997600000 7.130467890000 14.883920700000
O 20.847660100000 9.477753640000 14.210879300000
H 21.047941200000 10.367573700000 14.522937800000
H 19.889959300000 9.530454640000 14.063915300000
18
sample=22 source_index=76 ttm21f_energy_kcal_mol=-41.7508125000
O -30.785171500000 -32.327411700000 13.016652100000
H -31.231124900000 -33.045734400000 13.486625700000
H -31.502821000000 -31.806917200000 12.630586600000
O -30.175079300000 -33.743316700000 10.735496500000
H -30.235118900000 -33.217044800000 11.551928500000
H -29.497671100000 -33.329238900000 10.207885700000
O -34.108783700000 -35.436451000000 8.758881570000
H -34.535087600000 -34.952961000000 8.050703050000
H -34.017349200000 -36.333564800000 8.437406540000
O -33.174079900000 -31.470327400000 11.716202700000
H -33.174568200000 -32.391056100000 11.412400200000
H -33.949237800000 -31.384826700000 12.268463100000
O -32.410888700000 -34.539112100000 13.761057900000
H -32.664951300000 -34.520191200000 12.824982600000
H -32.146522500000 -35.439579000000 13.937082300000
O -32.878200500000 -34.201046000000 11.000480700000
H -33.305793800000 -34.638881700000 10.257906900000
H -31.934576000000 -34.114231100000 10.788253800000
18
sample=23 source_index=79 ttm21f_energy_kcal_mol=-41.5934715000
O 15.844085700000 5.838391780000 24.959724400000
H 15.547501600000 4.916785720000 24.974498700000
H 16.595953000000 5.863202100000 24.372428900000
O 14.237669000000 4.281553270000 27.973274200000
H 14.264650300000 5.228399750000 27.750946000000
H 14.719840000000 3.837251900000 27.266437500000
O 14.842886900000 3.211565260000 25.295751600000
H 13.880675300000 3.245792150000 25.428789100000
H 15.050865200000 2.308870320000 25.067577400000
O 12.239907300000 3.452498200000 26.185241700000
H 12.694257700000 3.757607460000 26.986209900000
H 11.528383300000 4.071588040000 26.035953500000
O 14.801728200000 6.897989270000 27.348766300000
H 15.488168700000 6.788062570000 28.019159300000
H 15.211747200000 6.680633070000 26.498558000000
O 16.295812600000 5.643641470000 29.470401800000
H 15.648108500000 4.998760220000 29.152824400000
H 16.108692200000 5.751910690000 30.401298500000
