34
frame_0059
O      -0.019252430314077      3.342553950331809     -0.469087614439254
C      -0.456076675295979      2.046696914408351     -0.741976499610525
O      -0.123483088288089      1.710025414187774     -1.918259080678348
H      -0.342329280812600      3.584542352931084      0.396887015950316
C      -1.537144328540964      1.517332028465636      0.033787202487445
H      -2.571696897585655      2.144331562588406      0.116603890592490
H      -0.963825741852671      1.431188697434002      1.171492415443445
N      -2.007698472519749      0.227487667816908      0.066917076272279
H      -1.333951823862730     -0.099743871474273     -1.261073013666768
C      -2.050437806164514     -1.009701514335359      0.530636964546653
O      -2.190948750226594     -0.553724070503873      1.768531567878707
C      -1.920165763877449     -2.292884292289063     -0.095675550457781
H      -2.586861345887142     -2.825657866170738      0.684504012312013
N      -2.432733066832198     -2.246050724941287     -1.408080961864567
H      -3.127572294465979     -1.851080826910383     -1.667497532565364
H      -2.017374851720524     -2.832841746925588     -1.689682411606436
C      -0.458316933938237     -2.717299500463711      0.283611970270326
H      -0.337669381122329     -3.876675238912819     -0.420862297200794
H      -0.226356568287187     -2.698367955084779      1.409527443845120
C       0.479872246968753     -1.630123623646255     -0.299838041315007
C       1.024422289225746     -1.591079225369399     -1.415096437435969
H       0.915300935813986     -2.213780905009169     -2.205127924380196
N       1.865677714712579     -0.455334576188049     -1.623102675527053
H       2.341503002964918     -0.165060024597304     -2.304586106479437
C       1.926393702827817      0.030556458584333     -0.374978497237941
C       2.667314056519642      1.102094519020782      0.277193498182169
H       3.331488651943165      1.843907789828739     -0.597494651272692
C       2.509604227262215      1.599277379565498      1.254748922378766
H       3.203792112571492      2.410771536581786      1.575339535038097
C       1.706329250386140      0.831036130290689      2.229494486620803
H       1.511468750546208      1.432291688268518      3.188911103783282
C       1.003549350004157     -0.285859089512371      1.805290817629275
H       0.427744059360081     -0.724509893255997      2.507211865671417
C       1.189470375796902     -0.731979498656112      0.738512318429762
