34
 energy: -56.476067568250 gnorm: 0.000617511047 xtb: 6.7.1-6.fc44.fc44
O            0.07899764718840        3.27130449916820       -0.39634880361679
C           -0.47554786340946        2.12830379378371       -0.81563767169616
O           -0.20313524010609        1.65346051785130       -1.87993135156969
H           -0.17729243571071        3.50822679235006        0.50487425782195
C           -1.50170382173227        1.52058769990936        0.12919082790395
H           -2.40680169407289        2.14666582287153        0.09264229101490
H           -1.13381049672209        1.50797138803638        1.16333566443487
N           -1.79397099831182        0.17146783196649       -0.26892039127571
H           -1.50668121091644       -0.10622427390351       -1.20131849652449
C           -2.01325664793920       -0.80752723204930        0.63138169598393
O           -2.24507431085360       -0.60160349589320        1.80495976750198
C           -1.91005354801558       -2.20841608328202        0.03333723597361
H           -2.59825644564468       -2.86695008100612        0.59058302541435
N           -2.17316432964720       -2.16811242366159       -1.39681090399330
H           -3.14785448771055       -1.94802727971122       -1.57073695044712
H           -1.97620409919392       -3.07106782028424       -1.81368053300632
C           -0.46386548130820       -2.69579524115973        0.28655315736946
H           -0.33154494329251       -3.66059298767085       -0.20901899151508
H           -0.33468827591395       -2.83503747508860        1.36031060018271
C            0.53967347636891       -1.71271728340561       -0.21757363914154
C            1.01567120607453       -1.58896551213997       -1.49056446000909
H            0.80827556530356       -2.19541930517226       -2.35105068673579
N            1.87218110746394       -0.52714954087816       -1.57539479400407
H            2.28263388730153       -0.17784781871814       -2.42385684874998
C            1.94223580876593        0.08397465696959       -0.36008157699998
C            2.64344933807400        1.21319457474474        0.04411386498704
H            3.26363762158134        1.76093389317856       -0.64928363984210
C            2.50470187434522        1.61483001372702        1.35480383731823
H            3.02982489265342        2.49307364446183        1.70116476579910
C            1.69575494785825        0.90711786284255        2.24987933062793
H            1.61638499031336        1.25479721069335        3.27024028857721
C            1.00576777496063       -0.21892210642416        1.85907648282975
H            0.37636702947153       -0.75085738759447        2.55628151644797
C            1.11738438808578       -0.64233720845372        0.53426394053255
