34
frame_0055
O       0.164151564061286      3.163746978673662     -1.553341676816491
C      -0.477796495673302      2.151794211053126     -0.667198925438213
O      -0.558586326098789      2.350910956103701      0.384846953884305
H       0.552547823028453      2.744654907947950     -2.473546072900350
C      -1.264792022747194      0.947812889557970     -1.426282624548694
H      -0.555072478520138      0.676171016269980     -2.061747341016928
H      -2.034354374295031      1.427586190108011     -2.081033223269215
N      -1.668782701829798      0.216237955429405     -0.569961320748783
H      -1.639487981736467      0.631354897206619      0.591886919508947
C      -1.707743002771558     -1.144011189913953     -0.463032692335627
O      -1.603142372236247     -1.595871989552434     -1.795119419759321
C      -2.058407910187686     -1.921690118373297      0.666112867464650
H      -2.771188449012977     -1.314877386844947      1.273984785570647
N      -2.760428611577349     -3.198423746720279      0.353581769040201
H      -2.300598801180941     -3.800968494968597     -0.520400010414328
H      -3.674556077378195     -2.935057913959552      0.130954843934694
C      -0.721623367808726     -2.265061645268835      1.322984914424065
H      -0.240111358869349     -3.024785053443121      0.820609273971173
H      -0.859795563972753     -2.763245330501258      2.271803028129958
C       0.396025602391722     -1.098518458269848      1.478011319145454
C       0.097038773709881     -0.104166470659356      2.557912514337943
H      -0.311203445156098     -0.265504008291566      3.514398366842019
N       1.093346525659179      0.864421373395505      2.192218366131120
H       1.156939088238375      1.607937511311837      2.666413796849066
C       1.756575758911617      0.708816398198149      0.912494104210608
C       2.621602508092438      1.528758214750805      0.230581330691657
H       2.891672000831452      2.276068275471863      0.423210445977913
C       2.987308023816341      0.934148265468876     -0.926659181364442
H       3.714059274828913      1.449515856251959     -1.556869268474470
C       2.315208134987252     -0.291773098424985     -1.539059282847742
H       2.816929663046731     -0.432605592838309     -2.419246468125803
C       1.600454157791329     -1.094175263033687     -0.758317338145016
H       1.093531490094814     -1.827306995827887     -1.000619387731695
C       1.338017122495819     -0.533542755633968      0.601300193287726
