34
 energy: -56.476196124961 gnorm: 0.000749269560 xtb: 6.7.1-6.fc44.fc44
O            0.25418990216851        3.04770471036119       -1.52593186974439
C           -0.49961585921434        2.27517633803928       -0.73963955230092
O           -0.66679321137508        2.52948180230293        0.41898330126341
H            0.34935391174976        2.70003850165796       -2.42252603806798
C           -1.15604384914931        1.08765653114383       -1.42556048520427
H           -0.43055662904284        0.52806588657358       -2.03055726131052
H           -1.94414703258262        1.46557198590358       -2.09398073562179
N           -1.71167438283978        0.20713872834978       -0.42935233577731
H           -1.71862439432941        0.59139551698862        0.50733201725708
C           -1.75337641078894       -1.13413431152418       -0.61254861244856
O           -1.59534699988305       -1.65260437214001       -1.69907206837900
C           -2.02672376554212       -1.94129169524000        0.65874435869515
H           -2.62854635790353       -1.34357942353256        1.35149656826267
N           -2.72225054213371       -3.18531616673783        0.39002323765475
H           -2.24534302920987       -3.66313547537495       -0.37066107120161
H           -3.66773306967740       -2.99741565041192        0.07242276596299
C           -0.66126863267060       -2.26420723168134        1.31507607055177
H           -0.15643855068363       -3.00141632845554        0.68852641622193
H           -0.85677140732928       -2.71830806612615        2.28692058097738
C            0.19864574724641       -1.05378971980810        1.45431823948190
C            0.20766130715479       -0.14506806358865        2.47372285860712
H           -0.35265348462870       -0.15118728167979        3.38914884489201
N            1.09480183406836        0.86063629825113        2.20582266536303
H            1.22717544883389        1.68465990541113        2.76597721233181
C            1.65948497671631        0.64064901925013        0.98597716267150
C            2.57860336711866        1.39368263482685        0.26565965243463
H            2.97270356340329        2.31840101576689        0.65958312588362
C            2.95622067932173        0.92418583332408       -0.97364928928416
H            3.66423457290957        1.48786853222865       -1.56336945023513
C            2.44259966064612       -0.27196384234301       -1.48537985054721
H            2.76910609313717       -0.60766075157243       -2.45919868348920
C            1.53763341322687       -1.02770102876826       -0.77378200738070
H            1.14339211848130       -1.94555804630640       -1.18208122361861
C            1.12583718373451       -0.56962540041505        0.47842701556359
