68
frame_0003
O       1.225779445000000     -0.357426562300000      1.644626028600000
O       1.026415638400000     -0.932612918400000     -1.607752333300000
O      -3.416283834200000     -2.615619460900000     -0.198336199100000
O      -3.149786102000000      3.099868212300000      0.312558962200000
O      -1.253928385700000      1.626254662300000     -1.410313580800000
O       2.369607208300000      2.937132938700000      1.192373020000000
N       0.336165886500000     -2.438452284200000     -0.118960390900000
N      -2.167766702400000     -0.903564204700000     -0.982028790100000
N      -3.808453050900000      0.967521128200000      0.221508174200000
N      -0.534449623800000      2.124580179100000      0.665236881000000
N       1.970198794200000      1.724983107000000     -0.669435980100000
N       3.158519013500000     -0.473482109200000      0.516780538100000
C       1.986105462200000     -0.984837420400000      0.925224788800000
C       1.651766958500000     -2.420233140800000      0.517152793900000
C       1.491428053800000     -3.318851424100000      1.746843735700000
C       0.334343007300000     -4.236444341400000      1.361587228100000
C      -0.587866837000000     -3.284916862000000      0.608756444100000
C       0.124606932600000     -1.645282893100000     -1.176069412000000
C      -1.270775674000000     -1.682898268600000     -1.811548987300000
C      -1.231236763300000     -1.103348566300000     -3.220373125100000
C      -3.152975114800000     -1.426753458900000     -0.249928871600000
C      -3.920556688700000     -0.412977825100000      0.633375853300000
C      -5.394046492900000     -0.811022492400000      0.682750212600000
C      -2.935183234200000      1.937804356800000      0.580215805900000
C      -1.667578695300000      1.520277097100000      1.343775082300000
C      -1.732509641800000      2.036582199600000      2.775278663100000
C      -0.406480002100000      2.092144689100000     -0.661817917900000
C       0.939492491100000      2.618250995800000     -1.171659453200000
C       0.981078660900000      2.651836857000000     -2.690795102000000
C       2.548480055900000      1.934615651100000      0.524349683100000
C       3.536561702400000      0.853449697300000      0.974539215300000
C       4.928274101100000      1.074087356900000      0.377377528200000
C       4.889169357900000      0.242772105500000     -0.902203253400000
C       4.058405919500000     -0.978333578300000     -0.504792872000000
H       2.390098241800000     -2.820615998100000     -0.183010750400000
H       2.408167879100000     -3.855912740600000      1.981171099700000
H       1.209012692700000     -2.702792183100000      2.602108821100000
H       0.682392450700000     -5.028476749200000      0.696926749500000
H      -0.151814986600000     -4.687345731300000      2.223129013500000
H      -1.286810723000000     -3.793588301000000     -0.053391669000000
H      -1.167183788600000     -2.680395912600000      1.315138097700000
H      -2.037101441900000      0.109004089500000     -1.057271644400000
H      -1.642582860600000     -2.713112299400000     -1.827075233800000
H      -0.479010097100000     -1.613738587900000     -3.815800230100000
H      -0.984216424300000     -0.046436001500000     -3.165927743200000
H      -2.202420277300000     -1.215926585000000     -3.694510820400000
H      -4.576844181900000      1.312043358800000     -0.339768863900000
H      -3.498106663400000     -0.522556683600000      1.641096702000000
H      -5.854157090400000     -0.661851431300000     -0.291790384600000
H      -5.927061984600000     -0.220221016900000      1.423296320700000
H      -5.469521856500000     -1.864485752400000      0.937323894000000
H       0.207212671100000      2.508672472400000      1.235111114800000
H      -1.534840453400000      0.431535214300000      1.337258760800000
H      -2.556804313200000      1.569302603100000      3.308975928000000
H      -1.886412360000000      3.113093274600000      2.766987925900000
H      -0.802981818100000      1.806008968000000      3.290461418300000
H       1.951647426300000      0.794543907200000     -1.074905724500000
H       1.127015458500000      3.608628222000000     -0.742604826100000
H       0.880861303700000      1.640775569300000     -3.078726749000000
H       1.920056254900000      3.076940452800000     -3.035493432800000
H       0.155716247200000      3.249651693400000     -3.066037205600000
H       3.542536388100000      0.883819285000000      2.069420183700000
H       5.688930008600000      0.690648540300000      1.058449347700000
H       5.124420730900000      2.128145773000000      0.193589204500000
H       5.881872405400000     -0.034449462800000     -1.250555694600000
H       4.383121296700000      0.797016754900000     -1.692194399100000
H       3.494901217000000     -1.373816405800000     -1.352090766400000
H       4.696325995900000     -1.767531007500000     -0.088601237000000
