68
 energy: -106.573623163758 gnorm: 0.000029312628 xtb: 6.7.1-6.fc44.fc44
O            1.22577944500000       -0.35742656230000        1.64462602860000
O            1.02641563840000       -0.93261291840000       -1.60775233330000
O           -3.41628383420000       -2.61561946090000       -0.19833619910000
O           -3.14978610200000        3.09986821230000        0.31255896220000
O           -1.25392838570000        1.62625466230000       -1.41031358080000
O            2.36960720830000        2.93713293870000        1.19237302000000
N            0.33616588650000       -2.43845228420000       -0.11896039090000
N           -2.16776670240000       -0.90356420470000       -0.98202879010000
N           -3.80845305090000        0.96752112820000        0.22150817420000
N           -0.53444962380000        2.12458017910000        0.66523688100000
N            1.97019879420000        1.72498310700000       -0.66943598010000
N            3.15851901350000       -0.47348210920000        0.51678053810000
C            1.98610546220000       -0.98483742040000        0.92522478880000
C            1.65176695850000       -2.42023314080000        0.51715279390000
C            1.49142805380000       -3.31885142410000        1.74684373570000
C            0.33434300730000       -4.23644434140000        1.36158722810000
C           -0.58786683700000       -3.28491686200000        0.60875644410000
C            0.12460693260000       -1.64528289310000       -1.17606941200000
C           -1.27077567400000       -1.68289826860000       -1.81154898730000
C           -1.23123676330000       -1.10334856630000       -3.22037312510000
C           -3.15297511480000       -1.42675345890000       -0.24992887160000
C           -3.92055668870000       -0.41297782510000        0.63337585330000
C           -5.39404649290000       -0.81102249240000        0.68275021260000
C           -2.93518323420000        1.93780435680000        0.58021580590000
C           -1.66757869530000        1.52027709710000        1.34377508230000
C           -1.73250964180000        2.03658219960000        2.77527866310000
C           -0.40648000210000        2.09214468910000       -0.66181791790000
C            0.93949249110000        2.61825099580000       -1.17165945320000
C            0.98107866090000        2.65183685700000       -2.69079510200000
C            2.54848005590000        1.93461565110000        0.52434968310000
C            3.53656170240000        0.85344969730000        0.97453921530000
C            4.92827410110000        1.07408735690000        0.37737752820000
C            4.88916935790000        0.24277210550000       -0.90220325340000
C            4.05840591950000       -0.97833357830000       -0.50479287200000
H            2.39009824180000       -2.82061599810000       -0.18301075040000
H            2.40816787910000       -3.85591274060000        1.98117109970000
H            1.20901269270000       -2.70279218310000        2.60210882110000
H            0.68239245070000       -5.02847674920000        0.69692674950000
H           -0.15181498660000       -4.68734573130000        2.22312901350000
H           -1.28681072300000       -3.79358830100000       -0.05339166900000
H           -1.16718378860000       -2.68039591260000        1.31513809770000
H           -2.03710144190000        0.10900408950000       -1.05727164440000
H           -1.64258286060000       -2.71311229940000       -1.82707523380000
H           -0.47901009710000       -1.61373858790000       -3.81580023010000
H           -0.98421642430000       -0.04643600150000       -3.16592774320000
H           -2.20242027730000       -1.21592658500000       -3.69451082040000
H           -4.57684418190000        1.31204335880000       -0.33976886390000
H           -3.49810666340000       -0.52255668360000        1.64109670200000
H           -5.85415709040000       -0.66185143130000       -0.29179038460000
H           -5.92706198460000       -0.22022101690000        1.42329632070000
H           -5.46952185650000       -1.86448575240000        0.93732389400000
H            0.20721267110000        2.50867247240000        1.23511111480000
H           -1.53484045340000        0.43153521430000        1.33725876080000
H           -2.55680431320000        1.56930260310000        3.30897592800000
H           -1.88641236000000        3.11309327460000        2.76698792590000
H           -0.80298181810000        1.80600896800000        3.29046141830000
H            1.95164742630000        0.79454390720000       -1.07490572450000
H            1.12701545850000        3.60862822200000       -0.74260482610000
H            0.88086130370000        1.64077556930000       -3.07872674900000
H            1.92005625490000        3.07694045280000       -3.03549343280000
H            0.15571624720000        3.24965169340000       -3.06603720560000
H            3.54253638810000        0.88381928500000        2.06942018370000
H            5.68893000860000        0.69064854030000        1.05844934770000
H            5.12442073090000        2.12814577300000        0.19358920450000
H            5.88187240540000       -0.03444946280000       -1.25055569460000
H            4.38312129670000        0.79701675490000       -1.69219439910000
H            3.49490121700000       -1.37381640580000       -1.35209076640000
H            4.69632599590000       -1.76753100750000       -0.08860123700000
