68
frame_0003
O       1.243223019238990     -0.261315715107383      1.564773607595913
O       0.907758970129960     -0.700180351481868     -1.490499210082759
O      -3.479826442607759     -2.310792342107526     -0.042988732331760
O      -3.319628841958329      2.966816789203253      0.296904700382630
O      -1.225439340095289      1.730125918996980     -1.468630336147856
O       2.522772152994279      2.643113411120896      1.285073137399801
N       0.408992515243636     -2.196767408363581     -0.206646876653819
N      -2.355641872091756     -1.073207353615879     -1.015479877405787
N      -3.827153594243168      1.081725670332170      0.328835983073615
N      -0.553561333973619      2.099419399539472      0.627167168270791
N       1.839229335417838      1.635267896612605     -0.622957308921546
N       3.248833896349117     -0.325496878268580      0.369343230705730
C       1.989268656745491     -1.211111468953789      0.769250846485474
C       1.785183318499429     -2.483850434870157      0.320039187439446
C       1.494237292288185     -3.280773574002964      1.690923660121898
C       0.512612243641013     -4.387600424983814      1.176681141348447
C      -0.402140881995886     -3.322960985156227      0.696770337287623
C       0.239243818503125     -1.563499142250703     -1.173147136254858
C      -1.075930973347251     -1.797340929477548     -1.857458462190821
C      -1.427043719088650     -1.326397362638286     -3.100447455438328
C      -3.011083532043831     -1.513389855573849     -0.150457943543263
C      -3.939830414060417     -0.408604871726186      0.548837105936004
C      -5.456336188720708     -0.890584922323690      0.674928357751374
C      -2.910380324751046      1.752293595003030      0.492459903991378
C      -1.692619772124760      1.544791378942741      1.337720442121472
C      -1.793476896170959      1.922401289378951      3.017047396914824
C      -0.534184671524498      2.139934259378783     -0.586231000268323
C       1.126486862344751      2.552645489615218     -1.098449272237243
C       1.055273522545798      2.660310352767727     -2.709883778944252
C       2.581852953285374      1.980197947873980      0.496054934217002
C       3.450080745821777      0.859416874709422      1.103655094657802
C       4.910980349859461      1.246912820401655      0.540838074800098
C       4.983221356722304      0.364686442349179     -0.935812641979788
C       4.040515399258683     -0.863375507423902     -0.478950236760345
H       2.390823170696430     -2.718842216801848     -0.420536294508494
H       2.241680965981984     -3.738203089431647      1.765532522289620
H       1.186315895154016     -2.560364803078552      2.487166103703286
H       0.623622886114840     -5.137349116862473      0.698907440244595
H      -0.098732512767417     -4.739757704252316      2.350691706957581
H      -1.208317815005411     -3.773532436786047     -0.090516101284666
H      -1.175364118171673     -2.617308771568284      1.450738814626785
H      -2.026489672708712      0.143778797074884     -0.994036865687546
H      -1.728990171318957     -2.748466659850187     -1.847131908890799
H      -0.519155985518781     -1.473391539687782     -3.629130125020283
H      -0.937477835857377      0.050460747006194     -3.363650256204066
H      -2.206468573590318     -1.422456205931183     -3.553488478820976
H      -4.540282959325388      1.283365758800177     -0.477338162819964
H      -3.397178903406727     -0.582498049421265      1.667687298120953
H      -5.706377681937993     -0.591193197432703     -0.471788183410074
H      -6.100081978094284     -0.297069470863297      1.676864439144847
H      -5.554438229882360     -1.956816778760148      0.998335307360773
H       0.343998170615203      2.607954855785692      1.355143581531153
H      -1.562167254918831      0.275747086215130      1.354280414702275
H      -2.432871006434301      1.889651192637066      3.309285130465679
H      -1.761493860556802      3.148541623617276      2.666837394887009
H      -0.889476522221536      1.758620592485815      3.370878778569168
H       1.952119843686847      0.982682737233824     -0.923683466610410
H       0.974936098219927      3.608396193253390     -0.629443103046808
H       0.669581165308950      1.637248811215445     -3.094741801942104
H       2.005067682040678      3.119395050427501     -3.196416948799188
H       0.122357934547510      3.234753292632519     -3.092005175716469
H       3.630657444151871      0.853478164557465      2.093485706136112
H       5.727160389756124      0.729961490413841      1.006001627543536
H       5.222383046833962      2.288050282306120      0.221419305984754
H       5.715901901460590      0.092568224046665     -1.156216516427689
H       4.473603575448852      0.792730974800934     -1.599759008725835
H       3.571729036911273     -1.520452533115664     -1.307734878269192
H       4.707642488972430     -1.848153666123604     -0.264422890871402
