68
 energy: -106.573615172961 gnorm: 0.000269327052 xtb: 6.7.1-6.fc44.fc44
O            1.24617202227524       -0.36899293767563        1.64447133366153
O            1.02398461321125       -0.91158107184446       -1.61114788522650
O           -3.39042878329798       -2.62354109023434       -0.16278716822495
O           -3.16251138245751        3.09440679155238        0.33468989987910
O           -1.26701513024880        1.63306802438337       -1.38894839996360
O            2.35908481656712        2.94584144152110        1.20655685113486
N            0.36034187397837       -2.43702751515708       -0.13048404507815
N           -2.16354586355024       -0.90304267132080       -0.96174337266430
N           -3.81014209445244        0.95854556729649        0.24699081171956
N           -0.54111400416371        2.12885635069026        0.68515977383257
N            1.96054902588507        1.74175698545124       -0.66073114710015
N            3.17206277943686       -0.45438690493928        0.50242535592741
C            2.00735806910241       -0.98142523712505        0.91330409032763
C            1.68301971795596       -2.41490154023053        0.49057098896518
C            1.54623902324123       -3.33174165778484        1.70970173207024
C            0.38894327652062       -4.25110217581435        1.32895839295708
C           -0.54914933027376       -3.29550943976151        0.60135014959712
C            0.13170329994191       -1.63486777627820       -1.17708477147806
C           -1.26938515131816       -1.67686280478077       -1.79943186375194
C           -1.24470748338898       -1.09411450975152       -3.20733156770235
C           -3.13895941959699       -1.43239034707170       -0.22117408627754
C           -3.91433513677734       -0.42239930251752        0.65955734445805
C           -5.38570713665152       -0.82932679223182        0.70338946210852
C           -2.94151051472430        1.93376350630184        0.60340058649930
C           -1.67170923049767        1.52405377031291        1.36751157881898
C           -1.73838032642217        2.04865759431732        2.79601478144115
C           -0.41823116087377        2.09965896454209       -0.64248402183355
C            0.92394724733483        2.63166555114192       -1.15620983359709
C            0.95906878677081        2.66843873221082       -2.67546644082646
C            2.54208779791530        1.94846129029272        0.53191405246417
C            3.53983370133168        0.87159400563286        0.97105496135106
C            4.92781737043484        1.10944129832958        0.37185655006242
C            4.89029815251157        0.29169521979126       -0.91647259428861
C            4.07112511474291       -0.94043558205350       -0.52896607797830
H            2.41661780205646       -2.79820817145414       -0.22392590814972
H            2.46946859752746       -3.86660826201677        1.92253980130755
H            1.27316461635688       -2.72980901236898        2.57792933173181
H            0.73202382294112       -5.03243961893752        0.64917282901583
H           -0.08225699902697       -4.71590799265377        2.19142444507514
H           -1.25602439718343       -3.79971082294768       -0.05565182907013
H           -1.11999573225122       -2.70134446763042        1.32320818094922
H           -2.04016279927675        0.11032207258453       -1.03794403327373
H           -1.63685814201743       -2.70860260775661       -1.81385399763317
H           -0.49605170260570       -1.60056437525494       -3.81056222960902
H           -1.00088514638251       -0.03645835800123       -3.15285108651470
H           -2.21968926159291       -1.20917463919125       -3.67302621801928
H           -4.58049599916302        1.29853086757221       -0.31436682142545
H           -3.49517264524307       -0.52887833771377        1.66895552877200
H           -5.84217849840911       -0.68594786690432       -0.27374860739807
H           -5.92570173324330       -0.23936256629994        1.43955313844516
H           -5.45614707039353       -1.88236122707399        0.96105215831120
H            0.20213940430516        2.51341455444464        1.25279453261629
H           -1.53555576818911        0.43569195440837        1.36684437525252
H           -2.56130746491182        1.58208488181985        3.33235553962748
H           -1.89566707596451        3.12445728256749        2.78082963351367
H           -0.80863593531899        1.82457753679487        3.31325889051331
H            1.94574622378284        0.81298433090462       -1.07013526823679
H            1.10900465647153        3.62193949832507       -0.72580078549181
H            0.86299706504291        1.65742384989401       -3.06460522450537
H            1.89411203987703        3.09952475022336       -3.02336674825443
H            0.12870293040388        3.26212676071648       -3.04615283625627
H            3.54838015662025        0.89236399203409        2.06610628909156
H            5.69372116240385        0.72449890575633        1.04614612111971
H            5.11515367940655        2.16691870746787        0.19882374648671
H            5.88375411943703        0.02644356950561       -1.27190852221619
H            4.37643260607587        0.85039095209751       -1.69824728043124
H            3.50703289786782       -1.33110678147254       -1.37814256049864
H            4.71723427440980       -1.72912545419206       -0.12464055957654
