34
frame_0035
O      -3.887492940000000      2.069377489800000     -0.622834351400000
C      -2.794014423200000      2.627307370500000     -1.100482551200000
O      -2.804089100900000      3.500659507600000     -1.921645429900000
H      -3.688826315500000      1.332829461200000      0.023749142300000
C      -1.473918831700000      2.101870260800000     -0.491731367600000
H      -1.501138324900000      2.336418105000000      0.580750307400000
H      -0.643095618600000      2.630557143200000     -0.956808967500000
N      -1.283349976200000      0.676969367500000     -0.665734993500000
H      -0.517518665000000      0.329827107100000     -1.230328610700000
C      -1.979877580100000     -0.255820427000000     -0.010825509700000
O      -2.950154642900000     -0.005231387600000      0.698025775200000
C      -1.443554599100000     -1.667512957000000     -0.199209355300000
H      -2.305291884500000     -2.355432120100000     -0.174878683000000
N      -0.678911941700000     -1.729557705200000     -1.435803443800000
H      -0.093878470100000     -2.556066165000000     -1.453723576000000
H      -1.298154644800000     -1.765342645900000     -2.238173529000000
C      -0.545118457600000     -1.993702813700000      1.015677925100000
H      -0.183732273300000     -3.019119998100000      0.915132454100000
H      -1.163653963000000     -1.931037467100000      1.912694975800000
C       0.610807762400000     -1.056321884200000      1.128636977500000
C       0.618436328000000      0.144387027600000      1.778343860700000
H      -0.165107714600000      0.606602531900000      2.348469373900000
N       1.833907862700000      0.753874680900000      1.633123111100000
H       2.097991043300000      1.634584603400000      2.040156273900000
C       2.646802187800000     -0.051593743700000      0.889457513800000
C       3.963903512600000      0.125825756500000      0.485038767100000
H       4.513657463700000      1.016000131400000      0.753310219000000
C       4.541924964700000     -0.876017239300000     -0.263173812300000
H       5.564552308000000     -0.772841044700000     -0.593843325500000
C       3.831469146900000     -2.032478199000000     -0.597507752900000
H       4.325228253700000     -2.798687257400000     -1.176932328700000
C       2.526357098500000     -2.212209666700000     -0.201001906100000
H       1.997369669700000     -3.118856988800000     -0.455747813800000
C       1.907876662400000     -1.210719080200000      0.548023402000000
