34
frame_0008
O      -0.709451994749898      2.074450259767286      0.143993083926588
C      -0.438034065916637      1.687996415037923     -1.140391366788114
O       0.211165274750068      2.503315815210694     -1.788918584463226
H      -1.390901665418759      1.532844496972502      0.139966656833908
C      -1.208846630301669      0.818556441113971     -1.908348422683942
H      -0.835950409348837      0.706004064595091     -3.032664283249374
H      -2.351943324098011      1.459160868090078     -1.877287557515430
N      -1.244694774131109     -0.260079408616372     -1.266966997182261
H      -0.834062143639342     -1.114655780358181     -1.649421836789783
C      -2.031506182756823     -0.845437344872765     -0.008488085708589
O      -2.468265062707653      0.129252149592592      0.519387318564415
C      -2.011740054595035     -2.275258883111182      0.323052987574851
H      -2.749396568089306     -2.246572781189496      1.101390447236629
N      -2.307894104282002     -2.914031980627590     -0.863798706725998
H      -3.081173073779773     -2.914029609855795     -1.383420680482758
H      -2.199211746625615     -3.892612036491007     -0.584939314093445
C      -0.667422896100908     -2.514361766496728      0.977214244640573
H      -0.044591977400625     -2.949422568923233      0.317609757304407
H      -0.664753508282560     -2.999274532122359      1.780725564296146
C       0.050097121985574     -1.266598311609307      1.227157011496898
C      -0.012646686576325     -0.427111228059978      2.289310560483803
H      -0.726192480682144     -0.539201020937326      3.423478803647237
N       0.918593726332182      0.601579337102484      2.292211494834047
H       1.061161539258055      1.441172722819445      2.984756768673637
C       1.806867722738380      0.437060778322865      1.186898896935226
C       2.480459739188534      1.290820252895999      0.658106431837353
H       2.886891983339226      2.352588752232145      1.234744422925069
C       3.115702056355288      1.199917695607889     -0.502717808400535
H       3.772729286006227      1.920167867382167     -1.054696731176957
C       2.814179694958931     -0.141009853457315     -1.247669062338301
H       3.301952075570293     -0.207975317198752     -2.146883873690511
C       1.866090446398129     -1.041868890597234     -0.926349292656588
H       1.448007268291906     -1.736881649637443     -1.300099545425124
C       1.140875306155850     -0.588985208717277      0.528027238484356
