      -----------------------------------------------------------      
     |                   =====================                   |     
     |                           x T B                           |     
     |                   =====================                   |     
     |                         S. Grimme                         |     
     |          Mulliken Center for Theoretical Chemistry        |     
     |                    University of Bonn                     |     
      -----------------------------------------------------------      

   * xtb version 6.7.1-6.fc44.fc44 compiled by Fedora project on Sun Jan 18 23:32:34 UTC 2026

   xtb is free software: you can redistribute it and/or modify it under
   the terms of the GNU Lesser General Public License as published by
   the Free Software Foundation, either version 3 of the License, or
   (at your option) any later version.
   
   xtb is distributed in the hope that it will be useful,
   but WITHOUT ANY WARRANTY; without even the implied warranty of
   MERCHANTABILITY or FITNESS FOR A PARTICULAR PURPOSE.  See the
   GNU Lesser General Public License for more details.
   
   Cite this work as:
   * C. Bannwarth, E. Caldeweyher, S. Ehlert, A. Hansen, P. Pracht,
     J. Seibert, S. Spicher, S. Grimme, WIREs Comput. Mol. Sci., 2020, 11,
     e01493. DOI: 10.1002/wcms.1493
   
   for GFN2-xTB:
   * C. Bannwarth, S. Ehlert and S. Grimme., J. Chem. Theory Comput., 2019,
     15, 1652-1671. DOI: 10.1021/acs.jctc.8b01176
   for GFN1-xTB:
   * S. Grimme, C. Bannwarth, P. Shushkov, J. Chem. Theory Comput., 2017,
     13, 1989-2009. DOI: 10.1021/acs.jctc.7b00118
   for GFN0-xTB:
   * P. Pracht, E. Caldeweyher, S. Ehlert, S. Grimme, ChemRxiv, 2019, preprint.
     DOI: 10.26434/chemrxiv.8326202.v1
   for GFN-FF:
   * S. Spicher and S. Grimme, Angew. Chem. Int. Ed., 2020, 59, 15665-15673.
     DOI: 10.1002/anie.202004239
   
   for ALPB and GBSA implicit solvation:
   * S. Ehlert, M. Stahn, S. Spicher, S. Grimme, J. Chem. Theory Comput.,
     2021, 17, 4250-4261. DOI: 10.1021/acs.jctc.1c00471
   
   for ddCOSMO and CPCM-X implicit solvation:
   * M. Stahn, S. Ehlert, S. Grimme, J. Phys. Chem. A,
     2023, XX, XXXX-XXXX. DOI: 10.1021/acs.jpca.3c04382
   
   for DFT-D4:
   * E. Caldeweyher, C. Bannwarth and S. Grimme, J. Chem. Phys., 2017,
     147, 034112. DOI: 10.1063/1.4993215
   * E. Caldeweyher, S. Ehlert, A. Hansen, H. Neugebauer, S. Spicher,
     C. Bannwarth and S. Grimme, J. Chem. Phys., 2019, 150, 154122.
     DOI: 10.1063/1.5090222
   * E. Caldeweyher, J.-M. Mewes, S. Ehlert and S. Grimme, Phys. Chem. Chem. Phys.
     2020, 22, 8499-8512. DOI: 10.1039/D0CP00502A
   
   for sTDA-xTB:
   * S. Grimme and C. Bannwarth, J. Chem. Phys., 2016, 145, 054103.
     DOI: 10.1063/1.4959605
   
   in the mass-spec context:
   * V. Asgeirsson, C. Bauer and S. Grimme, Chem. Sci., 2017, 8, 4879.
     DOI: 10.1039/c7sc00601b
   * J. Koopman and S. Grimme, ACS Omega 2019, 4, 12, 15120-15133.
     DOI: 10.1021/acsomega.9b02011
   
   for metadynamics refer to:
   * S. Grimme, J. Chem. Theory Comput., 2019, 155, 2847-2862
     DOI: 10.1021/acs.jctc.9b00143
   
   for SPH calculations refer to:
   * S. Spicher and S. Grimme, J. Chem. Theory Comput., 2021, 17, 1701-1714
     DOI: 10.1021/acs.jctc.0c01306
   
   for ONIOM refer to:
   * C. Plett, A. Katbashev, S. Ehlert, S. Grimme, M. Bursch,
     Phys. Chem. Chem. Phys., 2023, 25, 17860-17868. DOI: 10.1039/D3CP02178E
   
   for DIPRO refer to:
   * J. Kohn, N. Gildemeister, S. Grimme, D. Fazzi, A. Hansen,
     J. Chem. Phys., 2023, just accepted.
   
   for PTB refer to:
   * S. Grimme, M. Mueller, A. Hansen, J. Chem. Phys., 2023, 158, 124111.
     DOI: 10.1063/5.0137838
   
   with help from (in alphabetical order)
   P. Atkinson, C. Bannwarth, F. Bohle, G. Brandenburg, E. Caldeweyher
   M. Checinski, S. Dohm, S. Ehlert, S. Ehrlich, I. Gerasimov, C. Hölzer
   A. Katbashev, J. Kohn, J. Koopman, C. Lavigne, S. Lehtola, F. März, M. Müller,
   F. Musil, H. Neugebauer, J. Pisarek, C. Plett, P. Pracht, F. Pultar,
   J. Seibert, P. Shushkov, S. Spicher, M. Stahn, M. Steiner, T. Strunk,
   J. Stückrath, T. Rose, and J. Unsleber
   
 * started run on 2026/10/01 at 18:05:23.368     
   ID    Z sym.   atoms
    1    8 O      1, 3, 11
    2    6 C      2, 5, 10, 12, 17, 20, 21, 25, 26, 28, 30, 32, 34
    3    1 H      4, 6, 7, 9, 13, 15, 16, 18, 19, 22, 24, 27, 29, 31, 33
    4    7 N      8, 14, 23

           -------------------------------------------------
          |                Calculation Setup                |
           -------------------------------------------------

          program call               : /usr/bin/xtb input.xyz --opt --gfn 2 --chrg 0 --uhf 0
          hostname                   : fedora
          coordinate file            : input.xyz
          omp threads                :                    16


           -------------------------------------------------
          |                 G F N 2 - x T B                 |
           -------------------------------------------------

        Reference                      10.1021/acs.jctc.8b01176
      * Hamiltonian:
        H0-scaling (s, p, d)           1.850000    2.230000    2.230000
        zeta-weighting                 0.500000
      * Dispersion:
        s8                             2.700000
        a1                             0.520000
        a2                             5.000000
        s9                             5.000000
      * Repulsion:
        kExp                           1.500000    1.000000
        rExp                           1.000000
      * Coulomb:
        alpha                          2.000000
        third order                    shell-resolved
        anisotropic                    true
        a3                             3.000000
        a5                             4.000000
        cn-shift                       1.200000
        cn-exp                         4.000000
        max-rad                        5.000000


          ...................................................
          :                      SETUP                      :
          :.................................................:
          :  # basis functions                  91          :
          :  # atomic orbitals                  91          :
          :  # shells                           53          :
          :  # electrons                       100          :
          :  max. iterations                   250          :
          :  Hamiltonian                  GFN2-xTB          :
          :  restarted?                      false          :
          :  GBSA solvation                  false          :
          :  PC potential                    false          :
          :  electronic temp.          300.0000000     K    :
          :  accuracy                    1.0000000          :
          :  -> integral cutoff          0.2500000E+02      :
          :  -> integral neglect         0.1000000E-07      :
          :  -> SCF convergence          0.1000000E-05 Eh   :
          :  -> wf. convergence          0.1000000E-03 e    :
          :  Broyden damping             0.4000000          :
          :  net charge                          0          :
          :  unpaired electrons                  0          :
          ...................................................

 iter      E             dE          RMSdq      gap      omega  full diag
   1    -56.8633853 -0.568634E+02  0.429E+00    2.32       0.0  T
   2    -56.9695842 -0.106199E+00  0.251E+00    2.90       1.0  T
   3    -56.9758130 -0.622885E-02  0.137E+00    2.93       1.0  T
   4    -56.9836512 -0.783813E-02  0.418E-01    2.69       1.0  T
   5    -56.9883995 -0.474829E-02  0.161E-01    2.66       1.0  T
   6    -56.9889360 -0.536557E-03  0.802E-02    2.70       1.0  T
   7    -56.9890660 -0.129947E-03  0.360E-02    2.70       1.0  T
   8    -56.9890739 -0.788534E-05  0.173E-02    2.70       1.0  T
   9    -56.9890797 -0.585776E-05  0.441E-03    2.70       3.9  T
  10    -56.9890798 -0.823996E-07  0.268E-03    2.70       6.4  T
  11    -56.9890799 -0.966548E-07  0.971E-04    2.70      17.7  T
  12    -56.9890799 -0.493760E-08  0.356E-04    2.70      48.2  T

   *** convergence criteria satisfied after 12 iterations ***

         #    Occupation            Energy/Eh            Energy/eV
      -------------------------------------------------------------
         1        2.0000           -0.7378701             -20.0785
       ...           ...                  ...                  ...
        44        2.0000           -0.4173114             -11.3556
        45        2.0000           -0.4107925             -11.1782
        46        2.0000           -0.3978915             -10.8272
        47        2.0000           -0.3928206             -10.6892
        48        2.0000           -0.3800494             -10.3417
        49        2.0000           -0.3660747              -9.9614
        50        2.0000           -0.3596304              -9.7860 (HOMO)
        51                         -0.2603243              -7.0838 (LUMO)
        52                         -0.2408260              -6.5532
        53                         -0.2385692              -6.4918
        54                         -0.1979534              -5.3866
        55                         -0.1710515              -4.6545
       ...                                ...                  ...
        91                          1.1401101              31.0240
      -------------------------------------------------------------
                  HL-Gap            0.0993061 Eh            2.7023 eV
             Fermi-level           -0.3099774 Eh           -8.4349 eV

 SCC (total)                   0 d,  0 h,  0 min,  0.110 sec
 SCC setup                      ...        0 min,  0.006 sec (  5.282%)
 Dispersion                     ...        0 min,  0.012 sec ( 10.966%)
 classical contributions        ...        0 min,  0.006 sec (  5.537%)
 integral evaluation            ...        0 min,  0.015 sec ( 13.208%)
 iterations                     ...        0 min,  0.040 sec ( 35.933%)
 molecular gradient             ...        0 min,  0.032 sec ( 28.681%)
 printout                       ...        0 min,  0.000 sec (  0.379%)

         :::::::::::::::::::::::::::::::::::::::::::::::::::::
         ::                     SUMMARY                     ::
         :::::::::::::::::::::::::::::::::::::::::::::::::::::
         :: total energy             -56.049613920039 Eh    ::
         :: gradient norm              0.816022108582 Eh/a0 ::
         :: HOMO-LUMO gap              2.702257311765 eV    ::
         ::.................................................::
         :: SCC energy               -56.988081525879 Eh    ::
         :: -> isotropic ES            0.102566530163 Eh    ::
         :: -> anisotropic ES          0.003540850893 Eh    ::
         :: -> anisotropic XC          0.022023740827 Eh    ::
         :: -> dispersion             -0.041620091299 Eh    ::
         :: repulsion energy           0.938467605840 Eh    ::
         :: add. restraining           0.000000000000 Eh    ::
         :: total charge               0.000000000000 e     ::
         :::::::::::::::::::::::::::::::::::::::::::::::::::::

      ----------------------------------------------------------- 
     |                   =====================                   |
     |                        A N C O P T                        |
     |                   =====================                   |
     |               Approximate Normal Coordinate               |
     |                Rational Function Optimizer                |
      ----------------------------------------------------------- 
      ----------------------------------------------------------- 
     |                   =====================                   |
     |                        A N C O P T                        |
     |                   =====================                   |
     |               Approximate Normal Coordinate               |
     |                Rational Function Optimizer                |
      ----------------------------------------------------------- 

          ...................................................
          :                      SETUP                      :
          :.................................................:
          :   optimization level            normal          :
          :   max. optcycles                   200          :
          :   ANC micro-cycles                  20          :
          :   degrees of freedom                96          :
          :.................................................:
          :   RF solver                   davidson          :
          :   write xtbopt.log                true          :
          :   linear?                        false          :
          :   energy convergence         0.5000000E-05 Eh   :
          :   grad. convergence          0.1000000E-02 Eh/α :
          :   maxmium RF displ.          1.0000000          :
          :   Hlow (freq-cutoff)         0.1000000E-01      :
          :   Hmax (freq-cutoff)         5.0000000          :
          :   S6 in model hess.         20.0000000          :
          ...................................................

generating ANC from exact Hessian ...
Using Lindh-Hessian (1995)
 Shifting diagonal of input Hessian by    9.4035796683188799E-003
 Lowest  eigenvalues of input Hessian
    0.000000    0.000000    0.000000    0.000000    0.000000    0.000000
    0.010000    0.010725    0.011482    0.011836    0.012397    0.014343
    0.016159    0.017393    0.020103    0.021473    0.022854    0.023439
 Highest eigenvalues
    2.031333    2.121029    2.123487    2.280279    2.325255    2.640335


........................................................................
.............................. CYCLE    1 ..............................
........................................................................

 iter      E             dE          RMSdq      gap      omega  full diag
   1    -56.9890799 -0.569891E+02  0.167E-04    2.70       0.0  T
   2    -56.9890799 -0.156390E-09  0.119E-04    2.70     144.7  T
   3    -56.9890799 -0.316739E-09  0.598E-05    2.70     286.9  T
     SCC iter.                  ...        0 min,  0.004 sec
     gradient                   ...        0 min,  0.002 sec
 * total energy  :   -56.0496139 Eh     change       -0.2873726E-08 Eh
   gradient norm :     0.8160216 Eh/α   predicted     0.0000000E+00 (-100.00%)
   displ. norm   :     0.5238389 α      lambda       -0.3767779E+00
   maximum displ.:     0.1468800 α      in ANC's #78, #82, #53, ...

........................................................................
.............................. CYCLE    2 ..............................
........................................................................

 iter      E             dE          RMSdq      gap      omega  full diag
   1    -57.0836779 -0.570837E+02  0.635E-01    2.87       0.0  T
   2    -57.0859125 -0.223462E-02  0.374E-01    2.94       1.0  T
   3    -57.0861682 -0.255733E-03  0.229E-01    2.94       1.0  T
   4    -57.0866724 -0.504169E-03  0.755E-02    2.97       1.0  T
   5    -57.0867972 -0.124812E-03  0.225E-02    2.96       1.0  T
   6    -57.0868022 -0.500706E-05  0.101E-02    2.95       1.7  T
   7    -57.0868032 -0.988382E-06  0.346E-03    2.95       5.0  T
   8    -57.0868034 -0.172457E-06  0.155E-03    2.95      11.0  T
   9    -57.0868034 -0.198236E-07  0.542E-04    2.95      31.6  T
  10    -57.0868034 -0.314733E-08  0.283E-04    2.95      60.5  T
     SCC iter.                  ...        0 min,  0.013 sec
     gradient                   ...        0 min,  0.002 sec
 * total energy  :   -56.3209375 Eh     change       -0.2713235E+00 Eh
   gradient norm :     0.3791888 Eh/α   predicted    -0.2401017E+00 ( -11.51%)
   displ. norm   :     0.5682646 α      lambda       -0.1856490E+00
   maximum displ.:     0.1649760 α      in ANC's #53, #68, #78, ...

........................................................................
.............................. CYCLE    3 ..............................
........................................................................

 iter      E             dE          RMSdq      gap      omega  full diag
   1    -57.1836216 -0.571836E+02  0.708E-01    3.22       0.0  T
   2    -57.1878377 -0.421611E-02  0.389E-01    3.29       1.0  T
   3    -57.1883684 -0.530783E-03  0.237E-01    3.29       1.0  T
   4    -57.1885394 -0.170974E-03  0.989E-02    3.29       1.0  T
   5    -57.1888232 -0.283824E-03  0.219E-02    3.29       1.0  T
   6    -57.1888289 -0.564326E-05  0.108E-02    3.28       1.6  T
   7    -57.1888299 -0.103362E-05  0.404E-03    3.28       4.2  T
   8    -57.1888301 -0.221711E-06  0.160E-03    3.28      10.7  T
   9    -57.1888302 -0.256337E-07  0.594E-04    3.28      28.9  T
  10    -57.1888302 -0.179499E-08  0.267E-04    3.28      64.2  T
     SCC iter.                  ...        0 min,  0.013 sec
     gradient                   ...        0 min,  0.002 sec
 * total energy  :   -56.4471681 Eh     change       -0.1262306E+00 Eh
   gradient norm :     0.1267611 Eh/α   predicted    -0.1227998E+00 (  -2.72%)
   displ. norm   :     0.4251598 α      lambda       -0.4096217E-01
   maximum displ.:     0.1294581 α      in ANC's #19, #53, #59, ...

........................................................................
.............................. CYCLE    4 ..............................
........................................................................

 iter      E             dE          RMSdq      gap      omega  full diag
   1    -57.2234718 -0.572235E+02  0.418E-01    3.41       0.0  T
   2    -57.2245440 -0.107222E-02  0.232E-01    3.39       1.0  T
   3    -57.2245679 -0.238871E-04  0.136E-01    3.39       1.0  T
   4    -57.2246525 -0.846787E-04  0.567E-02    3.38       1.0  T
   5    -57.2247580 -0.105431E-03  0.927E-03    3.38       1.8  T
   6    -57.2247586 -0.625350E-06  0.508E-03    3.38       3.4  T
   7    -57.2247587 -0.140579E-06  0.177E-03    3.38       9.7  T
   8    -57.2247588 -0.481215E-07  0.726E-04    3.38      23.6  T
   9    -57.2247588 -0.464212E-08  0.298E-04    3.38      57.5  T
     SCC iter.                  ...        0 min,  0.015 sec
     gradient                   ...        0 min,  0.002 sec
 * total energy  :   -56.4707049 Eh     change       -0.2353689E-01 Eh
   gradient norm :     0.0726159 Eh/α   predicted    -0.2418439E-01 (   2.75%)
   displ. norm   :     0.3222294 α      lambda       -0.1028673E-01
   maximum displ.:     0.1126927 α      in ANC's #21, #19, #15, ...

........................................................................
.............................. CYCLE    5 ..............................
........................................................................

 iter      E             dE          RMSdq      gap      omega  full diag
   1    -57.2180247 -0.572180E+02  0.254E-01    3.36       0.0  T
   2    -57.2181211 -0.963084E-04  0.150E-01    3.36       1.0  T
   3    -57.2180964  0.246329E-04  0.455E-02    3.35       1.0  T
   4    -57.2181316 -0.352237E-04  0.122E-02    3.35       1.4  T
   5    -57.2181360 -0.440360E-05  0.410E-03    3.35       4.2  T
   6    -57.2181361 -0.691656E-07  0.181E-03    3.35       9.5  T
   7    -57.2181361 -0.277729E-07  0.811E-04    3.35      21.2  T
   8    -57.2181361 -0.694526E-08  0.356E-04    3.35      48.2  T
     SCC iter.                  ...        0 min,  0.058 sec
     gradient                   ...        0 min,  0.002 sec
 * total energy  :   -56.4768256 Eh     change       -0.6120610E-02 Eh
   gradient norm :     0.0417607 Eh/α   predicted    -0.5677424E-02 (  -7.24%)
   displ. norm   :     0.3026791 α      lambda       -0.4795023E-02
   maximum displ.:     0.0940285 α      in ANC's #6, #23, #15, ...

........................................................................
.............................. CYCLE    6 ..............................
........................................................................

 iter      E             dE          RMSdq      gap      omega  full diag
   1    -57.2298489 -0.572298E+02  0.201E-01    3.38       0.0  T
   2    -57.2298831 -0.342467E-04  0.118E-01    3.37       1.0  T
   3    -57.2298416  0.415281E-04  0.446E-02    3.37       1.0  T
   4    -57.2298929 -0.513279E-04  0.831E-03    3.37       2.1  T
   5    -57.2298947 -0.178500E-05  0.353E-03    3.37       4.9  T
   6    -57.2298949 -0.124318E-06  0.165E-03    3.37      10.4  T
   7    -57.2298949 -0.224287E-07  0.621E-04    3.37      27.6  T
   8    -57.2298949 -0.623380E-08  0.234E-04    3.37      73.3  T
     SCC iter.                  ...        0 min,  0.012 sec
     gradient                   ...        0 min,  0.002 sec
 * total energy  :   -56.4791517 Eh     change       -0.2326129E-02 Eh
   gradient norm :     0.0297098 Eh/α   predicted    -0.2617164E-02 (  12.51%)
   displ. norm   :     0.1880476 α      lambda       -0.2106908E-02
   maximum displ.:     0.1048356 α      in ANC's #10, #21, #13, ...

........................................................................
.............................. CYCLE    7 ..............................
........................................................................

 iter      E             dE          RMSdq      gap      omega  full diag
   1    -57.2367552 -0.572368E+02  0.115E-01    3.41       0.0  T
   2    -57.2367863 -0.310912E-04  0.678E-02    3.41       1.0  T
   3    -57.2367743  0.119777E-04  0.302E-02    3.41       1.0  T
   4    -57.2367913 -0.170547E-04  0.105E-02    3.41       1.6  T
   5    -57.2367945 -0.316422E-05  0.224E-03    3.41       7.7  T
   6    -57.2367945 -0.466837E-08  0.123E-03    3.41      14.0  T
   7    -57.2367945 -0.150260E-07  0.299E-04    3.41      57.3  T
   8    -57.2367945 -0.125504E-08  0.156E-04    3.41     109.9  T
     SCC iter.                  ...        0 min,  0.012 sec
     gradient                   ...        0 min,  0.002 sec
 * total energy  :   -56.4802003 Eh     change       -0.1048602E-02 Eh
   gradient norm :     0.0193015 Eh/α   predicted    -0.1090750E-02 (   4.02%)
   displ. norm   :     0.1326060 α      lambda       -0.7748227E-03
   maximum displ.:     0.0517788 α      in ANC's #10, #13, #7, ...

........................................................................
.............................. CYCLE    8 ..............................
........................................................................

 iter      E             dE          RMSdq      gap      omega  full diag
   1    -57.2379543 -0.572380E+02  0.655E-02    3.38       0.0  T
   2    -57.2379591 -0.473889E-05  0.391E-02    3.38       1.0  T
   3    -57.2379566  0.250206E-05  0.113E-02    3.38       1.5  T
   4    -57.2379599 -0.336985E-05  0.288E-03    3.38       6.0  T
   5    -57.2379602 -0.223101E-06  0.125E-03    3.38      13.8  T
   6    -57.2379602 -0.877405E-08  0.612E-04    3.38      28.0  T
   7    -57.2379602 -0.455944E-08  0.238E-04    3.38      72.2  T
     SCC iter.                  ...        0 min,  0.011 sec
     gradient                   ...        0 min,  0.002 sec
 * total energy  :   -56.4806690 Eh     change       -0.4687303E-03 Eh
   gradient norm :     0.0097600 Eh/α   predicted    -0.3942321E-03 ( -15.89%)
   displ. norm   :     0.0996987 α      lambda       -0.2876087E-03
   maximum displ.:     0.0493586 α      in ANC's #10, #9, #13, ...

........................................................................
.............................. CYCLE    9 ..............................
........................................................................

 iter      E             dE          RMSdq      gap      omega  full diag
   1    -57.2386960 -0.572387E+02  0.508E-02    3.36       0.0  T
   2    -57.2386978 -0.170608E-05  0.299E-02    3.37       1.0  T
   3    -57.2386971  0.658950E-06  0.649E-03    3.37       2.6  T
   4    -57.2386980 -0.948711E-06  0.193E-03    3.37       8.9  T
   5    -57.2386981 -0.764353E-07  0.853E-04    3.37      20.1  T
   6    -57.2386981 -0.209150E-08  0.406E-04    3.37      42.2  T
     SCC iter.                  ...        0 min,  0.006 sec
     gradient                   ...        0 min,  0.002 sec
 * total energy  :   -56.4808514 Eh     change       -0.1823761E-03 Eh
   gradient norm :     0.0076251 Eh/α   predicted    -0.1452425E-03 ( -20.36%)
   displ. norm   :     0.0771979 α      lambda       -0.1337206E-03
   maximum displ.:     0.0375493 α      in ANC's #10, #19, #1, ...

........................................................................
.............................. CYCLE   10 ..............................
........................................................................

 iter      E             dE          RMSdq      gap      omega  full diag
   1    -57.2393684 -0.572394E+02  0.371E-02    3.38       0.0  T
   2    -57.2393701 -0.167858E-05  0.216E-02    3.38       1.0  T
   3    -57.2393699  0.210841E-06  0.548E-03    3.38       3.1  T
   4    -57.2393703 -0.422694E-06  0.147E-03    3.38      11.7  T
   5    -57.2393704 -0.445232E-07  0.709E-04    3.38      24.2  T
   6    -57.2393704 -0.163170E-08  0.279E-04    3.38      61.5  T
     SCC iter.                  ...        0 min,  0.007 sec
     gradient                   ...        0 min,  0.002 sec
 * total energy  :   -56.4809366 Eh     change       -0.8523954E-04 Eh
   gradient norm :     0.0057492 Eh/α   predicted    -0.6725979E-04 ( -21.09%)
   displ. norm   :     0.0557463 α      lambda       -0.6227617E-04
   maximum displ.:     0.0300212 α      in ANC's #10, #4, #11, ...

........................................................................
.............................. CYCLE   11 ..............................
........................................................................

 iter      E             dE          RMSdq      gap      omega  full diag
   1    -57.2394275 -0.572394E+02  0.290E-02    3.39       0.0  T
   2    -57.2394286 -0.102952E-05  0.169E-02    3.39       1.0  T
   3    -57.2394284  0.176379E-06  0.464E-03    3.39       3.7  T
   4    -57.2394287 -0.342652E-06  0.991E-04    3.39      17.3  T
   5    -57.2394288 -0.136170E-07  0.532E-04    3.39      32.2  T
     SCC iter.                  ...        0 min,  0.010 sec
     gradient                   ...        0 min,  0.002 sec
 * total energy  :   -56.4809783 Eh     change       -0.4162258E-04 Eh
   gradient norm :     0.0049148 Eh/α   predicted    -0.3123712E-04 ( -24.95%)
   displ. norm   :     0.0443371 α      lambda       -0.4170876E-04
   maximum displ.:     0.0215435 α      in ANC's #10, #4, #37, ...

........................................................................
.............................. CYCLE   12 ..............................
........................................................................

 iter      E             dE          RMSdq      gap      omega  full diag
   1    -57.2398292 -0.572398E+02  0.219E-02    3.40       0.0  T
   2    -57.2398306 -0.142132E-05  0.123E-02    3.39       1.4  T
   3    -57.2398305  0.474268E-07  0.431E-03    3.39       4.0  T
   4    -57.2398306 -0.103164E-06  0.134E-03    3.39      12.8  T
   5    -57.2398307 -0.593650E-07  0.487E-04    3.39      35.2  T
   6    -57.2398307 -0.185629E-08  0.261E-04    3.39      65.7  T
     SCC iter.                  ...        0 min,  0.010 sec
     gradient                   ...        0 min,  0.002 sec
 * total energy  :   -56.4810049 Eh     change       -0.2665087E-04 Eh
   gradient norm :     0.0028941 Eh/α   predicted    -0.2089848E-04 ( -21.58%)
   displ. norm   :     0.0598488 α      lambda       -0.3413088E-04
   maximum displ.:     0.0340471 α      in ANC's #4, #10, #11, ...

........................................................................
.............................. CYCLE   13 ..............................
........................................................................

 iter      E             dE          RMSdq      gap      omega  full diag
   1    -57.2393125 -0.572393E+02  0.307E-02    3.40       0.0  T
   2    -57.2393130 -0.480046E-06  0.180E-02    3.40       1.0  T
   3    -57.2393126  0.372264E-06  0.406E-03    3.40       4.2  T
   4    -57.2393131 -0.481770E-06  0.104E-03    3.40      16.4  T
   5    -57.2393131 -0.221012E-07  0.521E-04    3.40      32.9  T
   6    -57.2393131 -0.136478E-08  0.269E-04    3.40      63.7  T
     SCC iter.                  ...        0 min,  0.010 sec
     gradient                   ...        0 min,  0.002 sec
 * total energy  :   -56.4810233 Eh     change       -0.1841307E-04 Eh
   gradient norm :     0.0044289 Eh/α   predicted    -0.1712967E-04 (  -6.97%)
   displ. norm   :     0.0329179 α      lambda       -0.2233527E-04
   maximum displ.:     0.0208399 α      in ANC's #4, #10, #8, ...

........................................................................
.............................. CYCLE   14 ..............................
........................................................................

 iter      E             dE          RMSdq      gap      omega  full diag
   1    -57.2397295 -0.572397E+02  0.141E-02    3.39       0.0  T
   2    -57.2397302 -0.702125E-06  0.812E-03    3.39       2.1  T
   3    -57.2397302  0.450279E-07  0.296E-03    3.39       5.8  T
   4    -57.2397302 -0.683717E-07  0.108E-03    3.39      15.9  T
   5    -57.2397303 -0.376006E-07  0.290E-04    3.39      59.1  T
   6    -57.2397303 -0.740535E-09  0.166E-04    3.39     103.2  T
     SCC iter.                  ...        0 min,  0.015 sec
     gradient                   ...        0 min,  0.002 sec
 * total energy  :   -56.4810386 Eh     change       -0.1525086E-04 Eh
   gradient norm :     0.0023852 Eh/α   predicted    -0.1118256E-04 ( -26.68%)
   displ. norm   :     0.0410755 α      lambda       -0.1661539E-04
   maximum displ.:     0.0255903 α      in ANC's #4, #10, #8, ...

........................................................................
.............................. CYCLE   15 ..............................
........................................................................

 iter      E             dE          RMSdq      gap      omega  full diag
   1    -57.2397608 -0.572398E+02  0.176E-02    3.39       0.0  T
   2    -57.2397610 -0.222983E-06  0.103E-02    3.39       1.7  T
   3    -57.2397609  0.133694E-06  0.234E-03    3.39       7.3  T
   4    -57.2397610 -0.181639E-06  0.623E-04    3.39      27.5  T
   5    -57.2397610 -0.836368E-08  0.295E-04    3.39      58.2  T
     SCC iter.                  ...        0 min,  0.006 sec
     gradient                   ...        0 min,  0.002 sec
 * total energy  :   -56.4810499 Eh     change       -0.1130189E-04 Eh
   gradient norm :     0.0016169 Eh/α   predicted    -0.8325030E-05 ( -26.34%)
   displ. norm   :     0.0587152 α      lambda       -0.9944656E-05
   maximum displ.:     0.0383424 α      in ANC's #4, #10, #8, ...

........................................................................
.............................. CYCLE   16 ..............................
........................................................................

 iter      E             dE          RMSdq      gap      omega  full diag
   1    -57.2395975 -0.572396E+02  0.246E-02    3.39       0.0  T
   2    -57.2395977 -0.256759E-06  0.143E-02    3.39       1.2  T
   3    -57.2395976  0.155002E-06  0.253E-03    3.39       6.8  T
   4    -57.2395978 -0.211343E-06  0.762E-04    3.39      22.5  T
   5    -57.2395978 -0.141287E-07  0.365E-04    3.39      47.0  T
     SCC iter.                  ...        0 min,  0.005 sec
     gradient                   ...        0 min,  0.002 sec
 * total energy  :   -56.4810573 Eh     change       -0.7409820E-05 Eh
   gradient norm :     0.0015742 Eh/α   predicted    -0.4983440E-05 ( -32.75%)
   displ. norm   :     0.0250184 α      lambda       -0.4579721E-05
   maximum displ.:     0.0170852 α      in ANC's #4, #1, #7, ...

........................................................................
.............................. CYCLE   17 ..............................
........................................................................

 iter      E             dE          RMSdq      gap      omega  full diag
   1    -57.2395913 -0.572396E+02  0.112E-02    3.39       0.0  T
   2    -57.2395914 -0.647413E-07  0.659E-03    3.39       2.6  T
   3    -57.2395914  0.442047E-07  0.146E-03    3.39      11.8  T
   4    -57.2395914 -0.593767E-07  0.313E-04    3.39      54.9  T
   5    -57.2395914 -0.168812E-08  0.160E-04    3.39     107.0  T
     SCC iter.                  ...        0 min,  0.010 sec
     gradient                   ...        0 min,  0.002 sec
 * total energy  :   -56.4810615 Eh     change       -0.4185140E-05 Eh
   gradient norm :     0.0011524 Eh/α   predicted    -0.2292734E-05 ( -45.22%)
   displ. norm   :     0.0316834 α      lambda       -0.4701288E-05
   maximum displ.:     0.0222904 α      in ANC's #4, #20, #7, ...

........................................................................
.............................. CYCLE   18 ..............................
........................................................................

 iter      E             dE          RMSdq      gap      omega  full diag
   1    -57.2394674 -0.572395E+02  0.109E-02    3.39       0.0  T
   2    -57.2394675 -0.734383E-07  0.634E-03    3.39       2.7  T
   3    -57.2394674  0.684845E-07  0.164E-03    3.39      10.5  T
   4    -57.2394675 -0.843796E-07  0.438E-04    3.39      39.2  T
   5    -57.2394675 -0.507179E-08  0.178E-04    3.39      96.4  T
     SCC iter.                  ...        0 min,  0.005 sec
     gradient                   ...        0 min,  0.002 sec
 * total energy  :   -56.4810656 Eh     change       -0.4109135E-05 Eh
   gradient norm :     0.0009575 Eh/α   predicted    -0.2353165E-05 ( -42.73%)
   displ. norm   :     0.0342185 α      lambda       -0.2729282E-05
   maximum displ.:     0.0253341 α      in ANC's #4, #2, #20, ...

   *** GEOMETRY OPTIMIZATION CONVERGED AFTER 18 ITERATIONS ***

------------------------------------------------------------------------
 total energy gain   :        -0.4314517 Eh     -270.7400 kcal/mol
 total RMSD          :         0.3149658 a0        0.1667 Å
 total power (kW/mol):       -62.9320097 (step)-3672.0504 (real)
------------------------------------------------------------------------

 ANCopt (total)                0 d,  0 h,  0 min,  0.309 sec
 optimizer setup                ...        0 min,  0.000 sec (  0.048%)
 model hessian                  ...        0 min,  0.010 sec (  3.187%)
 ANC generation                 ...        0 min,  0.001 sec (  0.478%)
 coordinate transformation      ...        0 min,  0.000 sec (  0.040%)
 single point calculation       ...        0 min,  0.286 sec ( 92.833%)
 optimization log               ...        0 min,  0.002 sec (  0.492%)
 hessian update                 ...        0 min,  0.003 sec (  1.019%)
 rational function              ...        0 min,  0.002 sec (  0.694%)

================
 final structure:
================
34
 xtb: 6.7.1-6.fc44.fc44
O           -0.83443723665225        2.15834291501939        0.07607578308955
C           -0.43766099434183        1.90502846495059       -1.15552939076641
O            0.47174343037451        2.48109602620334       -1.68209926558578
H           -1.58623023006812        1.56092955833139        0.35968033564840
C           -1.27866087151109        0.85562738690961       -1.91716232258009
H           -0.84993738003151        0.73544836433166       -2.91088842800404
H           -2.29287628793586        1.26778088302189       -2.00646729349311
N           -1.34613560895559       -0.44024372955740       -1.27358888176898
H           -0.92443056537795       -1.23499192110446       -1.72961271200147
C           -1.97388372898514       -0.67192910984060       -0.11847258573479
O           -2.51109194176316        0.20858809013122        0.54709376335400
C           -1.96364396995421       -2.13138639193145        0.31506233512473
H           -2.74027511518967       -2.23353087694705        1.08984901681183
N           -2.18462623178550       -2.97399610728265       -0.85499963058703
H           -3.11103814454510       -2.81529429474290       -1.23923139055916
H           -2.12621541429690       -3.95270165403085       -0.59371213595985
C           -0.57518994989300       -2.46449465314426        0.92460547239920
H           -0.01232479128319       -3.02630707630527        0.17738578436339
H           -0.70980719904113       -3.09801003060761        1.80301143517161
C            0.19460185216840       -1.23391175917676        1.28456101075330
C            0.03093755957166       -0.44000781296961        2.38327419917067
H           -0.64080876142591       -0.56277116890509        3.21133636721403
N            0.88191998585450        0.62638044626061        2.32329234569527
H            0.91210579001590        1.38599394088961        2.98095309353625
C            1.60479185268951        0.55692142046619        1.16837522652087
C            2.56913730613483        1.41261149691648        0.65169524186292
H            2.85486142856205        2.30984134039936        1.17893575933731
C            3.12901587271308        1.08453194672962       -0.56239111477161
H            3.87097686339028        1.73422281834058       -1.00015473174677
C            2.74865384876597       -0.07219352284038       -1.24837291926468
H            3.21261112155396       -0.29202912886363       -2.19868006218739
C            1.79600174977348       -0.92532811542559       -0.74190458552106
H            1.51394161917597       -1.82015477967434       -1.28042420709902
C            1.20406803413935       -0.61454322168836        0.48347402790163

 Bond Distances (Angstroems)
 ---------------------------
O1-C2=1.3185         O1-H4=1.0013         C2-O1=1.3185         C2-O3=1.1984         C2-C5=1.5455         O3-C2=1.1984         
H4-O1=1.0013         C5-C2=1.5455         C5-H6=1.0889         C5-H7=1.0984         C5-N8=1.4485         H6-C5=1.0889         
H7-C5=1.0984         N8-C5=1.4485         N8-H9=1.0087         N8-C10=1.3349        H9-N8=1.0087         C10-N8=1.3349        
C10-O11=1.2276       C10-C12=1.5225       O11-C10=1.2276       C12-C10=1.5225       C12-H13=1.1018       C12-N14=1.4587       
C12-C17=1.5525       H13-C12=1.1018       N14-C12=1.4587       N14-H15=1.0154       N14-H16=1.0147       H15-N14=1.0154       
H16-N14=1.0147       C17-C12=1.5525       C17-H18=1.0912       C17-H19=1.0914       C17-C20=1.4955       H18-C17=1.0912       
H19-C17=1.0914       C20-C17=1.4955       C20-C21=1.3654       C20-C34=1.4298       C21-C20=1.3654       C21-H22=1.0733       
C21-N23=1.3656       H22-C21=1.0733       N23-C21=1.3656       N23-H24=1.0052       N23-C25=1.3643       H24-N23=1.0052       
C25-N23=1.3643       C25-C26=1.3889       C25-C34=1.4149       C26-C25=1.3889       C26-H27=1.0792       C26-C28=1.3766       
H27-C26=1.0792       C28-C26=1.3766       C28-H29=1.0790       C28-C30=1.3976       H29-C28=1.0790       C30-C28=1.3976       
C30-H31=1.0801       C30-C32=1.3755       H31-C30=1.0801       C32-C30=1.3755       C32-H33=1.0818       C32-C34=1.3959       
H33-C32=1.0818       C34-C20=1.4298       C34-C25=1.4149       C34-C32=1.3959       
 C  H  Rav=1.0865 sigma=0.0088  Rmin=1.0733  Rmax=1.1018    10
 C  C  Rav=1.4384 sigma=0.0674  Rmin=1.3654  Rmax=1.5525    12
 N  H  Rav=1.0110 sigma=0.0042  Rmin=1.0052  Rmax=1.0154     4
 N  C  Rav=1.3944 sigma=0.0497  Rmin=1.3349  Rmax=1.4587     5
 O  H  Rav=1.0013 sigma=0.0000  Rmin=1.0013  Rmax=1.0013     1
 O  C  Rav=1.2481 sigma=0.0512  Rmin=1.1984  Rmax=1.3185     3

 selected bond angles (degree)
 --------------------
H4-O1-C2=112.08                O3-C2-O1=123.12                C5-C2-O1=115.28                C5-C2-O3=121.52                
H6-C5-C2=108.08                H7-C5-C2=106.72                H7-C5-H6=109.31                N8-C5-C2=114.45                
N8-C5-H6=108.97                N8-C5-H7=109.20                H9-N8-C5=118.98                C10-N8-C5=124.17               
C10-N8-H9=116.81               O11-C10-N8=123.40              C12-C10-N8=114.18              C12-C10-O11=122.42             

 selected dihedral angles (degree)
 ---------------------------------
O3-C2-O1-H4=181.90            C5-C2-O1-H4=  5.07            H6-C5-C2-O1=180.20            H6-C5-C2-O3=  3.32            
H7-C5-C2-O1= 62.72            H7-C5-C2-O3=245.84            N8-C5-C2-O1=301.81            N8-C5-C2-O3=124.93            
H9-N8-C5-C2=245.54            H9-N8-C5-H6=  6.66            H9-N8-C5-H7=126.00            C10-N8-C5-C2= 67.76           
C10-N8-C5-H6=188.88           C10-N8-C5-H7=308.22           O11-C10-N8-C5=356.71          O11-C10-N8-H9=178.88          
C12-C10-N8-C5=177.00          C12-C10-N8-H9=359.18          
           -------------------------------------------------
          |                Final Singlepoint                |
           -------------------------------------------------

          ...................................................
          :                      SETUP                      :
          :.................................................:
          :  # basis functions                  91          :
          :  # atomic orbitals                  91          :
          :  # shells                           53          :
          :  # electrons                       100          :
          :  max. iterations                   250          :
          :  Hamiltonian                  GFN2-xTB          :
          :  restarted?                      false          :
          :  GBSA solvation                  false          :
          :  PC potential                    false          :
          :  electronic temp.          300.0000000     K    :
          :  accuracy                    1.0000000          :
          :  -> integral cutoff          0.2500000E+02      :
          :  -> integral neglect         0.1000000E-07      :
          :  -> SCF convergence          0.1000000E-05 Eh   :
          :  -> wf. convergence          0.1000000E-03 e    :
          :  Broyden damping             0.4000000          :
          :  net charge                          0          :
          :  unpaired electrons                  0          :
          ...................................................

 iter      E             dE          RMSdq      gap      omega  full diag
   1    -57.2394675 -0.572395E+02  0.856E-05    3.39       0.0  T
   2    -57.2394675 -0.428031E-10  0.576E-05    3.39     297.5  T
   3    -57.2394675 -0.522178E-10  0.337E-05    3.39     509.3  T

   *** convergence criteria satisfied after 3 iterations ***

         #    Occupation            Energy/Eh            Energy/eV
      -------------------------------------------------------------
         1        2.0000           -0.7314851             -19.9047
       ...           ...                  ...                  ...
        44        2.0000           -0.4192080             -11.4072
        45        2.0000           -0.4108056             -11.1786
        46        2.0000           -0.4083576             -11.1120
        47        2.0000           -0.3999237             -10.8825
        48        2.0000           -0.3950256             -10.7492
        49        2.0000           -0.3754509             -10.2165
        50        2.0000           -0.3588120              -9.7638 (HOMO)
        51                         -0.2342189              -6.3734 (LUMO)
        52                         -0.2267078              -6.1690
        53                         -0.2239317              -6.0935
        54                         -0.1900772              -5.1723
        55                         -0.1554323              -4.2295
       ...                                ...                  ...
        91                          0.7234952              19.6873
      -------------------------------------------------------------
                  HL-Gap            0.1245931 Eh            3.3904 eV
             Fermi-level           -0.2965154 Eh           -8.0686 eV

 SCC (total)                   0 d,  0 h,  0 min,  0.009 sec
 SCC setup                      ...        0 min,  0.002 sec ( 24.619%)
 Dispersion                     ...        0 min,  0.000 sec (  1.183%)
 classical contributions        ...        0 min,  0.000 sec (  0.829%)
 integral evaluation            ...        0 min,  0.001 sec ( 10.520%)
 iterations                     ...        0 min,  0.004 sec ( 39.802%)
 molecular gradient             ...        0 min,  0.002 sec ( 19.908%)
 printout                       ...        0 min,  0.000 sec (  3.050%)

         :::::::::::::::::::::::::::::::::::::::::::::::::::::
         ::                     SUMMARY                     ::
         :::::::::::::::::::::::::::::::::::::::::::::::::::::
         :: total energy             -56.481065579115 Eh    ::
         :: gradient norm              0.000958075442 Eh/a0 ::
         :: HOMO-LUMO gap              3.390351381764 eV    ::
         ::.................................................::
         :: SCC energy               -57.238438101530 Eh    ::
         :: -> isotropic ES            0.098984625384 Eh    ::
         :: -> anisotropic ES          0.003329254104 Eh    ::
         :: -> anisotropic XC          0.019394696553 Eh    ::
         :: -> dispersion             -0.041635951046 Eh    ::
         :: repulsion energy           0.757372522415 Eh    ::
         :: add. restraining           0.000000000000 Eh    ::
         :: total charge               0.000000000000 e     ::
         :::::::::::::::::::::::::::::::::::::::::::::::::::::

           -------------------------------------------------
          |                Property Printout                |
           -------------------------------------------------

    * Orbital Energies and Occupations

         #    Occupation            Energy/Eh            Energy/eV
      -------------------------------------------------------------
         1        2.0000           -0.7314851             -19.9047
       ...           ...                  ...                  ...
        38        2.0000           -0.4612114             -12.5502
        39        2.0000           -0.4598516             -12.5132
        40        2.0000           -0.4482331             -12.1970
        41        2.0000           -0.4445079             -12.0957
        42        2.0000           -0.4420924             -12.0299
        43        2.0000           -0.4213703             -11.4661
        44        2.0000           -0.4192080             -11.4072
        45        2.0000           -0.4108056             -11.1786
        46        2.0000           -0.4083576             -11.1120
        47        2.0000           -0.3999237             -10.8825
        48        2.0000           -0.3950256             -10.7492
        49        2.0000           -0.3754509             -10.2165
        50        2.0000           -0.3588120              -9.7638 (HOMO)
        51                         -0.2342189              -6.3734 (LUMO)
        52                         -0.2267078              -6.1690
        53                         -0.2239317              -6.0935
        54                         -0.1900772              -5.1723
        55                         -0.1554323              -4.2295
        56                         -0.0652168              -1.7746
        57                         -0.0172851              -0.4704
        58                          0.0220068               0.5988
        59                          0.0328756               0.8946
        60                          0.0541299               1.4730
        61                          0.0830531               2.2600
       ...                                ...                  ...
        91                          0.7234952              19.6873
      -------------------------------------------------------------
                  HL-Gap            0.1245931 Eh            3.3904 eV
             Fermi-level           -0.2965154 Eh           -8.0686 eV

     #   Z          covCN         q      C6AA      α(0)
     1   8 O        1.654    -0.383    20.526     6.116
     2   6 C        2.684     0.360    20.896     7.481
     3   8 O        0.856    -0.379    21.257     6.182
     4   1 H        0.800     0.365     0.555     1.171
     5   6 C        3.737    -0.039    21.364     6.596
     6   1 H        0.925     0.078     1.996     2.209
     7   1 H        0.923     0.075     2.037     2.232
     8   7 N        2.687    -0.155    24.353     7.329
     9   1 H        0.860     0.207     1.073     1.623
    10   6 C        2.756     0.270    22.440     7.757
    11   8 O        0.859    -0.463    22.980     6.427
    12   6 C        3.786     0.031    20.063     6.380
    13   1 H        0.923     0.031     2.568     2.506
    14   7 N        2.634    -0.352    29.062     8.006
    15   1 H        0.860     0.141     1.463     1.895
    16   1 H        0.860     0.150     1.398     1.852
    17   6 C        3.807    -0.067    21.769     6.642
    18   1 H        0.924     0.058     2.224     2.332
    19   1 H        0.924     0.042     2.423     2.434
    20   6 C        3.057    -0.043    29.012     8.833
    21   6 C        3.033    -0.004    28.098     8.695
    22   1 H        0.926     0.034     2.525     2.485
    23   7 N        2.781    -0.098    23.148     7.146
    24   1 H        0.860     0.164     1.309     1.792
    25   6 C        3.088     0.048    26.831     8.491
    26   6 C        2.909    -0.044    29.095     8.845
    27   1 H        0.926     0.031     2.572     2.508
    28   6 C        2.925    -0.028    28.711     8.787
    29   1 H        0.926     0.035     2.511     2.478
    30   6 C        2.920    -0.039    28.969     8.826
    31   1 H        0.926     0.027     2.635     2.538
    32   6 C        2.912    -0.044    29.088     8.844
    33   1 H        0.925     0.017     2.781     2.608
    34   6 C        3.118    -0.026    28.485     8.742

 Mol. C6AA /au·bohr⁶  :      13338.566528
 Mol. C8AA /au·bohr⁸  :     312461.305101
 Mol. α(0) /au        :        178.787594


Wiberg/Mayer (AO) data.
largest (>0.10) Wiberg bond orders for each atom

 ---------------------------------------------------------------------------
     #   Z sym  total        # sym  WBO       # sym  WBO       # sym  WBO
 ---------------------------------------------------------------------------
     1   8 O    2.224 --     2 C    1.198     4 H    0.761     3 O    0.181
     2   6 C    3.932 --     3 O    1.774     1 O    1.198     5 C    0.926
     3   8 O    2.066 --     2 C    1.774     1 O    0.181
     4   1 H    0.867 --     1 O    0.761
     5   6 C    3.965 --     8 N    0.992     6 H    0.974     7 H    0.951
                             2 C    0.926
     6   1 H    0.994 --     5 C    0.974
     7   1 H    0.994 --     5 C    0.951
     8   7 N    3.485 --    10 C    1.313     5 C    0.992     9 H    0.923
                            11 O    0.192
     9   1 H    0.957 --     8 N    0.923
    10   6 C    3.946 --    11 O    1.599     8 N    1.313    12 C    0.950
    11   8 O    2.009 --    10 C    1.599     8 N    0.192
    12   6 C    3.981 --    14 N    1.012    13 H    0.960    17 C    0.954
                            10 C    0.950
    13   1 H    0.999 --    12 C    0.960
    14   7 N    3.007 --    12 C    1.012    15 H    0.965    16 H    0.961
    15   1 H    0.979 --    14 N    0.965
    16   1 H    0.977 --    14 N    0.961
    17   6 C    3.992 --    20 C    1.013    19 H    0.973    18 H    0.969
                            12 C    0.954
    18   1 H    0.996 --    17 C    0.969
    19   1 H    0.997 --    17 C    0.973
    20   6 C    3.972 --    21 C    1.575    34 C    1.204    17 C    1.013
    21   6 C    3.953 --    20 C    1.575    23 N    1.206    22 H    0.970
    22   1 H    0.998 --    21 C    0.970
    23   7 N    3.551 --    21 C    1.206    25 C    1.177    24 H    0.945
    24   1 H    0.972 --    23 N    0.945
    25   6 C    3.959 --    26 C    1.337    34 C    1.250    23 N    1.177
    26   6 C    3.990 --    28 C    1.498    25 C    1.337    27 H    0.968
                            32 C    0.114
    27   1 H    0.999 --    26 C    0.968
    28   6 C    3.991 --    26 C    1.498    30 C    1.368    29 H    0.972
    29   1 H    0.998 --    28 C    0.972
    30   6 C    3.990 --    32 C    1.508    28 C    1.368    31 H    0.972
    31   1 H    0.999 --    30 C    0.972
    32   6 C    3.992 --    30 C    1.508    34 C    1.326    33 H    0.967
                            26 C    0.114
    33   1 H    0.999 --    32 C    0.967
    34   6 C    3.983 --    32 C    1.326    25 C    1.250    20 C    1.204
 ---------------------------------------------------------------------------

Topologies differ in total number of bonds
Writing topology from bond orders to xtbtopo.mol

molecular dipole:
                 x           y           z       tot (Debye)
 q only:       -0.450      -1.496       0.039
   full:       -0.990      -1.917       0.281       5.531
molecular quadrupole (traceless):
                xx          xy          yy          xz          yz          zz
 q only:       -3.846       2.871      -2.979       8.574       7.007       6.825
  q+dip:       -3.311       8.248      -3.629       7.406       9.469       6.940
   full:       -2.356       6.561      -3.639       9.861       8.188       5.995

           -------------------------------------------------
          |                Geometry Summary                 |
           -------------------------------------------------

      molecular mass/u    :      261.2770023
   center of mass at/Å    :       -0.0041222      -0.0172337       0.0047156
  moments of inertia/u·Å² :        0.8784596E+03   0.1300694E+04   0.1502254E+04
rotational constants/cm⁻¹ :        0.1918999E-01   0.1296050E-01   0.1122156E-01

 * 30 selected distances

     #   Z          #   Z                                           value/Å
     1   8 O        2   6 C                                       1.3185034
     2   6 C        3   8 O                                       1.1983932
     5   6 C        6   1 H                                       1.0889163
     5   6 C        7   1 H                                       1.0983984
     5   6 C        8   7 N                                       1.4484550
     8   7 N        9   1 H                                       1.0086713
     8   7 N       10   6 C                                       1.3349306
    10   6 C       11   8 O                                       1.2275512
    12   6 C       13   1 H                                       1.1017641
    12   6 C       14   7 N                                       1.4587219 (max)
    14   7 N       15   1 H                                       1.0154110
    14   7 N       16   1 H                                       1.0146663
    17   6 C       18   1 H                                       1.0912323
    17   6 C       19   1 H                                       1.0913573
    20   6 C       21   6 C                                       1.3653719
    21   6 C       22   1 H                                       1.0733132
    21   6 C       23   7 N                                       1.3656329
    23   7 N       24   1 H                                       1.0052073 (min)
    23   7 N       25   6 C                                       1.3642588
    25   6 C       26   6 C                                       1.3889299
    26   6 C       27   1 H                                       1.0791860
    26   6 C       28   6 C                                       1.3766286
    28   6 C       29   1 H                                       1.0790003
    28   6 C       30   6 C                                       1.3975910
    30   6 C       31   1 H                                       1.0801240
    30   6 C       32   6 C                                       1.3754618
    32   6 C       33   1 H                                       1.0817931
    20   6 C       34   6 C                                       1.4298182
    25   6 C       34   6 C                                       1.4149201
    32   6 C       34   6 C                                       1.3958961

 * 5 distinct bonds (by element types)

   Z      Z             #   av. dist./Å        max./Å        min./Å
   1 H    6 C          10     1.0865085     1.1017641     1.0733132
   6 C    6 C           8     1.3930772     1.4298182     1.3653719
   1 H    7 N           4     1.0109890     1.0154110     1.0052073
   6 C    7 N           5     1.3943999     1.4587219     1.3349306
   6 C    8 O           3     1.2481493     1.3185034     1.1983932


optimized geometry written to: xtbopt.xyz


           -------------------------------------------------
          | TOTAL ENERGY              -56.481065579115 Eh   |
          | GRADIENT NORM               0.000958075442 Eh/α |
          | HOMO-LUMO GAP               3.390351381764 eV   |
           -------------------------------------------------

------------------------------------------------------------------------
 * finished run on 2026/10/01 at 18:05:23.846     
------------------------------------------------------------------------
 total:
 * wall-time:     0 d,  0 h,  0 min,  0.478 sec
 *  cpu-time:     0 d,  0 h,  0 min,  6.870 sec
 * ratio c/w:    14.369 speedup
 SCF:
 * wall-time:     0 d,  0 h,  0 min,  0.111 sec
 *  cpu-time:     0 d,  0 h,  0 min,  1.499 sec
 * ratio c/w:    13.530 speedup
 ANC optimizer:
 * wall-time:     0 d,  0 h,  0 min,  0.319 sec
 *  cpu-time:     0 d,  0 h,  0 min,  4.794 sec
 * ratio c/w:    15.011 speedup


--- STDERR ---
normal termination of xtb
Note: The following floating-point exceptions are signalling: IEEE_UNDERFLOW_FLAG IEEE_DENORMAL
