34
 energy: -56.481065579115 gnorm: 0.000958075442 xtb: 6.7.1-6.fc44.fc44
O           -0.83443723665225        2.15834291501939        0.07607578308955
C           -0.43766099434183        1.90502846495059       -1.15552939076641
O            0.47174343037451        2.48109602620334       -1.68209926558578
H           -1.58623023006812        1.56092955833139        0.35968033564840
C           -1.27866087151109        0.85562738690961       -1.91716232258009
H           -0.84993738003151        0.73544836433166       -2.91088842800404
H           -2.29287628793586        1.26778088302189       -2.00646729349311
N           -1.34613560895559       -0.44024372955740       -1.27358888176898
H           -0.92443056537795       -1.23499192110446       -1.72961271200147
C           -1.97388372898514       -0.67192910984060       -0.11847258573479
O           -2.51109194176316        0.20858809013122        0.54709376335400
C           -1.96364396995421       -2.13138639193145        0.31506233512473
H           -2.74027511518967       -2.23353087694705        1.08984901681183
N           -2.18462623178550       -2.97399610728265       -0.85499963058703
H           -3.11103814454510       -2.81529429474290       -1.23923139055916
H           -2.12621541429690       -3.95270165403085       -0.59371213595985
C           -0.57518994989300       -2.46449465314426        0.92460547239920
H           -0.01232479128319       -3.02630707630527        0.17738578436339
H           -0.70980719904113       -3.09801003060761        1.80301143517161
C            0.19460185216840       -1.23391175917676        1.28456101075330
C            0.03093755957166       -0.44000781296961        2.38327419917067
H           -0.64080876142591       -0.56277116890509        3.21133636721403
N            0.88191998585450        0.62638044626061        2.32329234569527
H            0.91210579001590        1.38599394088961        2.98095309353625
C            1.60479185268951        0.55692142046619        1.16837522652087
C            2.56913730613483        1.41261149691648        0.65169524186292
H            2.85486142856205        2.30984134039936        1.17893575933731
C            3.12901587271308        1.08453194672962       -0.56239111477161
H            3.87097686339028        1.73422281834058       -1.00015473174677
C            2.74865384876597       -0.07219352284038       -1.24837291926468
H            3.21261112155396       -0.29202912886363       -2.19868006218739
C            1.79600174977348       -0.92532811542559       -0.74190458552106
H            1.51394161917597       -1.82015477967434       -1.28042420709902
C            1.20406803413935       -0.61454322168836        0.48347402790163
