34
frame_0050
O      -3.279636079400000      2.290281730900000     -0.253647728300000
C      -2.092346962900000      2.827890588500000     -0.064367707700000
O      -1.928078081300000      3.963229033100000      0.281909084000000
H      -3.220244272300000      1.329829976200000     -0.515401880300000
C      -0.899942920500000      1.891502380300000     -0.365968499300000
H       0.025905684700000      2.436539636500000     -0.187590845900000
H      -0.963890569500000      1.616770862100000     -1.427115814300000
N      -0.896614512800000      0.680116806200000      0.434863403800000
H      -0.134534036200000      0.556343129300000      1.082341687600000
C      -1.721235406300000     -0.349623491700000      0.186979461400000
O      -2.662493329800000     -0.258744801900000     -0.592811004000000
C      -1.377902560200000     -1.648930354200000      0.892487766300000
H      -0.804847724700000     -1.434617744400000      1.801924880200000
N      -2.602931691000000     -2.313660073600000      1.273905815800000
H      -2.440190296400000     -3.292971377500000      1.477142394300000
H      -3.276537600300000     -2.245091962400000      0.517182861400000
C      -0.484563059800000     -2.463404483700000     -0.089961204000000
H      -1.111395712900000     -2.814069639700000     -0.913331435900000
H      -0.090498326200000     -3.331803304100000      0.444413868800000
C       0.627032370900000     -1.634277164900000     -0.637298209700000
C       0.752994869200000     -1.181321173600000     -1.918250972400000
H       0.126209389500000     -1.377249705100000     -2.767171523900000
N       1.857233408900000     -0.380716647000000     -2.031715986800000
H       2.180349296400000      0.050172283500000     -2.880726694200000
C       2.472082729900000     -0.298871382200000     -0.816684485700000
C       3.610019517000000      0.395549606700000     -0.425309909800000
H       4.171675562000000      0.987244118300000     -1.132768530600000
C       3.994528178100000      0.298960012800000      0.894200726800000
H       4.873592685400000      0.825871984400000      1.233065292400000
C       3.270913667900000     -0.474245021600000      1.806959198800000
H       3.610641904700000     -0.528357189600000      2.830487187300000
C       2.143116118600000     -1.165226795500000      1.425955016900000
H       1.599562020600000     -1.768753770900000      2.138187461500000
C       1.722895926400000     -1.080136216000000      0.097187972300000
