      -----------------------------------------------------------      
     |                   =====================                   |     
     |                           x T B                           |     
     |                   =====================                   |     
     |                         S. Grimme                         |     
     |          Mulliken Center for Theoretical Chemistry        |     
     |                    University of Bonn                     |     
      -----------------------------------------------------------      

   * xtb version 6.7.1-6.fc44.fc44 compiled by Fedora project on Sun Jan 18 23:32:34 UTC 2026

   xtb is free software: you can redistribute it and/or modify it under
   the terms of the GNU Lesser General Public License as published by
   the Free Software Foundation, either version 3 of the License, or
   (at your option) any later version.
   
   xtb is distributed in the hope that it will be useful,
   but WITHOUT ANY WARRANTY; without even the implied warranty of
   MERCHANTABILITY or FITNESS FOR A PARTICULAR PURPOSE.  See the
   GNU Lesser General Public License for more details.
   
   Cite this work as:
   * C. Bannwarth, E. Caldeweyher, S. Ehlert, A. Hansen, P. Pracht,
     J. Seibert, S. Spicher, S. Grimme, WIREs Comput. Mol. Sci., 2020, 11,
     e01493. DOI: 10.1002/wcms.1493
   
   for GFN2-xTB:
   * C. Bannwarth, S. Ehlert and S. Grimme., J. Chem. Theory Comput., 2019,
     15, 1652-1671. DOI: 10.1021/acs.jctc.8b01176
   for GFN1-xTB:
   * S. Grimme, C. Bannwarth, P. Shushkov, J. Chem. Theory Comput., 2017,
     13, 1989-2009. DOI: 10.1021/acs.jctc.7b00118
   for GFN0-xTB:
   * P. Pracht, E. Caldeweyher, S. Ehlert, S. Grimme, ChemRxiv, 2019, preprint.
     DOI: 10.26434/chemrxiv.8326202.v1
   for GFN-FF:
   * S. Spicher and S. Grimme, Angew. Chem. Int. Ed., 2020, 59, 15665-15673.
     DOI: 10.1002/anie.202004239
   
   for ALPB and GBSA implicit solvation:
   * S. Ehlert, M. Stahn, S. Spicher, S. Grimme, J. Chem. Theory Comput.,
     2021, 17, 4250-4261. DOI: 10.1021/acs.jctc.1c00471
   
   for ddCOSMO and CPCM-X implicit solvation:
   * M. Stahn, S. Ehlert, S. Grimme, J. Phys. Chem. A,
     2023, XX, XXXX-XXXX. DOI: 10.1021/acs.jpca.3c04382
   
   for DFT-D4:
   * E. Caldeweyher, C. Bannwarth and S. Grimme, J. Chem. Phys., 2017,
     147, 034112. DOI: 10.1063/1.4993215
   * E. Caldeweyher, S. Ehlert, A. Hansen, H. Neugebauer, S. Spicher,
     C. Bannwarth and S. Grimme, J. Chem. Phys., 2019, 150, 154122.
     DOI: 10.1063/1.5090222
   * E. Caldeweyher, J.-M. Mewes, S. Ehlert and S. Grimme, Phys. Chem. Chem. Phys.
     2020, 22, 8499-8512. DOI: 10.1039/D0CP00502A
   
   for sTDA-xTB:
   * S. Grimme and C. Bannwarth, J. Chem. Phys., 2016, 145, 054103.
     DOI: 10.1063/1.4959605
   
   in the mass-spec context:
   * V. Asgeirsson, C. Bauer and S. Grimme, Chem. Sci., 2017, 8, 4879.
     DOI: 10.1039/c7sc00601b
   * J. Koopman and S. Grimme, ACS Omega 2019, 4, 12, 15120-15133.
     DOI: 10.1021/acsomega.9b02011
   
   for metadynamics refer to:
   * S. Grimme, J. Chem. Theory Comput., 2019, 155, 2847-2862
     DOI: 10.1021/acs.jctc.9b00143
   
   for SPH calculations refer to:
   * S. Spicher and S. Grimme, J. Chem. Theory Comput., 2021, 17, 1701-1714
     DOI: 10.1021/acs.jctc.0c01306
   
   for ONIOM refer to:
   * C. Plett, A. Katbashev, S. Ehlert, S. Grimme, M. Bursch,
     Phys. Chem. Chem. Phys., 2023, 25, 17860-17868. DOI: 10.1039/D3CP02178E
   
   for DIPRO refer to:
   * J. Kohn, N. Gildemeister, S. Grimme, D. Fazzi, A. Hansen,
     J. Chem. Phys., 2023, just accepted.
   
   for PTB refer to:
   * S. Grimme, M. Mueller, A. Hansen, J. Chem. Phys., 2023, 158, 124111.
     DOI: 10.1063/5.0137838
   
   with help from (in alphabetical order)
   P. Atkinson, C. Bannwarth, F. Bohle, G. Brandenburg, E. Caldeweyher
   M. Checinski, S. Dohm, S. Ehlert, S. Ehrlich, I. Gerasimov, C. Hölzer
   A. Katbashev, J. Kohn, J. Koopman, C. Lavigne, S. Lehtola, F. März, M. Müller,
   F. Musil, H. Neugebauer, J. Pisarek, C. Plett, P. Pracht, F. Pultar,
   J. Seibert, P. Shushkov, S. Spicher, M. Stahn, M. Steiner, T. Strunk,
   J. Stückrath, T. Rose, and J. Unsleber
   
 * started run on 2026/10/01 at 18:03:39.336     
   ID    Z sym.   atoms
    1    8 O      1, 3, 11
    2    6 C      2, 5, 10, 12, 17, 20, 21, 25, 26, 28, 30, 32, 34
    3    1 H      4, 6, 7, 9, 13, 15, 16, 18, 19, 22, 24, 27, 29, 31, 33
    4    7 N      8, 14, 23

           -------------------------------------------------
          |                Calculation Setup                |
           -------------------------------------------------

          program call               : /usr/bin/xtb input.xyz --opt --gfn 2 --chrg 0 --uhf 0
          hostname                   : fedora
          coordinate file            : input.xyz
          omp threads                :                    16


           -------------------------------------------------
          |                 G F N 2 - x T B                 |
           -------------------------------------------------

        Reference                      10.1021/acs.jctc.8b01176
      * Hamiltonian:
        H0-scaling (s, p, d)           1.850000    2.230000    2.230000
        zeta-weighting                 0.500000
      * Dispersion:
        s8                             2.700000
        a1                             0.520000
        a2                             5.000000
        s9                             5.000000
      * Repulsion:
        kExp                           1.500000    1.000000
        rExp                           1.000000
      * Coulomb:
        alpha                          2.000000
        third order                    shell-resolved
        anisotropic                    true
        a3                             3.000000
        a5                             4.000000
        cn-shift                       1.200000
        cn-exp                         4.000000
        max-rad                        5.000000


          ...................................................
          :                      SETUP                      :
          :.................................................:
          :  # basis functions                  91          :
          :  # atomic orbitals                  91          :
          :  # shells                           53          :
          :  # electrons                       100          :
          :  max. iterations                   250          :
          :  Hamiltonian                  GFN2-xTB          :
          :  restarted?                      false          :
          :  GBSA solvation                  false          :
          :  PC potential                    false          :
          :  electronic temp.          300.0000000     K    :
          :  accuracy                    1.0000000          :
          :  -> integral cutoff          0.2500000E+02      :
          :  -> integral neglect         0.1000000E-07      :
          :  -> SCF convergence          0.1000000E-05 Eh   :
          :  -> wf. convergence          0.1000000E-03 e    :
          :  Broyden damping             0.4000000          :
          :  net charge                          0          :
          :  unpaired electrons                  0          :
          ...................................................

 iter      E             dE          RMSdq      gap      omega  full diag
   1    -57.0953164 -0.570953E+02  0.416E+00    2.95       0.0  T
   2    -57.2218977 -0.126581E+00  0.240E+00    3.36       1.0  T
   3    -57.2284204 -0.652272E-02  0.130E+00    3.46       1.0  T
   4    -57.2285864 -0.165944E-03  0.485E-01    3.39       1.0  T
   5    -57.2358035 -0.721719E-02  0.118E-01    3.42       1.0  T
   6    -57.2359938 -0.190250E-03  0.578E-02    3.41       1.0  T
   7    -57.2360308 -0.370251E-04  0.251E-02    3.41       1.0  T
   8    -57.2360311 -0.239009E-06  0.111E-02    3.41       1.5  T
   9    -57.2360332 -0.210971E-05  0.327E-03    3.41       5.2  T
  10    -57.2360332 -0.467860E-07  0.148E-03    3.41      11.6  T
  11    -57.2360332 -0.144200E-07  0.631E-04    3.41      27.2  T
  12    -57.2360332 -0.456004E-08  0.205E-04    3.41      83.8  T

   *** convergence criteria satisfied after 12 iterations ***

         #    Occupation            Energy/Eh            Energy/eV
      -------------------------------------------------------------
         1        2.0000           -0.7369923             -20.0546
       ...           ...                  ...                  ...
        44        2.0000           -0.4322044             -11.7609
        45        2.0000           -0.4306181             -11.7177
        46        2.0000           -0.4219590             -11.4821
        47        2.0000           -0.4061977             -11.0532
        48        2.0000           -0.3981197             -10.8334
        49        2.0000           -0.3891424             -10.5891
        50        2.0000           -0.3728750             -10.1464 (HOMO)
        51                         -0.2475979              -6.7375 (LUMO)
        52                         -0.2396540              -6.5213
        53                         -0.2325051              -6.3268
        54                         -0.2135710              -5.8116
        55                         -0.1752742              -4.7695
       ...                                ...                  ...
        91                          0.7007818              19.0692
      -------------------------------------------------------------
                  HL-Gap            0.1252770 Eh            3.4090 eV
             Fermi-level           -0.3102365 Eh           -8.4420 eV

 SCC (total)                   0 d,  0 h,  0 min,  0.519 sec
 SCC setup                      ...        0 min,  0.003 sec (  0.561%)
 Dispersion                     ...        0 min,  0.000 sec (  0.040%)
 classical contributions        ...        0 min,  0.000 sec (  0.054%)
 integral evaluation            ...        0 min,  0.014 sec (  2.620%)
 iterations                     ...        0 min,  0.497 sec ( 95.617%)
 molecular gradient             ...        0 min,  0.006 sec (  1.069%)
 printout                       ...        0 min,  0.000 sec (  0.032%)

         :::::::::::::::::::::::::::::::::::::::::::::::::::::
         ::                     SUMMARY                     ::
         :::::::::::::::::::::::::::::::::::::::::::::::::::::
         :: total energy             -56.477579656024 Eh    ::
         :: gradient norm              0.000100954054 Eh/a0 ::
         :: HOMO-LUMO gap              3.408961234901 eV    ::
         ::.................................................::
         :: SCC energy               -57.235315625220 Eh    ::
         :: -> isotropic ES            0.096739840358 Eh    ::
         :: -> anisotropic ES          0.006616477028 Eh    ::
         :: -> anisotropic XC          0.019413757473 Eh    ::
         :: -> dispersion             -0.037029546529 Eh    ::
         :: repulsion energy           0.757735969196 Eh    ::
         :: add. restraining           0.000000000000 Eh    ::
         :: total charge              -0.000000000000 e     ::
         :::::::::::::::::::::::::::::::::::::::::::::::::::::

      ----------------------------------------------------------- 
     |                   =====================                   |
     |                        A N C O P T                        |
     |                   =====================                   |
     |               Approximate Normal Coordinate               |
     |                Rational Function Optimizer                |
      ----------------------------------------------------------- 
      ----------------------------------------------------------- 
     |                   =====================                   |
     |                        A N C O P T                        |
     |                   =====================                   |
     |               Approximate Normal Coordinate               |
     |                Rational Function Optimizer                |
      ----------------------------------------------------------- 

          ...................................................
          :                      SETUP                      :
          :.................................................:
          :   optimization level            normal          :
          :   max. optcycles                   200          :
          :   ANC micro-cycles                  20          :
          :   degrees of freedom                96          :
          :.................................................:
          :   RF solver                   davidson          :
          :   write xtbopt.log                true          :
          :   linear?                        false          :
          :   energy convergence         0.5000000E-05 Eh   :
          :   grad. convergence          0.1000000E-02 Eh/α :
          :   maxmium RF displ.          1.0000000          :
          :   Hlow (freq-cutoff)         0.1000000E-01      :
          :   Hmax (freq-cutoff)         5.0000000          :
          :   S6 in model hess.         20.0000000          :
          ...................................................

generating ANC from exact Hessian ...
Using Lindh-Hessian (1995)
 Shifting diagonal of input Hessian by    9.5818952703309642E-003
 Lowest  eigenvalues of input Hessian
    0.000000    0.000000    0.000000    0.000000    0.000000    0.000000
    0.010000    0.010342    0.010677    0.011828    0.012438    0.014410
    0.016531    0.018218    0.019212    0.021024    0.023808    0.024095
 Highest eigenvalues
    2.000416    2.007841    2.097422    2.204471    2.298442    2.370834


........................................................................
.............................. CYCLE    1 ..............................
........................................................................

 iter      E             dE          RMSdq      gap      omega  full diag
   1    -57.2360332 -0.572360E+02  0.963E-05    3.41       0.0  T
   2    -57.2360332 -0.406004E-10  0.569E-05    3.41     301.2  T
   3    -57.2360332 -0.105871E-11  0.361E-05    3.41     475.1  T
     SCC iter.                  ...        0 min,  0.045 sec
     gradient                   ...        0 min,  0.007 sec
 * total energy  :   -56.4775797 Eh     change       -0.5077041E-09 Eh
   gradient norm :     0.0001010 Eh/α   predicted     0.0000000E+00 (-100.00%)
   displ. norm   :     0.0025132 α      lambda       -0.1219162E-07
   maximum displ.:     0.0020087 α      in ANC's #1, #2, #3, ...

   *** GEOMETRY OPTIMIZATION CONVERGED AFTER 1 ITERATIONS ***

------------------------------------------------------------------------
 total energy gain   :        -0.0000000 Eh       -0.0000 kcal/mol
 total RMSD          :         0.0000000 a0        0.0000 Å
 total power (kW/mol):        -0.0000013 (step)   -0.0000 (real)
------------------------------------------------------------------------

 ANCopt (total)                0 d,  0 h,  0 min,  0.107 sec
 optimizer setup                ...        0 min,  0.000 sec (  0.051%)
 model hessian                  ...        0 min,  0.009 sec (  8.595%)
 ANC generation                 ...        0 min,  0.040 sec ( 37.664%)
 coordinate transformation      ...        0 min,  0.000 sec (  0.016%)
 single point calculation       ...        0 min,  0.057 sec ( 53.210%)
 optimization log               ...        0 min,  0.000 sec (  0.077%)
 hessian update                 ...        0 min,  0.000 sec (  0.000%)
 rational function              ...        0 min,  0.000 sec (  0.102%)

================
 final structure:
================
34
 xtb: 6.7.1-6.fc44.fc44
O           -3.27963607940000        2.29028173090000       -0.25364772830000
C           -2.09234696290000        2.82789058850000       -0.06436770770000
O           -1.92807808130000        3.96322903310000        0.28190908400000
H           -3.22024427230000        1.32982997620000       -0.51540188030000
C           -0.89994292050000        1.89150238030000       -0.36596849930000
H            0.02590568470000        2.43653963650000       -0.18759084590000
H           -0.96389056950000        1.61677086210000       -1.42711581430000
N           -0.89661451280000        0.68011680620000        0.43486340380000
H           -0.13453403620000        0.55634312930000        1.08234168760000
C           -1.72123540630000       -0.34962349170000        0.18697946140000
O           -2.66249332980000       -0.25874480190000       -0.59281100400000
C           -1.37790256020000       -1.64893035420000        0.89248776630000
H           -0.80484772470000       -1.43461774440000        1.80192488020000
N           -2.60293169100000       -2.31366007360000        1.27390581580000
H           -2.44019029640000       -3.29297137750000        1.47714239430000
H           -3.27653760030000       -2.24509196240000        0.51718286140000
C           -0.48456305980000       -2.46340448370000       -0.08996120400000
H           -1.11139571290000       -2.81406963970000       -0.91333143590000
H           -0.09049832620000       -3.33180330410000        0.44441386880000
C            0.62703237090000       -1.63427716490000       -0.63729820970000
C            0.75299486920000       -1.18132117360000       -1.91825097240000
H            0.12620938950000       -1.37724970510000       -2.76717152390000
N            1.85723340890000       -0.38071664700000       -2.03171598680000
H            2.18034929640000        0.05017228350000       -2.88072669420000
C            2.47208272990000       -0.29887138220000       -0.81668448570000
C            3.61001951700000        0.39554960670000       -0.42530990980000
H            4.17167556200000        0.98724411830000       -1.13276853060000
C            3.99452817810000        0.29896001280000        0.89420072680000
H            4.87359268540000        0.82587198440000        1.23306529240000
C            3.27091366790000       -0.47424502160000        1.80695919880000
H            3.61064190470000       -0.52835718960000        2.83048718730000
C            2.14311611860000       -1.16522679550000        1.42595501690000
H            1.59956202060000       -1.76875377090000        2.13818746150000
C            1.72289592640000       -1.08013621600000        0.09718797230000

 Bond Distances (Angstroems)
 ---------------------------
O1-C2=1.3170         O1-H4=0.9973         C2-O1=1.3170         C2-O3=1.1983         C2-C5=1.5458         O3-C2=1.1983         
H4-O1=0.9973         C5-C2=1.5458         C5-H6=1.0891         C5-H7=1.0980         C5-N8=1.4522         H6-C5=1.0891         
H7-C5=1.0980         N8-C5=1.4522         N8-H9=1.0076         N8-C10=1.3423        H9-N8=1.0076         C10-N8=1.3423        
C10-O11=1.2257       C10-C12=1.5178       O11-C10=1.2257       C12-C10=1.5178       C12-H13=1.0961       C12-N14=1.4450       
C12-C17=1.5578       H13-C12=1.0961       N14-C12=1.4450       N14-H15=1.0133       N14-H16=1.0154       H15-N14=1.0133       
H16-N14=1.0154       C17-C12=1.5578       C17-H18=1.0926       C17-H19=1.0931       C17-C20=1.4909       H18-C17=1.0926       
H19-C17=1.0931       C20-C17=1.4909       C20-C21=1.3645       C20-C34=1.4309       C21-C20=1.3645       C21-H22=1.0733       
C21-N23=1.3686       H22-C21=1.0733       N23-C21=1.3686       N23-H24=1.0054       N23-C25=1.3642       H24-N23=1.0054       
C25-N23=1.3642       C25-C26=1.3894       C25-C34=1.4166       C26-C25=1.3894       C26-H27=1.0798       C26-C28=1.3778       
H27-C26=1.0798       C28-C26=1.3778       C28-H29=1.0795       C28-C30=1.3981       H29-C28=1.0795       C30-C28=1.3981       
C30-H31=1.0798       C30-C32=1.3764       H31-C30=1.0798       C32-C30=1.3764       C32-H33=1.0803       C32-C34=1.3962       
H33-C32=1.0803       C34-C20=1.4309       C34-C25=1.4166       C34-C32=1.3962       
 C  H  Rav=1.0862 sigma=0.0081  Rmin=1.0733  Rmax=1.0980    10
 C  C  Rav=1.4385 sigma=0.0672  Rmin=1.3645  Rmax=1.5578    12
 N  H  Rav=1.0105 sigma=0.0041  Rmin=1.0054  Rmax=1.0154     4
 N  C  Rav=1.3945 sigma=0.0451  Rmin=1.3423  Rmax=1.4522     5
 O  H  Rav=0.9973 sigma=0.0000  Rmin=0.9973  Rmax=0.9973     1
 O  C  Rav=1.2470 sigma=0.0508  Rmin=1.1983  Rmax=1.3170     3

 selected bond angles (degree)
 --------------------
H4-O1-C2=112.16                O3-C2-O1=123.50                C5-C2-O1=114.84                C5-C2-O3=121.64                
H6-C5-C2=108.70                H7-C5-C2=107.17                H7-C5-H6=109.45                N8-C5-C2=113.55                
N8-C5-H6=108.98                N8-C5-H7=108.93                H9-N8-C5=117.29                C10-N8-C5=122.46               
C10-N8-H9=119.28               O11-C10-N8=122.17              C12-C10-N8=115.59              C12-C10-O11=122.20             

 selected dihedral angles (degree)
 ---------------------------------
O3-C2-O1-H4=181.58            C5-C2-O1-H4=  3.39            H6-C5-C2-O1=179.41            H6-C5-C2-O3=  1.19            
H7-C5-C2-O1= 61.21            H7-C5-C2-O3=242.98            N8-C5-C2-O1=300.88            N8-C5-C2-O3=122.66            
H9-N8-C5-C2=244.62            H9-N8-C5-H6=  5.93            H9-N8-C5-H7=125.29            C10-N8-C5-C2= 75.97           
C10-N8-C5-H6=197.28           C10-N8-C5-H7=316.64           O11-C10-N8-C5=348.60          O11-C10-N8-H9=180.17          
C12-C10-N8-C5=166.23          C12-C10-N8-H9=357.80          
           -------------------------------------------------
          |                Final Singlepoint                |
           -------------------------------------------------

          ...................................................
          :                      SETUP                      :
          :.................................................:
          :  # basis functions                  91          :
          :  # atomic orbitals                  91          :
          :  # shells                           53          :
          :  # electrons                       100          :
          :  max. iterations                   250          :
          :  Hamiltonian                  GFN2-xTB          :
          :  restarted?                      false          :
          :  GBSA solvation                  false          :
          :  PC potential                    false          :
          :  electronic temp.          300.0000000     K    :
          :  accuracy                    1.0000000          :
          :  -> integral cutoff          0.2500000E+02      :
          :  -> integral neglect         0.1000000E-07      :
          :  -> SCF convergence          0.1000000E-05 Eh   :
          :  -> wf. convergence          0.1000000E-03 e    :
          :  Broyden damping             0.4000000          :
          :  net charge                          0          :
          :  unpaired electrons                  0          :
          ...................................................

 iter      E             dE          RMSdq      gap      omega  full diag
   1    -57.2360332 -0.572360E+02  0.109E-05    3.41       0.0  T
   2    -57.2360332 -0.618172E-12  0.773E-06    3.41    2219.1  T
   3    -57.2360332 -0.117240E-11  0.450E-06    3.41    3808.1  T

   *** convergence criteria satisfied after 3 iterations ***

         #    Occupation            Energy/Eh            Energy/eV
      -------------------------------------------------------------
         1        2.0000           -0.7369941             -20.0546
       ...           ...                  ...                  ...
        44        2.0000           -0.4322041             -11.7609
        45        2.0000           -0.4306177             -11.7177
        46        2.0000           -0.4219594             -11.4821
        47        2.0000           -0.4061980             -11.0532
        48        2.0000           -0.3981192             -10.8334
        49        2.0000           -0.3891425             -10.5891
        50        2.0000           -0.3728751             -10.1464 (HOMO)
        51                         -0.2475975              -6.7375 (LUMO)
        52                         -0.2396542              -6.5213
        53                         -0.2325065              -6.3268
        54                         -0.2135704              -5.8115
        55                         -0.1752739              -4.7694
       ...                                ...                  ...
        91                          0.7007820              19.0692
      -------------------------------------------------------------
                  HL-Gap            0.1252776 Eh            3.4090 eV
             Fermi-level           -0.3102363 Eh           -8.4420 eV

 SCC (total)                   0 d,  0 h,  0 min,  0.028 sec
 SCC setup                      ...        0 min,  0.000 sec (  0.704%)
 Dispersion                     ...        0 min,  0.000 sec (  0.397%)
 classical contributions        ...        0 min,  0.000 sec (  0.621%)
 integral evaluation            ...        0 min,  0.003 sec ( 11.921%)
 iterations                     ...        0 min,  0.008 sec ( 27.658%)
 molecular gradient             ...        0 min,  0.016 sec ( 56.798%)
 printout                       ...        0 min,  0.001 sec (  1.855%)

         :::::::::::::::::::::::::::::::::::::::::::::::::::::
         ::                     SUMMARY                     ::
         :::::::::::::::::::::::::::::::::::::::::::::::::::::
         :: total energy             -56.477579656554 Eh    ::
         :: gradient norm              0.000100878249 Eh/a0 ::
         :: HOMO-LUMO gap              3.408977616242 eV    ::
         ::.................................................::
         :: SCC energy               -57.235315625750 Eh    ::
         :: -> isotropic ES            0.096739225998 Eh    ::
         :: -> anisotropic ES          0.006616572299 Eh    ::
         :: -> anisotropic XC          0.019413644168 Eh    ::
         :: -> dispersion             -0.037029567159 Eh    ::
         :: repulsion energy           0.757735969196 Eh    ::
         :: add. restraining           0.000000000000 Eh    ::
         :: total charge               0.000000000000 e     ::
         :::::::::::::::::::::::::::::::::::::::::::::::::::::

           -------------------------------------------------
          |                Property Printout                |
           -------------------------------------------------

    * Orbital Energies and Occupations

         #    Occupation            Energy/Eh            Energy/eV
      -------------------------------------------------------------
         1        2.0000           -0.7369941             -20.0546
       ...           ...                  ...                  ...
        38        2.0000           -0.4765882             -12.9686
        39        2.0000           -0.4704565             -12.8018
        40        2.0000           -0.4656905             -12.6721
        41        2.0000           -0.4640328             -12.6270
        42        2.0000           -0.4508046             -12.2670
        43        2.0000           -0.4421206             -12.0307
        44        2.0000           -0.4322041             -11.7609
        45        2.0000           -0.4306177             -11.7177
        46        2.0000           -0.4219594             -11.4821
        47        2.0000           -0.4061980             -11.0532
        48        2.0000           -0.3981192             -10.8334
        49        2.0000           -0.3891425             -10.5891
        50        2.0000           -0.3728751             -10.1464 (HOMO)
        51                         -0.2475975              -6.7375 (LUMO)
        52                         -0.2396542              -6.5213
        53                         -0.2325065              -6.3268
        54                         -0.2135704              -5.8115
        55                         -0.1752739              -4.7694
        56                         -0.0882524              -2.4015
        57                         -0.0229602              -0.6248
        58                          0.0040886               0.1113
        59                          0.0443196               1.2060
        60                          0.0543581               1.4792
        61                          0.0782370               2.1289
       ...                                ...                  ...
        91                          0.7007820              19.0692
      -------------------------------------------------------------
                  HL-Gap            0.1252776 Eh            3.4090 eV
             Fermi-level           -0.3102363 Eh           -8.4420 eV

     #   Z          covCN         q      C6AA      α(0)
     1   8 O        1.655    -0.371    20.303     6.083
     2   6 C        2.684     0.359    20.913     7.484
     3   8 O        0.856    -0.376    21.200     6.173
     4   1 H        0.800     0.365     0.555     1.171
     5   6 C        3.738    -0.037    21.310     6.587
     6   1 H        0.925     0.075     2.028     2.227
     7   1 H        0.923     0.072     2.068     2.249
     8   7 N        2.686    -0.169    24.650     7.374
     9   1 H        0.860     0.187     1.174     1.697
    10   6 C        2.761     0.273    22.393     7.749
    11   8 O        0.859    -0.449    22.679     6.385
    12   6 C        3.786     0.033    20.035     6.375
    13   1 H        0.924     0.040     2.452     2.449
    14   7 N        2.633    -0.340    28.749     7.963
    15   1 H        0.860     0.147     1.419     1.866
    16   1 H        0.860     0.164     1.310     1.793
    17   6 C        3.807    -0.065    21.741     6.638
    18   1 H        0.924     0.044     2.396     2.421
    19   1 H        0.924     0.045     2.387     2.416
    20   6 C        3.054    -0.040    28.934     8.822
    21   6 C        3.034    -0.008    28.187     8.708
    22   1 H        0.926     0.035     2.522     2.483
    23   7 N        2.777    -0.105    23.302     7.169
    24   1 H        0.860     0.161     1.327     1.805
    25   6 C        3.086     0.043    26.938     8.508
    26   6 C        2.908    -0.053    29.312     8.878
    27   1 H        0.926     0.027     2.626     2.534
    28   6 C        2.924    -0.036    28.888     8.814
    29   1 H        0.926     0.032     2.552     2.498
    30   6 C        2.919    -0.042    29.041     8.837
    31   1 H        0.926     0.030     2.586     2.515
    32   6 C        2.911    -0.042    29.052     8.838
    33   1 H        0.926     0.026     2.650     2.546
    34   6 C        3.117    -0.026    28.472     8.740

 Mol. C6AA /au·bohr⁶  :      13337.079585
 Mol. C8AA /au·bohr⁸  :     312463.643852
 Mol. α(0) /au        :        178.795300


Wiberg/Mayer (AO) data.
largest (>0.10) Wiberg bond orders for each atom

 ---------------------------------------------------------------------------
     #   Z sym  total        # sym  WBO       # sym  WBO       # sym  WBO
 ---------------------------------------------------------------------------
     1   8 O    2.236 --     2 C    1.203     4 H    0.771     3 O    0.184
     2   6 C    3.933 --     3 O    1.774     1 O    1.203     5 C    0.924
     3   8 O    2.067 --     2 C    1.774     1 O    0.184
     4   1 H    0.867 --     1 O    0.771
     5   6 C    3.962 --     8 N    0.988     6 H    0.975     7 H    0.953
                             2 C    0.924
     6   1 H    0.994 --     5 C    0.975
     7   1 H    0.995 --     5 C    0.953
     8   7 N    3.463 --    10 C    1.289     5 C    0.988     9 H    0.933
                            11 O    0.188
     9   1 H    0.965 --     8 N    0.933
    10   6 C    3.943 --    11 O    1.618     8 N    1.289    12 C    0.956
    11   8 O    2.022 --    10 C    1.618     8 N    0.188
    12   6 C    3.987 --    14 N    1.031    13 H    0.957    10 C    0.956
                            17 C    0.935
    13   1 H    0.998 --    12 C    0.957
    14   7 N    3.018 --    12 C    1.031    15 H    0.962    16 H    0.954
    15   1 H    0.977 --    14 N    0.962
    16   1 H    0.973 --    14 N    0.954
    17   6 C    3.994 --    20 C    1.019    18 H    0.975    19 H    0.965
                            12 C    0.935
    18   1 H    0.998 --    17 C    0.975
    19   1 H    0.997 --    17 C    0.965
    20   6 C    3.976 --    21 C    1.581    34 C    1.200    17 C    1.019
    21   6 C    3.951 --    20 C    1.581    23 N    1.195    22 H    0.969
    22   1 H    0.998 --    21 C    0.969
    23   7 N    3.543 --    21 C    1.195    25 C    1.178    24 H    0.946
    24   1 H    0.973 --    23 N    0.946
    25   6 C    3.959 --    26 C    1.338    34 C    1.247    23 N    1.178
    26   6 C    3.989 --    28 C    1.495    25 C    1.338    27 H    0.968
                            32 C    0.114
    27   1 H    0.999 --    26 C    0.968
    28   6 C    3.991 --    26 C    1.495    30 C    1.370    29 H    0.972
    29   1 H    0.999 --    28 C    0.972
    30   6 C    3.991 --    32 C    1.505    28 C    1.370    31 H    0.972
    31   1 H    0.999 --    30 C    0.972
    32   6 C    3.992 --    30 C    1.505    34 C    1.329    33 H    0.968
                            26 C    0.114
    33   1 H    0.999 --    32 C    0.968
    34   6 C    3.984 --    32 C    1.329    25 C    1.247    20 C    1.200
 ---------------------------------------------------------------------------

Topologies differ in total number of bonds
Writing topology from bond orders to xtbtopo.mol

molecular dipole:
                 x           y           z       tot (Debye)
 q only:        1.464      -1.455      -0.498
   full:        2.003      -1.962      -0.945       7.521
molecular quadrupole (traceless):
                xx          xy          yy          xz          yz          zz
 q only:       -4.033      14.604      -9.309      -2.765      -4.256      13.342
  q+dip:       -7.215      21.187     -12.626      -0.379      -5.341      19.841
   full:       -7.210      19.496     -11.441      -1.574      -4.924      18.651

           -------------------------------------------------
          |                Geometry Summary                 |
           -------------------------------------------------

      molecular mass/u    :      261.2770023
   center of mass at/Å    :       -0.0000000       0.0000000      -0.0000000
  moments of inertia/u·Å² :        0.9804401E+03   0.1745132E+04   0.2177677E+04
rotational constants/cm⁻¹ :        0.1719394E-01   0.9659804E-02   0.7741109E-02

 * 32 selected distances

     #   Z          #   Z                                           value/Å
     1   8 O        2   6 C                                       1.3170064
     2   6 C        3   8 O                                       1.1982844
     1   8 O        4   1 H                                       0.9972514 (min)
     5   6 C        6   1 H                                       1.0890730
     5   6 C        7   1 H                                       1.0979984
     5   6 C        8   7 N                                       1.4521702
     8   7 N        9   1 H                                       1.0076284
     8   7 N       10   6 C                                       1.3423157
    10   6 C       11   8 O                                       1.2256830
    12   6 C       13   1 H                                       1.0960829
    12   6 C       14   7 N                                       1.4450059
    14   7 N       15   1 H                                       1.0133315
    14   7 N       16   1 H                                       1.0154193
    17   6 C       18   1 H                                       1.0926225
    17   6 C       19   1 H                                       1.0931425
    17   6 C       20   6 C                                       1.4908638 (max)
    20   6 C       21   6 C                                       1.3645058
    21   6 C       22   1 H                                       1.0732727
    21   6 C       23   7 N                                       1.3686435
    23   7 N       24   1 H                                       1.0054295
    23   7 N       25   6 C                                       1.3641995
    25   6 C       26   6 C                                       1.3893506
    26   6 C       27   1 H                                       1.0798416
    26   6 C       28   6 C                                       1.3777827
    28   6 C       29   1 H                                       1.0794536
    28   6 C       30   6 C                                       1.3980674
    30   6 C       31   1 H                                       1.0797931
    30   6 C       32   6 C                                       1.3764257
    32   6 C       33   1 H                                       1.0802644
    20   6 C       34   6 C                                       1.4308946
    25   6 C       34   6 C                                       1.4166223
    32   6 C       34   6 C                                       1.3962262

 * 6 distinct bonds (by element types)

   Z      Z             #   av. dist./Å        max./Å        min./Å
   1 H    6 C          10     1.0861545     1.0979984     1.0732727
   6 C    6 C           9     1.4045266     1.4908638     1.3645058
   1 H    7 N           4     1.0104522     1.0154193     1.0054295
   6 C    7 N           5     1.3944670     1.4521702     1.3423157
   1 H    8 O           1     0.9972514     0.9972514     0.9972514
   6 C    8 O           3     1.2469913     1.3170064     1.1982844


optimized geometry written to: xtbopt.xyz


           -------------------------------------------------
          | TOTAL ENERGY              -56.477579656554 Eh   |
          | GRADIENT NORM               0.000100878249 Eh/α |
          | HOMO-LUMO GAP               3.408977616242 eV   |
           -------------------------------------------------

------------------------------------------------------------------------
 * finished run on 2026/10/01 at 18:03:40.009     
------------------------------------------------------------------------
 total:
 * wall-time:     0 d,  0 h,  0 min,  0.673 sec
 *  cpu-time:     0 d,  0 h,  0 min,  9.243 sec
 * ratio c/w:    13.732 speedup
 SCF:
 * wall-time:     0 d,  0 h,  0 min,  0.520 sec
 *  cpu-time:     0 d,  0 h,  0 min,  7.146 sec
 * ratio c/w:    13.746 speedup
 ANC optimizer:
 * wall-time:     0 d,  0 h,  0 min,  0.139 sec
 *  cpu-time:     0 d,  0 h,  0 min,  1.899 sec
 * ratio c/w:    13.702 speedup


--- STDERR ---
normal termination of xtb
Note: The following floating-point exceptions are signalling: IEEE_UNDERFLOW_FLAG IEEE_DENORMAL
