34
 energy: -56.477579656554 gnorm: 0.000100878249 xtb: 6.7.1-6.fc44.fc44
O           -3.27963607940000        2.29028173090000       -0.25364772830000
C           -2.09234696290000        2.82789058850000       -0.06436770770000
O           -1.92807808130000        3.96322903310000        0.28190908400000
H           -3.22024427230000        1.32982997620000       -0.51540188030000
C           -0.89994292050000        1.89150238030000       -0.36596849930000
H            0.02590568470000        2.43653963650000       -0.18759084590000
H           -0.96389056950000        1.61677086210000       -1.42711581430000
N           -0.89661451280000        0.68011680620000        0.43486340380000
H           -0.13453403620000        0.55634312930000        1.08234168760000
C           -1.72123540630000       -0.34962349170000        0.18697946140000
O           -2.66249332980000       -0.25874480190000       -0.59281100400000
C           -1.37790256020000       -1.64893035420000        0.89248776630000
H           -0.80484772470000       -1.43461774440000        1.80192488020000
N           -2.60293169100000       -2.31366007360000        1.27390581580000
H           -2.44019029640000       -3.29297137750000        1.47714239430000
H           -3.27653760030000       -2.24509196240000        0.51718286140000
C           -0.48456305980000       -2.46340448370000       -0.08996120400000
H           -1.11139571290000       -2.81406963970000       -0.91333143590000
H           -0.09049832620000       -3.33180330410000        0.44441386880000
C            0.62703237090000       -1.63427716490000       -0.63729820970000
C            0.75299486920000       -1.18132117360000       -1.91825097240000
H            0.12620938950000       -1.37724970510000       -2.76717152390000
N            1.85723340890000       -0.38071664700000       -2.03171598680000
H            2.18034929640000        0.05017228350000       -2.88072669420000
C            2.47208272990000       -0.29887138220000       -0.81668448570000
C            3.61001951700000        0.39554960670000       -0.42530990980000
H            4.17167556200000        0.98724411830000       -1.13276853060000
C            3.99452817810000        0.29896001280000        0.89420072680000
H            4.87359268540000        0.82587198440000        1.23306529240000
C            3.27091366790000       -0.47424502160000        1.80695919880000
H            3.61064190470000       -0.52835718960000        2.83048718730000
C            2.14311611860000       -1.16522679550000        1.42595501690000
H            1.59956202060000       -1.76875377090000        2.13818746150000
C            1.72289592640000       -1.08013621600000        0.09718797230000
