34
frame_0056
O      -2.873272498500000      2.334574723200000     -1.888240157400000
C      -3.371044929100000      2.567808758000000     -0.689970047000000
O      -4.387335433700000      3.174062765000000     -0.502467645200000
H      -2.043802662500000      1.782609682000000     -1.848955132200000
C      -2.522196145200000      2.018759003600000      0.478548971700000
H      -2.991747125600000      2.308542578300000      1.417720733700000
H      -1.527827410200000      2.477328152000000      0.405267480700000
N      -2.371476623700000      0.573584340000000      0.443769040800000
H      -2.861081515700000      0.034296946900000      1.138107869800000
C      -1.551454496900000     -0.046640239000000     -0.423073952000000
O      -0.999311160600000      0.555760808700000     -1.336257011600000
C      -1.355670060600000     -1.546473518300000     -0.199620666200000
H      -2.342581993300000     -2.016461690800000     -0.094107967700000
N      -0.675038746200000     -2.185732444800000     -1.302643712200000
H       0.234029812100000     -1.751328557000000     -1.432600148200000
H      -1.194644894100000     -2.051533405700000     -2.163813540300000
C      -0.551878950800000     -1.758250072300000      1.105033781900000
H      -0.272696116200000     -2.811248074900000      1.146496894800000
H      -1.185258284200000     -1.529131386400000      1.964467334500000
C       0.673850677200000     -0.904485172200000      1.140518492500000
C       0.786269276700000      0.346873478100000      1.674365667400000
H       0.053540778900000      0.930279566400000      2.200558067700000
N       2.049917318500000      0.833381229400000      1.478699428400000
H       2.382982867000000      1.732636885300000      1.780725623000000
C       2.784697291500000     -0.100108845400000      0.807240623300000
C       4.107188070200000     -0.072891043700000      0.382414858400000
H       4.733156631900000      0.788376664900000      0.564384404600000
C       4.587182600100000     -1.183526575500000     -0.276199758600000
H       5.610392590800000     -1.197160318200000     -0.621108443300000
C       3.775763092600000     -2.298679737100000     -0.506797904600000
H       4.193740552800000     -3.149450883600000     -1.024367237900000
C       2.464724913100000     -2.332266041100000     -0.090256219000000
H       1.845026994900000     -3.196739552100000     -0.274303222200000
C       1.948934649700000     -1.218369891700000      0.574568667200000
