      -----------------------------------------------------------      
     |                   =====================                   |     
     |                           x T B                           |     
     |                   =====================                   |     
     |                         S. Grimme                         |     
     |          Mulliken Center for Theoretical Chemistry        |     
     |                    University of Bonn                     |     
      -----------------------------------------------------------      

   * xtb version 6.7.1-6.fc44.fc44 compiled by Fedora project on Sun Jan 18 23:32:34 UTC 2026

   xtb is free software: you can redistribute it and/or modify it under
   the terms of the GNU Lesser General Public License as published by
   the Free Software Foundation, either version 3 of the License, or
   (at your option) any later version.
   
   xtb is distributed in the hope that it will be useful,
   but WITHOUT ANY WARRANTY; without even the implied warranty of
   MERCHANTABILITY or FITNESS FOR A PARTICULAR PURPOSE.  See the
   GNU Lesser General Public License for more details.
   
   Cite this work as:
   * C. Bannwarth, E. Caldeweyher, S. Ehlert, A. Hansen, P. Pracht,
     J. Seibert, S. Spicher, S. Grimme, WIREs Comput. Mol. Sci., 2020, 11,
     e01493. DOI: 10.1002/wcms.1493
   
   for GFN2-xTB:
   * C. Bannwarth, S. Ehlert and S. Grimme., J. Chem. Theory Comput., 2019,
     15, 1652-1671. DOI: 10.1021/acs.jctc.8b01176
   for GFN1-xTB:
   * S. Grimme, C. Bannwarth, P. Shushkov, J. Chem. Theory Comput., 2017,
     13, 1989-2009. DOI: 10.1021/acs.jctc.7b00118
   for GFN0-xTB:
   * P. Pracht, E. Caldeweyher, S. Ehlert, S. Grimme, ChemRxiv, 2019, preprint.
     DOI: 10.26434/chemrxiv.8326202.v1
   for GFN-FF:
   * S. Spicher and S. Grimme, Angew. Chem. Int. Ed., 2020, 59, 15665-15673.
     DOI: 10.1002/anie.202004239
   
   for ALPB and GBSA implicit solvation:
   * S. Ehlert, M. Stahn, S. Spicher, S. Grimme, J. Chem. Theory Comput.,
     2021, 17, 4250-4261. DOI: 10.1021/acs.jctc.1c00471
   
   for ddCOSMO and CPCM-X implicit solvation:
   * M. Stahn, S. Ehlert, S. Grimme, J. Phys. Chem. A,
     2023, XX, XXXX-XXXX. DOI: 10.1021/acs.jpca.3c04382
   
   for DFT-D4:
   * E. Caldeweyher, C. Bannwarth and S. Grimme, J. Chem. Phys., 2017,
     147, 034112. DOI: 10.1063/1.4993215
   * E. Caldeweyher, S. Ehlert, A. Hansen, H. Neugebauer, S. Spicher,
     C. Bannwarth and S. Grimme, J. Chem. Phys., 2019, 150, 154122.
     DOI: 10.1063/1.5090222
   * E. Caldeweyher, J.-M. Mewes, S. Ehlert and S. Grimme, Phys. Chem. Chem. Phys.
     2020, 22, 8499-8512. DOI: 10.1039/D0CP00502A
   
   for sTDA-xTB:
   * S. Grimme and C. Bannwarth, J. Chem. Phys., 2016, 145, 054103.
     DOI: 10.1063/1.4959605
   
   in the mass-spec context:
   * V. Asgeirsson, C. Bauer and S. Grimme, Chem. Sci., 2017, 8, 4879.
     DOI: 10.1039/c7sc00601b
   * J. Koopman and S. Grimme, ACS Omega 2019, 4, 12, 15120-15133.
     DOI: 10.1021/acsomega.9b02011
   
   for metadynamics refer to:
   * S. Grimme, J. Chem. Theory Comput., 2019, 155, 2847-2862
     DOI: 10.1021/acs.jctc.9b00143
   
   for SPH calculations refer to:
   * S. Spicher and S. Grimme, J. Chem. Theory Comput., 2021, 17, 1701-1714
     DOI: 10.1021/acs.jctc.0c01306
   
   for ONIOM refer to:
   * C. Plett, A. Katbashev, S. Ehlert, S. Grimme, M. Bursch,
     Phys. Chem. Chem. Phys., 2023, 25, 17860-17868. DOI: 10.1039/D3CP02178E
   
   for DIPRO refer to:
   * J. Kohn, N. Gildemeister, S. Grimme, D. Fazzi, A. Hansen,
     J. Chem. Phys., 2023, just accepted.
   
   for PTB refer to:
   * S. Grimme, M. Mueller, A. Hansen, J. Chem. Phys., 2023, 158, 124111.
     DOI: 10.1063/5.0137838
   
   with help from (in alphabetical order)
   P. Atkinson, C. Bannwarth, F. Bohle, G. Brandenburg, E. Caldeweyher
   M. Checinski, S. Dohm, S. Ehlert, S. Ehrlich, I. Gerasimov, C. Hölzer
   A. Katbashev, J. Kohn, J. Koopman, C. Lavigne, S. Lehtola, F. März, M. Müller,
   F. Musil, H. Neugebauer, J. Pisarek, C. Plett, P. Pracht, F. Pultar,
   J. Seibert, P. Shushkov, S. Spicher, M. Stahn, M. Steiner, T. Strunk,
   J. Stückrath, T. Rose, and J. Unsleber
   
 * started run on 2026/10/01 at 18:03:43.548     
   ID    Z sym.   atoms
    1    8 O      1, 3, 11
    2    6 C      2, 5, 10, 12, 17, 20, 21, 25, 26, 28, 30, 32, 34
    3    1 H      4, 6, 7, 9, 13, 15, 16, 18, 19, 22, 24, 27, 29, 31, 33
    4    7 N      8, 14, 23

           -------------------------------------------------
          |                Calculation Setup                |
           -------------------------------------------------

          program call               : /usr/bin/xtb input.xyz --opt --gfn 2 --chrg 0 --uhf 0
          hostname                   : fedora
          coordinate file            : input.xyz
          omp threads                :                    16


           -------------------------------------------------
          |                 G F N 2 - x T B                 |
           -------------------------------------------------

        Reference                      10.1021/acs.jctc.8b01176
      * Hamiltonian:
        H0-scaling (s, p, d)           1.850000    2.230000    2.230000
        zeta-weighting                 0.500000
      * Dispersion:
        s8                             2.700000
        a1                             0.520000
        a2                             5.000000
        s9                             5.000000
      * Repulsion:
        kExp                           1.500000    1.000000
        rExp                           1.000000
      * Coulomb:
        alpha                          2.000000
        third order                    shell-resolved
        anisotropic                    true
        a3                             3.000000
        a5                             4.000000
        cn-shift                       1.200000
        cn-exp                         4.000000
        max-rad                        5.000000


          ...................................................
          :                      SETUP                      :
          :.................................................:
          :  # basis functions                  91          :
          :  # atomic orbitals                  91          :
          :  # shells                           53          :
          :  # electrons                       100          :
          :  max. iterations                   250          :
          :  Hamiltonian                  GFN2-xTB          :
          :  restarted?                      false          :
          :  GBSA solvation                  false          :
          :  PC potential                    false          :
          :  electronic temp.          300.0000000     K    :
          :  accuracy                    1.0000000          :
          :  -> integral cutoff          0.2500000E+02      :
          :  -> integral neglect         0.1000000E-07      :
          :  -> SCF convergence          0.1000000E-05 Eh   :
          :  -> wf. convergence          0.1000000E-03 e    :
          :  Broyden damping             0.4000000          :
          :  net charge                          0          :
          :  unpaired electrons                  0          :
          ...................................................

 iter      E             dE          RMSdq      gap      omega  full diag
   1    -57.0878335 -0.570878E+02  0.416E+00    3.08       0.0  T
   2    -57.2155591 -0.127726E+00  0.244E+00    3.56       1.0  T
   3    -57.2230273 -0.746824E-02  0.135E+00    3.62       1.0  T
   4    -57.2248798 -0.185241E-02  0.554E-01    3.41       1.0  T
   5    -57.2335032 -0.862343E-02  0.122E-01    3.40       1.0  T
   6    -57.2336959 -0.192725E-03  0.588E-02    3.41       1.0  T
   7    -57.2337315 -0.355915E-04  0.250E-02    3.41       1.0  T
   8    -57.2337321 -0.635127E-06  0.115E-02    3.41       1.5  T
   9    -57.2337342 -0.208977E-05  0.338E-03    3.41       5.1  T
  10    -57.2337343 -0.500989E-07  0.151E-03    3.41      11.4  T
  11    -57.2337343 -0.180104E-07  0.649E-04    3.41      26.4  T
  12    -57.2337343 -0.464239E-08  0.230E-04    3.41      74.6  T

   *** convergence criteria satisfied after 12 iterations ***

         #    Occupation            Energy/Eh            Energy/eV
      -------------------------------------------------------------
         1        2.0000           -0.7422966             -20.1989
       ...           ...                  ...                  ...
        44        2.0000           -0.4301588             -11.7052
        45        2.0000           -0.4208859             -11.4529
        46        2.0000           -0.4198462             -11.4246
        47        2.0000           -0.4104699             -11.1695
        48        2.0000           -0.3872803             -10.5384
        49        2.0000           -0.3798633             -10.3366
        50        2.0000           -0.3695508             -10.0560 (HOMO)
        51                         -0.2442116              -6.6453 (LUMO)
        52                         -0.2379777              -6.4757
        53                         -0.2352200              -6.4007
        54                         -0.2017525              -5.4900
        55                         -0.1664969              -4.5306
       ...                                ...                  ...
        91                          0.7126304              19.3917
      -------------------------------------------------------------
                  HL-Gap            0.1253392 Eh            3.4107 eV
             Fermi-level           -0.3068812 Eh           -8.3507 eV

 SCC (total)                   0 d,  0 h,  0 min,  0.214 sec
 SCC setup                      ...        0 min,  0.004 sec (  2.003%)
 Dispersion                     ...        0 min,  0.008 sec (  3.612%)
 classical contributions        ...        0 min,  0.005 sec (  2.417%)
 integral evaluation            ...        0 min,  0.007 sec (  3.460%)
 iterations                     ...        0 min,  0.138 sec ( 64.268%)
 molecular gradient             ...        0 min,  0.052 sec ( 24.133%)
 printout                       ...        0 min,  0.000 sec (  0.097%)

         :::::::::::::::::::::::::::::::::::::::::::::::::::::
         ::                     SUMMARY                     ::
         :::::::::::::::::::::::::::::::::::::::::::::::::::::
         :: total energy             -56.476189213463 Eh    ::
         :: gradient norm              0.000045875944 Eh/a0 ::
         :: HOMO-LUMO gap              3.410652448665 eV    ::
         ::.................................................::
         :: SCC energy               -57.233267208452 Eh    ::
         :: -> isotropic ES            0.096892471117 Eh    ::
         :: -> anisotropic ES          0.005993088860 Eh    ::
         :: -> anisotropic XC          0.019578299664 Eh    ::
         :: -> dispersion             -0.036107644194 Eh    ::
         :: repulsion energy           0.757077994988 Eh    ::
         :: add. restraining           0.000000000000 Eh    ::
         :: total charge              -0.000000000000 e     ::
         :::::::::::::::::::::::::::::::::::::::::::::::::::::

      ----------------------------------------------------------- 
     |                   =====================                   |
     |                        A N C O P T                        |
     |                   =====================                   |
     |               Approximate Normal Coordinate               |
     |                Rational Function Optimizer                |
      ----------------------------------------------------------- 
      ----------------------------------------------------------- 
     |                   =====================                   |
     |                        A N C O P T                        |
     |                   =====================                   |
     |               Approximate Normal Coordinate               |
     |                Rational Function Optimizer                |
      ----------------------------------------------------------- 

          ...................................................
          :                      SETUP                      :
          :.................................................:
          :   optimization level            normal          :
          :   max. optcycles                   200          :
          :   ANC micro-cycles                  20          :
          :   degrees of freedom                96          :
          :.................................................:
          :   RF solver                   davidson          :
          :   write xtbopt.log                true          :
          :   linear?                        false          :
          :   energy convergence         0.5000000E-05 Eh   :
          :   grad. convergence          0.1000000E-02 Eh/α :
          :   maxmium RF displ.          1.0000000          :
          :   Hlow (freq-cutoff)         0.1000000E-01      :
          :   Hmax (freq-cutoff)         5.0000000          :
          :   S6 in model hess.         20.0000000          :
          ...................................................

generating ANC from exact Hessian ...
Using Lindh-Hessian (1995)
 Shifting diagonal of input Hessian by    9.6911559137958618E-003
 Lowest  eigenvalues of input Hessian
    0.000000    0.000000    0.000000    0.000000    0.000000    0.000000
    0.010000    0.010444    0.010717    0.011864    0.012652    0.014431
    0.015979    0.018690    0.019487    0.020755    0.024659    0.026154
 Highest eigenvalues
    2.001111    2.008941    2.098869    2.205193    2.286607    2.370177


........................................................................
.............................. CYCLE    1 ..............................
........................................................................

 iter      E             dE          RMSdq      gap      omega  full diag
   1    -57.2337343 -0.572337E+02  0.107E-04    3.41       0.0  T
   2    -57.2337343 -0.641478E-10  0.628E-05    3.41     273.1  T
   3    -57.2337343 -0.131095E-10  0.406E-05    3.41     422.7  T
     SCC iter.                  ...        0 min,  0.116 sec
     gradient                   ...        0 min,  0.003 sec
 * total energy  :   -56.4761892 Eh     change       -0.5180425E-09 Eh
   gradient norm :     0.0000459 Eh/α   predicted     0.0000000E+00 (-100.00%)
   displ. norm   :     0.0000688 α      lambda        0.0000000E+00
   maximum displ.:     0.0000274 α      in ANC's #40, #54, #46, ...

   *** GEOMETRY OPTIMIZATION CONVERGED AFTER 1 ITERATIONS ***

------------------------------------------------------------------------
 total energy gain   :        -0.0000000 Eh       -0.0000 kcal/mol
 total RMSD          :         0.0000000 a0        0.0000 Å
 total power (kW/mol):        -0.0000014 (step)   -0.0000 (real)
------------------------------------------------------------------------

 ANCopt (total)                0 d,  0 h,  0 min,  0.131 sec
 optimizer setup                ...        0 min,  0.000 sec (  0.036%)
 model hessian                  ...        0 min,  0.007 sec (  5.382%)
 ANC generation                 ...        0 min,  0.003 sec (  1.995%)
 coordinate transformation      ...        0 min,  0.000 sec (  0.010%)
 single point calculation       ...        0 min,  0.121 sec ( 92.142%)
 optimization log               ...        0 min,  0.000 sec (  0.084%)
 hessian update                 ...        0 min,  0.000 sec (  0.000%)
 rational function              ...        0 min,  0.000 sec (  0.061%)

================
 final structure:
================
34
 xtb: 6.7.1-6.fc44.fc44
O           -2.87327249850000        2.33457472320000       -1.88824015740000
C           -3.37104492910000        2.56780875800000       -0.68997004700000
O           -4.38733543370000        3.17406276500000       -0.50246764520000
H           -2.04380266250000        1.78260968200000       -1.84895513220000
C           -2.52219614520000        2.01875900360000        0.47854897170000
H           -2.99174712560000        2.30854257830000        1.41772073370000
H           -1.52782741020000        2.47732815200000        0.40526748070000
N           -2.37147662370000        0.57358434000000        0.44376904080000
H           -2.86108151570000        0.03429694690000        1.13810786980000
C           -1.55145449690000       -0.04664023900000       -0.42307395200000
O           -0.99931116060000        0.55576080870000       -1.33625701160000
C           -1.35567006060000       -1.54647351830000       -0.19962066620000
H           -2.34258199330000       -2.01646169080000       -0.09410796770000
N           -0.67503874620000       -2.18573244480000       -1.30264371220000
H            0.23402981210000       -1.75132855700000       -1.43260014820000
H           -1.19464489410000       -2.05153340570000       -2.16381354030000
C           -0.55187895080000       -1.75825007230000        1.10503378190000
H           -0.27269611620000       -2.81124807490000        1.14649689480000
H           -1.18525828420000       -1.52913138640000        1.96446733450000
C            0.67385067720000       -0.90448517220000        1.14051849250000
C            0.78626927670000        0.34687347810000        1.67436566740000
H            0.05354077890000        0.93027956640000        2.20055806770000
N            2.04991731850000        0.83338122940000        1.47869942840000
H            2.38298286700000        1.73263688530000        1.78072562300000
C            2.78469729150000       -0.10010884540000        0.80724062330000
C            4.10718807020000       -0.07289104370000        0.38241485840000
H            4.73315663190000        0.78837666490000        0.56438440460000
C            4.58718260010000       -1.18352657550000       -0.27619975860000
H            5.61039259080000       -1.19716031820000       -0.62110844330000
C            3.77576309260000       -2.29867973710000       -0.50679790460000
H            4.19374055280000       -3.14945088360000       -1.02436723790000
C            2.46472491310000       -2.33226604110000       -0.09025621900000
H            1.84502699490000       -3.19673955210000       -0.27430322220000
C            1.94893464970000       -1.21836989170000        0.57456866720000

 Bond Distances (Angstroems)
 ---------------------------
O1-C2=1.3183         O1-H4=0.9971         C2-O1=1.3183         C2-O3=1.1981         C2-C5=1.5451         O3-C2=1.1981         
H4-O1=0.9971         C5-C2=1.5451         C5-H6=1.0893         C5-H7=1.0975         C5-N8=1.4534         H6-C5=1.0893         
H7-C5=1.0975         N8-C5=1.4534         N8-H9=1.0063         N8-C10=1.3448        H9-N8=1.0063         C10-N8=1.3448        
C10-O11=1.2254       C10-C12=1.5290       O11-C10=1.2254       C12-C10=1.5290       C12-H13=1.0982       C12-N14=1.4452       
C12-C17=1.5469       H13-C12=1.0982       N14-C12=1.4452       N14-H15=1.0159       N14-H16=1.0147       H15-N14=1.0159       
H16-N14=1.0147       C17-C12=1.5469       C17-H18=1.0902       C17-H19=1.0919       C17-C20=1.4942       H18-C17=1.0902       
H19-C17=1.0919       C20-C17=1.4942       C20-C21=1.3651       C20-C34=1.4299       C21-C20=1.3651       C21-H22=1.0743       
C21-N23=1.3681       H22-C21=1.0743       N23-C21=1.3681       N23-H24=1.0054       N23-C25=1.3646       H24-N23=1.0054       
C25-N23=1.3646       C25-C26=1.3893       C25-C34=1.4153       C26-C25=1.3893       C26-H27=1.0802       C26-C28=1.3776       
H27-C26=1.0802       C28-C26=1.3776       C28-H29=1.0799       C28-C30=1.3983       H29-C28=1.0799       C30-C28=1.3983       
C30-H31=1.0800       C30-C32=1.3760       H31-C30=1.0800       C32-C30=1.3760       C32-H33=1.0795       C32-C34=1.3960       
H33-C32=1.0795       C34-C20=1.4299       C34-C25=1.4153       C34-C32=1.3960       
 C  H  Rav=1.0861 sigma=0.0079  Rmin=1.0743  Rmax=1.0982    10
 C  C  Rav=1.4386 sigma=0.0670  Rmin=1.3651  Rmax=1.5469    12
 N  H  Rav=1.0106 sigma=0.0047  Rmin=1.0054  Rmax=1.0159     4
 N  C  Rav=1.3952 sigma=0.0449  Rmin=1.3448  Rmax=1.4534     5
 O  H  Rav=0.9971 sigma=0.0000  Rmin=0.9971  Rmax=0.9971     1
 O  C  Rav=1.2473 sigma=0.0515  Rmin=1.1981  Rmax=1.3183     3

 selected bond angles (degree)
 --------------------
H4-O1-C2=112.10                O3-C2-O1=123.51                C5-C2-O1=114.65                C5-C2-O3=121.83                
H6-C5-C2=108.71                H7-C5-C2=107.38                H7-C5-H6=109.69                N8-C5-C2=113.09                
N8-C5-H6=109.26                N8-C5-H7=108.66                H9-N8-C5=117.77                C10-N8-C5=122.50               
C10-N8-H9=119.62               O11-C10-N8=121.90              C12-C10-N8=115.87              C12-C10-O11=122.24             

 selected dihedral angles (degree)
 ---------------------------------
O3-C2-O1-H4=182.44            C5-C2-O1-H4=  3.61            H6-C5-C2-O1=177.08            H6-C5-C2-O3=358.23            
H7-C5-C2-O1= 58.48            H7-C5-C2-O3=239.63            N8-C5-C2-O1=298.61            N8-C5-C2-O3=119.76            
H9-N8-C5-C2=251.21            H9-N8-C5-H6= 12.42            H9-N8-C5-H7=132.08            C10-N8-C5-C2= 75.12           
C10-N8-C5-H6=196.33           C10-N8-C5-H7=315.99           O11-C10-N8-C5=351.43          O11-C10-N8-H9=175.41          
C12-C10-N8-C5=171.59          C12-C10-N8-H9=355.57          
           -------------------------------------------------
          |                Final Singlepoint                |
           -------------------------------------------------

          ...................................................
          :                      SETUP                      :
          :.................................................:
          :  # basis functions                  91          :
          :  # atomic orbitals                  91          :
          :  # shells                           53          :
          :  # electrons                       100          :
          :  max. iterations                   250          :
          :  Hamiltonian                  GFN2-xTB          :
          :  restarted?                      false          :
          :  GBSA solvation                  false          :
          :  PC potential                    false          :
          :  electronic temp.          300.0000000     K    :
          :  accuracy                    1.0000000          :
          :  -> integral cutoff          0.2500000E+02      :
          :  -> integral neglect         0.1000000E-07      :
          :  -> SCF convergence          0.1000000E-05 Eh   :
          :  -> wf. convergence          0.1000000E-03 e    :
          :  Broyden damping             0.4000000          :
          :  net charge                          0          :
          :  unpaired electrons                  0          :
          ...................................................

 iter      E             dE          RMSdq      gap      omega  full diag
   1    -57.2337343 -0.572337E+02  0.128E-05    3.41       0.0  T
   2    -57.2337343 -0.788702E-12  0.913E-06    3.41    1878.5  T
   3    -57.2337343 -0.132161E-11  0.547E-06    3.41    3136.2  T

   *** convergence criteria satisfied after 3 iterations ***

         #    Occupation            Energy/Eh            Energy/eV
      -------------------------------------------------------------
         1        2.0000           -0.7422980             -20.1990
       ...           ...                  ...                  ...
        44        2.0000           -0.4301596             -11.7052
        45        2.0000           -0.4208860             -11.4529
        46        2.0000           -0.4198464             -11.4246
        47        2.0000           -0.4104699             -11.1695
        48        2.0000           -0.3872802             -10.5384
        49        2.0000           -0.3798641             -10.3366
        50        2.0000           -0.3695510             -10.0560 (HOMO)
        51                         -0.2442118              -6.6453 (LUMO)
        52                         -0.2379786              -6.4757
        53                         -0.2352201              -6.4007
        54                         -0.2017523              -5.4900
        55                         -0.1664970              -4.5306
       ...                                ...                  ...
        91                          0.7126301              19.3917
      -------------------------------------------------------------
                  HL-Gap            0.1253393 Eh            3.4107 eV
             Fermi-level           -0.3068814 Eh           -8.3507 eV

 SCC (total)                   0 d,  0 h,  0 min,  0.097 sec
 SCC setup                      ...        0 min,  0.000 sec (  0.239%)
 Dispersion                     ...        0 min,  0.000 sec (  0.113%)
 classical contributions        ...        0 min,  0.000 sec (  0.011%)
 integral evaluation            ...        0 min,  0.009 sec (  8.990%)
 iterations                     ...        0 min,  0.078 sec ( 79.700%)
 molecular gradient             ...        0 min,  0.010 sec ( 10.447%)
 printout                       ...        0 min,  0.000 sec (  0.481%)

         :::::::::::::::::::::::::::::::::::::::::::::::::::::
         ::                     SUMMARY                     ::
         :::::::::::::::::::::::::::::::::::::::::::::::::::::
         :: total energy             -56.476189214005 Eh    ::
         :: gradient norm              0.000045979191 Eh/a0 ::
         :: HOMO-LUMO gap              3.410654891388 eV    ::
         ::.................................................::
         :: SCC energy               -57.233267208993 Eh    ::
         :: -> isotropic ES            0.096891589748 Eh    ::
         :: -> anisotropic ES          0.005993442057 Eh    ::
         :: -> anisotropic XC          0.019578164660 Eh    ::
         :: -> dispersion             -0.036107668686 Eh    ::
         :: repulsion energy           0.757077994988 Eh    ::
         :: add. restraining           0.000000000000 Eh    ::
         :: total charge               0.000000000000 e     ::
         :::::::::::::::::::::::::::::::::::::::::::::::::::::

           -------------------------------------------------
          |                Property Printout                |
           -------------------------------------------------

    * Orbital Energies and Occupations

         #    Occupation            Energy/Eh            Energy/eV
      -------------------------------------------------------------
         1        2.0000           -0.7422980             -20.1990
       ...           ...                  ...                  ...
        38        2.0000           -0.4711651             -12.8211
        39        2.0000           -0.4618879             -12.5686
        40        2.0000           -0.4584096             -12.4740
        41        2.0000           -0.4569909             -12.4354
        42        2.0000           -0.4535194             -12.3409
        43        2.0000           -0.4331120             -11.7856
        44        2.0000           -0.4301596             -11.7052
        45        2.0000           -0.4208860             -11.4529
        46        2.0000           -0.4198464             -11.4246
        47        2.0000           -0.4104699             -11.1695
        48        2.0000           -0.3872802             -10.5384
        49        2.0000           -0.3798641             -10.3366
        50        2.0000           -0.3695510             -10.0560 (HOMO)
        51                         -0.2442118              -6.6453 (LUMO)
        52                         -0.2379786              -6.4757
        53                         -0.2352201              -6.4007
        54                         -0.2017523              -5.4900
        55                         -0.1664970              -4.5306
        56                         -0.0758904              -2.0651
        57                         -0.0313768              -0.8538
        58                          0.0135943               0.3699
        59                          0.0408673               1.1121
        60                          0.0545467               1.4843
        61                          0.0713211               1.9407
       ...                                ...                  ...
        91                          0.7126301              19.3917
      -------------------------------------------------------------
                  HL-Gap            0.1253393 Eh            3.4107 eV
             Fermi-level           -0.3068814 Eh           -8.3507 eV

     #   Z          covCN         q      C6AA      α(0)
     1   8 O        1.655    -0.373    20.341     6.088
     2   6 C        2.684     0.357    20.935     7.488
     3   8 O        0.856    -0.375    21.188     6.171
     4   1 H        0.800     0.364     0.558     1.173
     5   6 C        3.737    -0.036    21.302     6.586
     6   1 H        0.925     0.074     2.043     2.235
     7   1 H        0.924     0.074     2.041     2.234
     8   7 N        2.685    -0.172    24.727     7.385
     9   1 H        0.860     0.179     1.219     1.729
    10   6 C        2.754     0.261    22.608     7.786
    11   8 O        0.859    -0.452    22.742     6.394
    12   6 C        3.786     0.034    20.018     6.373
    13   1 H        0.923     0.038     2.475     2.460
    14   7 N        2.632    -0.335    28.612     7.944
    15   1 H        0.860     0.165     1.301     1.787
    16   1 H        0.860     0.146     1.428     1.872
    17   6 C        3.808    -0.066    21.757     6.640
    18   1 H        0.925     0.069     2.097     2.265
    19   1 H        0.924     0.031     2.579     2.511
    20   6 C        3.055    -0.032    28.752     8.794
    21   6 C        3.034    -0.010    28.230     8.715
    22   1 H        0.926     0.021     2.714     2.576
    23   7 N        2.778    -0.104    23.275     7.165
    24   1 H        0.860     0.159     1.344     1.816
    25   6 C        3.088     0.046    26.881     8.499
    26   6 C        2.908    -0.052    29.302     8.876
    27   1 H        0.926     0.024     2.674     2.557
    28   6 C        2.925    -0.035    28.873     8.812
    29   1 H        0.926     0.029     2.597     2.520
    30   6 C        2.920    -0.041    29.014     8.833
    31   1 H        0.926     0.028     2.608     2.525
    32   6 C        2.911    -0.039    28.963     8.825
    33   1 H        0.926     0.040     2.453     2.449
    34   6 C        3.118    -0.016    28.246     8.705

 Mol. C6AA /au·bohr⁶  :      13337.141078
 Mol. C8AA /au·bohr⁸  :     312404.010089
 Mol. α(0) /au        :        178.791301


Wiberg/Mayer (AO) data.
largest (>0.10) Wiberg bond orders for each atom

 ---------------------------------------------------------------------------
     #   Z sym  total        # sym  WBO       # sym  WBO       # sym  WBO
 ---------------------------------------------------------------------------
     1   8 O    2.234 --     2 C    1.199     4 H    0.773     3 O    0.183
     2   6 C    3.931 --     3 O    1.776     1 O    1.199     5 C    0.925
     3   8 O    2.068 --     2 C    1.776     1 O    0.183
     4   1 H    0.868 --     1 O    0.773
     5   6 C    3.964 --     8 N    0.987     6 H    0.975     7 H    0.954
                             2 C    0.925
     6   1 H    0.994 --     5 C    0.975
     7   1 H    0.994 --     5 C    0.954
     8   7 N    3.453 --    10 C    1.276     5 C    0.987     9 H    0.940
                            11 O    0.185
     9   1 H    0.968 --     8 N    0.940
    10   6 C    3.935 --    11 O    1.625     8 N    1.276    12 C    0.939
    11   8 O    2.021 --    10 C    1.625     8 N    0.185
    12   6 C    3.990 --    14 N    1.037    17 C    0.954    13 H    0.952
                            10 C    0.939
    13   1 H    0.998 --    12 C    0.952
    14   7 N    3.017 --    12 C    1.037    16 H    0.962    15 H    0.951
    15   1 H    0.973 --    14 N    0.951
    16   1 H    0.979 --    14 N    0.962
    17   6 C    3.992 --    20 C    1.017    19 H    0.973    18 H    0.966
                            12 C    0.954
    18   1 H    0.995 --    17 C    0.966
    19   1 H    0.999 --    17 C    0.973
    20   6 C    3.976 --    21 C    1.581    34 C    1.204    17 C    1.017
    21   6 C    3.950 --    20 C    1.581    23 N    1.196    22 H    0.970
    22   1 H    0.999 --    21 C    0.970
    23   7 N    3.543 --    21 C    1.196    25 C    1.175    24 H    0.947
    24   1 H    0.974 --    23 N    0.947
    25   6 C    3.958 --    26 C    1.336    34 C    1.251    23 N    1.175
    26   6 C    3.989 --    28 C    1.496    25 C    1.336    27 H    0.969
                            32 C    0.114
    27   1 H    0.999 --    26 C    0.969
    28   6 C    3.991 --    26 C    1.496    30 C    1.370    29 H    0.972
    29   1 H    0.999 --    28 C    0.972
    30   6 C    3.991 --    32 C    1.507    28 C    1.370    31 H    0.972
    31   1 H    0.999 --    30 C    0.972
    32   6 C    3.992 --    30 C    1.507    34 C    1.327    33 H    0.967
                            26 C    0.114
    33   1 H    0.998 --    32 C    0.967
    34   6 C    3.985 --    32 C    1.327    25 C    1.251    20 C    1.204
 ---------------------------------------------------------------------------

Topologies differ in total number of bonds
Writing topology from bond orders to xtbtopo.mol

molecular dipole:
                 x           y           z       tot (Debye)
 q only:        0.909      -0.824       1.455
   full:        1.042      -0.546       1.785       5.435
molecular quadrupole (traceless):
                xx          xy          yy          xz          yz          zz
 q only:       -8.796      20.711       0.354      -8.189       7.890       8.441
  q+dip:       -7.084      28.288      -1.656     -11.237      12.137       8.740
   full:       -7.961      28.202      -2.592      -9.815      10.880      10.553

           -------------------------------------------------
          |                Geometry Summary                 |
           -------------------------------------------------

      molecular mass/u    :      261.2770023
   center of mass at/Å    :        0.0000000      -0.0000000      -0.0000000
  moments of inertia/u·Å² :        0.6251021E+03   0.2462169E+04   0.2646688E+04
rotational constants/cm⁻¹ :        0.2696780E-01   0.6846658E-02   0.6369331E-02

 * 31 selected distances

     #   Z          #   Z                                           value/Å
     1   8 O        2   6 C                                       1.3183426
     2   6 C        3   8 O                                       1.1981435
     1   8 O        4   1 H                                       0.9971104 (min)
     5   6 C        6   1 H                                       1.0892642
     5   6 C        7   1 H                                       1.0974631
     5   6 C        8   7 N                                       1.4534291 (max)
     8   7 N        9   1 H                                       1.0063053
     8   7 N       10   6 C                                       1.3448167
    10   6 C       11   8 O                                       1.2254195
    12   6 C       13   1 H                                       1.0981881
    12   6 C       14   7 N                                       1.4451890
    14   7 N       15   1 H                                       1.0158746
    14   7 N       16   1 H                                       1.0146988
    17   6 C       18   1 H                                       1.0901685
    17   6 C       19   1 H                                       1.0919208
    20   6 C       21   6 C                                       1.3651116
    21   6 C       22   1 H                                       1.0743055
    21   6 C       23   7 N                                       1.3681308
    23   7 N       24   1 H                                       1.0053922
    23   7 N       25   6 C                                       1.3646108
    25   6 C       26   6 C                                       1.3893164
    26   6 C       27   1 H                                       1.0801536
    26   6 C       28   6 C                                       1.3775629
    28   6 C       29   1 H                                       1.0798642
    28   6 C       30   6 C                                       1.3982647
    30   6 C       31   1 H                                       1.0799977
    30   6 C       32   6 C                                       1.3760292
    32   6 C       33   1 H                                       1.0794505
    20   6 C       34   6 C                                       1.4299169
    25   6 C       34   6 C                                       1.4153245
    32   6 C       34   6 C                                       1.3959931

 * 6 distinct bonds (by element types)

   Z      Z             #   av. dist./Å        max./Å        min./Å
   1 H    6 C          10     1.0860776     1.0981881     1.0743055
   6 C    6 C           8     1.3934399     1.4299169     1.3651116
   1 H    7 N           4     1.0105677     1.0158746     1.0053922
   6 C    7 N           5     1.3952353     1.4534291     1.3448167
   1 H    8 O           1     0.9971104     0.9971104     0.9971104
   6 C    8 O           3     1.2473018     1.3183426     1.1981435


optimized geometry written to: xtbopt.xyz


           -------------------------------------------------
          | TOTAL ENERGY              -56.476189214005 Eh   |
          | GRADIENT NORM               0.000045979191 Eh/α |
          | HOMO-LUMO GAP               3.410654891388 eV   |
           -------------------------------------------------

------------------------------------------------------------------------
 * finished run on 2026/10/01 at 18:03:44.005     
------------------------------------------------------------------------
 total:
 * wall-time:     0 d,  0 h,  0 min,  0.457 sec
 *  cpu-time:     0 d,  0 h,  0 min,  6.313 sec
 * ratio c/w:    13.801 speedup
 SCF:
 * wall-time:     0 d,  0 h,  0 min,  0.214 sec
 *  cpu-time:     0 d,  0 h,  0 min,  2.967 sec
 * ratio c/w:    13.855 speedup
 ANC optimizer:
 * wall-time:     0 d,  0 h,  0 min,  0.231 sec
 *  cpu-time:     0 d,  0 h,  0 min,  3.171 sec
 * ratio c/w:    13.742 speedup


--- STDERR ---
normal termination of xtb
Note: The following floating-point exceptions are signalling: IEEE_UNDERFLOW_FLAG IEEE_DENORMAL
