34
frame_0017
O      -4.013356350700000      2.102078703400000     -0.103427746400000
C      -3.394343531000000      2.540933301500000     -1.180649499400000
O      -3.932683726300000      3.189895472000000     -2.032410210900000
H      -3.417912073700000      1.546772480700000      0.476150439200000
C      -1.889789660200000      2.193738462600000     -1.254446058700000
H      -1.406426625400000      2.674633916000000     -0.393781526000000
H      -1.483504177800000      2.609020861600000     -2.175726992500000
N      -1.616753666200000      0.771372756500000     -1.215644773600000
H      -1.247566931200000      0.301815117600000     -2.032792468800000
C      -1.756619137300000      0.015463244100000     -0.123044547500000
O      -2.255139701700000      0.430562502400000      0.919330698100000
C      -1.270084287000000     -1.421251335800000     -0.285582520000000
H      -2.172076602100000     -2.039200524000000     -0.380281973800000
N      -0.505495565800000     -1.545745557400000     -1.517468567700000
H       0.436665137900000     -1.192740052300000     -1.367960425100000
H      -0.419776594700000     -2.520460075600000     -1.781702109900000
C      -0.511310929000000     -1.844831722700000      0.994578535300000
H      -0.251958686900000     -2.903008380500000      0.922336862200000
H      -1.179654474400000     -1.700863234700000      1.843724352300000
C       0.721644659300000     -1.022364885600000      1.175959473900000
C       0.812954597100000      0.170352461800000      1.833192498500000
H       0.046784281400000      0.702005130700000      2.363347794800000
N       2.085939868200000      0.662566226300000      1.743227617700000
H       2.412207212500000      1.514299265100000      2.166476019500000
C       2.851018655300000     -0.209357654800000      1.025209687100000
C       4.192449133000000     -0.153479085400000      0.668789039900000
H       4.813128375700000      0.678492650300000      0.967372784900000
C       4.700796210800000     -1.197426084100000     -0.072945222400000
H       5.739800632000000     -1.186970787100000     -0.366266340300000
C       3.898461045300000     -2.278282968900000     -0.450018291000000
H       4.338071068400000     -3.080096601400000     -1.024729431100000
C       2.568980818000000     -2.340031823300000     -0.100782484000000
H       1.963952921100000     -3.187491634000000     -0.390426435400000
C       2.021323748700000     -1.292804614200000      0.643169626800000
