34
frame_0013
O      -0.971998739700000      2.248791770900000      0.656065725300000
C      -1.921189235900000      2.378586718700000     -0.249226491000000
O      -1.941008325500000      3.270499434000000     -1.051673501300000
H      -1.046478120500000      1.388746617000000      1.160822237900000
C      -3.030601406600000      1.305223987500000     -0.193973296000000
H      -3.807215124900000      1.568044214200000     -0.910884755200000
H      -3.449353545900000      1.310747574700000      0.820642151400000
N      -2.526332490300000     -0.018938732900000     -0.500436537500000
H      -2.845793008700000     -0.494060440200000     -1.330934811400000
C      -1.715452001100000     -0.701475303000000      0.317054539300000
O      -1.297564479000000     -0.247623077300000      1.375634544400000
C      -1.326137447600000     -2.072167940100000     -0.214699041300000
H      -0.870433702200000     -2.625220643200000      0.621187859100000
N      -2.500315260300000     -2.714599994900000     -0.793128054300000
H      -3.170395498100000     -2.950325742300000     -0.068010728400000
H      -2.231447736500000     -3.578309632900000     -1.252684643100000
C      -0.269496010100000     -1.855264071600000     -1.323246957300000
H      -0.794039083000000     -1.592313844000000     -2.244216750100000
H       0.271488810800000     -2.789577989000000     -1.487645078100000
C       0.675627125000000     -0.759268812000000     -0.953954293800000
C       0.637930064700000      0.533860465300000     -1.392307517100000
H      -0.012604351100000      0.986741227500000     -2.117297051100000
N       1.607477944700000      1.269941917300000     -0.774837618000000
H       1.726881549400000      2.263309656500000     -0.875573653300000
C       2.282753538300000      0.469687125100000      0.098538784200000
C       3.337517297000000      0.755167772400000      0.956375360100000
H       3.749181791800000      1.751568514400000      1.018782924500000
C       3.833206086800000     -0.275914967200000      1.723671368000000
H       4.651310279200000     -0.089130043700000      2.403606646400000
C       3.298957288900000     -1.565182370800000      1.641589009900000
H       3.719378829400000     -2.344790469900000      2.260157716700000
C       2.254244600300000     -1.855072837500000      0.794570305600000
H       1.850188328200000     -2.855325293200000      0.737645636200000
C       1.728485706800000     -0.830319298700000      0.008364341400000
