      -----------------------------------------------------------      
     |                   =====================                   |     
     |                           x T B                           |     
     |                   =====================                   |     
     |                         S. Grimme                         |     
     |          Mulliken Center for Theoretical Chemistry        |     
     |                    University of Bonn                     |     
      -----------------------------------------------------------      

   * xtb version 6.7.1-6.fc44.fc44 compiled by Fedora project on Sun Jan 18 23:32:34 UTC 2026

   xtb is free software: you can redistribute it and/or modify it under
   the terms of the GNU Lesser General Public License as published by
   the Free Software Foundation, either version 3 of the License, or
   (at your option) any later version.
   
   xtb is distributed in the hope that it will be useful,
   but WITHOUT ANY WARRANTY; without even the implied warranty of
   MERCHANTABILITY or FITNESS FOR A PARTICULAR PURPOSE.  See the
   GNU Lesser General Public License for more details.
   
   Cite this work as:
   * C. Bannwarth, E. Caldeweyher, S. Ehlert, A. Hansen, P. Pracht,
     J. Seibert, S. Spicher, S. Grimme, WIREs Comput. Mol. Sci., 2020, 11,
     e01493. DOI: 10.1002/wcms.1493
   
   for GFN2-xTB:
   * C. Bannwarth, S. Ehlert and S. Grimme., J. Chem. Theory Comput., 2019,
     15, 1652-1671. DOI: 10.1021/acs.jctc.8b01176
   for GFN1-xTB:
   * S. Grimme, C. Bannwarth, P. Shushkov, J. Chem. Theory Comput., 2017,
     13, 1989-2009. DOI: 10.1021/acs.jctc.7b00118
   for GFN0-xTB:
   * P. Pracht, E. Caldeweyher, S. Ehlert, S. Grimme, ChemRxiv, 2019, preprint.
     DOI: 10.26434/chemrxiv.8326202.v1
   for GFN-FF:
   * S. Spicher and S. Grimme, Angew. Chem. Int. Ed., 2020, 59, 15665-15673.
     DOI: 10.1002/anie.202004239
   
   for ALPB and GBSA implicit solvation:
   * S. Ehlert, M. Stahn, S. Spicher, S. Grimme, J. Chem. Theory Comput.,
     2021, 17, 4250-4261. DOI: 10.1021/acs.jctc.1c00471
   
   for ddCOSMO and CPCM-X implicit solvation:
   * M. Stahn, S. Ehlert, S. Grimme, J. Phys. Chem. A,
     2023, XX, XXXX-XXXX. DOI: 10.1021/acs.jpca.3c04382
   
   for DFT-D4:
   * E. Caldeweyher, C. Bannwarth and S. Grimme, J. Chem. Phys., 2017,
     147, 034112. DOI: 10.1063/1.4993215
   * E. Caldeweyher, S. Ehlert, A. Hansen, H. Neugebauer, S. Spicher,
     C. Bannwarth and S. Grimme, J. Chem. Phys., 2019, 150, 154122.
     DOI: 10.1063/1.5090222
   * E. Caldeweyher, J.-M. Mewes, S. Ehlert and S. Grimme, Phys. Chem. Chem. Phys.
     2020, 22, 8499-8512. DOI: 10.1039/D0CP00502A
   
   for sTDA-xTB:
   * S. Grimme and C. Bannwarth, J. Chem. Phys., 2016, 145, 054103.
     DOI: 10.1063/1.4959605
   
   in the mass-spec context:
   * V. Asgeirsson, C. Bauer and S. Grimme, Chem. Sci., 2017, 8, 4879.
     DOI: 10.1039/c7sc00601b
   * J. Koopman and S. Grimme, ACS Omega 2019, 4, 12, 15120-15133.
     DOI: 10.1021/acsomega.9b02011
   
   for metadynamics refer to:
   * S. Grimme, J. Chem. Theory Comput., 2019, 155, 2847-2862
     DOI: 10.1021/acs.jctc.9b00143
   
   for SPH calculations refer to:
   * S. Spicher and S. Grimme, J. Chem. Theory Comput., 2021, 17, 1701-1714
     DOI: 10.1021/acs.jctc.0c01306
   
   for ONIOM refer to:
   * C. Plett, A. Katbashev, S. Ehlert, S. Grimme, M. Bursch,
     Phys. Chem. Chem. Phys., 2023, 25, 17860-17868. DOI: 10.1039/D3CP02178E
   
   for DIPRO refer to:
   * J. Kohn, N. Gildemeister, S. Grimme, D. Fazzi, A. Hansen,
     J. Chem. Phys., 2023, just accepted.
   
   for PTB refer to:
   * S. Grimme, M. Mueller, A. Hansen, J. Chem. Phys., 2023, 158, 124111.
     DOI: 10.1063/5.0137838
   
   with help from (in alphabetical order)
   P. Atkinson, C. Bannwarth, F. Bohle, G. Brandenburg, E. Caldeweyher
   M. Checinski, S. Dohm, S. Ehlert, S. Ehrlich, I. Gerasimov, C. Hölzer
   A. Katbashev, J. Kohn, J. Koopman, C. Lavigne, S. Lehtola, F. März, M. Müller,
   F. Musil, H. Neugebauer, J. Pisarek, C. Plett, P. Pracht, F. Pultar,
   J. Seibert, P. Shushkov, S. Spicher, M. Stahn, M. Steiner, T. Strunk,
   J. Stückrath, T. Rose, and J. Unsleber
   
 * started run on 2026/10/01 at 18:03:11.634     
   ID    Z sym.   atoms
    1    8 O      1, 3, 11
    2    6 C      2, 5, 10, 12, 17, 20, 21, 25, 26, 28, 30, 32, 34
    3    1 H      4, 6, 7, 9, 13, 15, 16, 18, 19, 22, 24, 27, 29, 31, 33
    4    7 N      8, 14, 23

           -------------------------------------------------
          |                Calculation Setup                |
           -------------------------------------------------

          program call               : /usr/bin/xtb input.xyz --opt --gfn 2 --chrg 0 --uhf 0
          hostname                   : fedora
          coordinate file            : input.xyz
          omp threads                :                    16


           -------------------------------------------------
          |                 G F N 2 - x T B                 |
           -------------------------------------------------

        Reference                      10.1021/acs.jctc.8b01176
      * Hamiltonian:
        H0-scaling (s, p, d)           1.850000    2.230000    2.230000
        zeta-weighting                 0.500000
      * Dispersion:
        s8                             2.700000
        a1                             0.520000
        a2                             5.000000
        s9                             5.000000
      * Repulsion:
        kExp                           1.500000    1.000000
        rExp                           1.000000
      * Coulomb:
        alpha                          2.000000
        third order                    shell-resolved
        anisotropic                    true
        a3                             3.000000
        a5                             4.000000
        cn-shift                       1.200000
        cn-exp                         4.000000
        max-rad                        5.000000


          ...................................................
          :                      SETUP                      :
          :.................................................:
          :  # basis functions                  91          :
          :  # atomic orbitals                  91          :
          :  # shells                           53          :
          :  # electrons                       100          :
          :  max. iterations                   250          :
          :  Hamiltonian                  GFN2-xTB          :
          :  restarted?                      false          :
          :  GBSA solvation                  false          :
          :  PC potential                    false          :
          :  electronic temp.          300.0000000     K    :
          :  accuracy                    1.0000000          :
          :  -> integral cutoff          0.2500000E+02      :
          :  -> integral neglect         0.1000000E-07      :
          :  -> SCF convergence          0.1000000E-05 Eh   :
          :  -> wf. convergence          0.1000000E-03 e    :
          :  Broyden damping             0.4000000          :
          :  net charge                          0          :
          :  unpaired electrons                  0          :
          ...................................................

 iter      E             dE          RMSdq      gap      omega  full diag
   1    -57.0839874 -0.570840E+02  0.406E+00    3.24       0.0  T
   2    -57.2195245 -0.135537E+00  0.238E+00    3.39       1.0  T
   3    -57.2289173 -0.939288E-02  0.134E+00    3.65       1.0  T
   4    -57.2295182 -0.600854E-03  0.552E-01    3.32       1.0  T
   5    -57.2389181 -0.939992E-02  0.119E-01    3.32       1.0  T
   6    -57.2390957 -0.177572E-03  0.591E-02    3.32       1.0  T
   7    -57.2391326 -0.369541E-04  0.256E-02    3.31       1.0  T
   8    -57.2391331 -0.449675E-06  0.115E-02    3.31       1.5  T
   9    -57.2391354 -0.231432E-05  0.344E-03    3.32       5.0  T
  10    -57.2391355 -0.525254E-07  0.156E-03    3.32      11.0  T
  11    -57.2391355 -0.185928E-07  0.643E-04    3.31      26.7  T
  12    -57.2391355 -0.432370E-08  0.225E-04    3.31      76.3  T

   *** convergence criteria satisfied after 12 iterations ***

         #    Occupation            Energy/Eh            Energy/eV
      -------------------------------------------------------------
         1        2.0000           -0.7400170             -20.1369
       ...           ...                  ...                  ...
        44        2.0000           -0.4213812             -11.4664
        45        2.0000           -0.4115049             -11.1976
        46        2.0000           -0.4094023             -11.1404
        47        2.0000           -0.4067725             -11.0688
        48        2.0000           -0.3967932             -10.7973
        49        2.0000           -0.3768215             -10.2538
        50        2.0000           -0.3600119              -9.7964 (HOMO)
        51                         -0.2382018              -6.4818 (LUMO)
        52                         -0.2343623              -6.3773
        53                         -0.2260600              -6.1514
        54                         -0.1918724              -5.2211
        55                         -0.1563141              -4.2535
       ...                                ...                  ...
        91                          0.7243963              19.7118
      -------------------------------------------------------------
                  HL-Gap            0.1218101 Eh            3.3146 eV
             Fermi-level           -0.2991068 Eh           -8.1391 eV

 SCC (total)                   0 d,  0 h,  0 min,  0.330 sec
 SCC setup                      ...        0 min,  0.000 sec (  0.059%)
 Dispersion                     ...        0 min,  0.011 sec (  3.326%)
 classical contributions        ...        0 min,  0.003 sec (  0.880%)
 integral evaluation            ...        0 min,  0.006 sec (  1.731%)
 iterations                     ...        0 min,  0.274 sec ( 83.089%)
 molecular gradient             ...        0 min,  0.035 sec ( 10.748%)
 printout                       ...        0 min,  0.001 sec (  0.161%)

         :::::::::::::::::::::::::::::::::::::::::::::::::::::
         ::                     SUMMARY                     ::
         :::::::::::::::::::::::::::::::::::::::::::::::::::::
         :: total energy             -56.480910950447 Eh    ::
         :: gradient norm              0.000195331674 Eh/a0 ::
         :: HOMO-LUMO gap              3.314621370610 eV    ::
         ::.................................................::
         :: SCC energy               -57.238468518082 Eh    ::
         :: -> isotropic ES            0.097750431991 Eh    ::
         :: -> anisotropic ES          0.003759322374 Eh    ::
         :: -> anisotropic XC          0.019477674535 Eh    ::
         :: -> dispersion             -0.038298878610 Eh    ::
         :: repulsion energy           0.757557567635 Eh    ::
         :: add. restraining           0.000000000000 Eh    ::
         :: total charge              -0.000000000000 e     ::
         :::::::::::::::::::::::::::::::::::::::::::::::::::::

      ----------------------------------------------------------- 
     |                   =====================                   |
     |                        A N C O P T                        |
     |                   =====================                   |
     |               Approximate Normal Coordinate               |
     |                Rational Function Optimizer                |
      ----------------------------------------------------------- 
      ----------------------------------------------------------- 
     |                   =====================                   |
     |                        A N C O P T                        |
     |                   =====================                   |
     |               Approximate Normal Coordinate               |
     |                Rational Function Optimizer                |
      ----------------------------------------------------------- 

          ...................................................
          :                      SETUP                      :
          :.................................................:
          :   optimization level            normal          :
          :   max. optcycles                   200          :
          :   ANC micro-cycles                  20          :
          :   degrees of freedom                96          :
          :.................................................:
          :   RF solver                   davidson          :
          :   write xtbopt.log                true          :
          :   linear?                        false          :
          :   energy convergence         0.5000000E-05 Eh   :
          :   grad. convergence          0.1000000E-02 Eh/α :
          :   maxmium RF displ.          1.0000000          :
          :   Hlow (freq-cutoff)         0.1000000E-01      :
          :   Hmax (freq-cutoff)         5.0000000          :
          :   S6 in model hess.         20.0000000          :
          ...................................................

generating ANC from exact Hessian ...
Using Lindh-Hessian (1995)
 Shifting diagonal of input Hessian by    9.6547252008618700E-003
 Lowest  eigenvalues of input Hessian
    0.000000    0.000000    0.000000    0.000000    0.000000    0.000000
    0.010000    0.010679    0.011024    0.012121    0.012442    0.014844
    0.016294    0.019357    0.019444    0.021889    0.022417    0.026277
 Highest eigenvalues
    2.003381    2.014555    2.102151    2.210627    2.318952    2.358905


........................................................................
.............................. CYCLE    1 ..............................
........................................................................

 iter      E             dE          RMSdq      gap      omega  full diag
   1    -57.2391355 -0.572391E+02  0.107E-04    3.31       0.0  T
   2    -57.2391355 -0.644746E-10  0.620E-05    3.31     276.5  T
   3    -57.2391355 -0.136495E-10  0.406E-05    3.31     422.2  T
     SCC iter.                  ...        0 min,  0.198 sec
     gradient                   ...        0 min,  0.020 sec
 * total energy  :   -56.4809110 Eh     change       -0.6201333E-09 Eh
   gradient norm :     0.0001947 Eh/α   predicted     0.0000000E+00 (-100.00%)
   displ. norm   :     0.0002920 α      lambda        0.0000000E+00
   maximum displ.:     0.0001600 α      in ANC's #93, #91, #87, ...

   *** GEOMETRY OPTIMIZATION CONVERGED AFTER 1 ITERATIONS ***

------------------------------------------------------------------------
 total energy gain   :        -0.0000000 Eh       -0.0000 kcal/mol
 total RMSD          :         0.0000001 a0        0.0000 Å
 total power (kW/mol):        -0.0000016 (step)   -0.0000 (real)
------------------------------------------------------------------------

 ANCopt (total)                0 d,  0 h,  0 min,  0.241 sec
 optimizer setup                ...        0 min,  0.000 sec (  0.084%)
 model hessian                  ...        0 min,  0.012 sec (  4.834%)
 ANC generation                 ...        0 min,  0.008 sec (  3.163%)
 coordinate transformation      ...        0 min,  0.000 sec (  0.006%)
 single point calculation       ...        0 min,  0.221 sec ( 91.753%)
 optimization log               ...        0 min,  0.000 sec (  0.037%)
 hessian update                 ...        0 min,  0.000 sec (  0.000%)
 rational function              ...        0 min,  0.000 sec (  0.019%)

================
 final structure:
================
34
 xtb: 6.7.1-6.fc44.fc44
O           -0.97199873970000        2.24879177090000        0.65606572530000
C           -1.92118923590000        2.37858671870000       -0.24922649100000
O           -1.94100832550000        3.27049943400000       -1.05167350130000
H           -1.04647812050000        1.38874661700000        1.16082223790000
C           -3.03060140660000        1.30522398750000       -0.19397329600000
H           -3.80721512490000        1.56804421420000       -0.91088475520000
H           -3.44935354590000        1.31074757470000        0.82064215140000
N           -2.52633249030000       -0.01893873290000       -0.50043653750000
H           -2.84579300870000       -0.49406044020000       -1.33093481140000
C           -1.71545200110000       -0.70147530300000        0.31705453930000
O           -1.29756447900000       -0.24762307730000        1.37563454440000
C           -1.32613744760000       -2.07216794010000       -0.21469904130000
H           -0.87043370220000       -2.62522064320000        0.62118785910000
N           -2.50031526030000       -2.71459999490000       -0.79312805430000
H           -3.17039549810000       -2.95032574230000       -0.06801072840000
H           -2.23144773650000       -3.57830963290000       -1.25268464310000
C           -0.26949601010000       -1.85526407160000       -1.32324695730000
H           -0.79403908300000       -1.59231384400000       -2.24421675010000
H            0.27148881080000       -2.78957798900000       -1.48764507810000
C            0.67562712500000       -0.75926881200000       -0.95395429380000
C            0.63793006470000        0.53386046530000       -1.39230751710000
H           -0.01260435110000        0.98674122750000       -2.11729705110000
N            1.60747794470000        1.26994191730000       -0.77483761800000
H            1.72688154940000        2.26330965650000       -0.87557365330000
C            2.28275353830000        0.46968712510000        0.09853878420000
C            3.33751729700000        0.75516777240000        0.95637536010000
H            3.74918179180000        1.75156851440000        1.01878292450000
C            3.83320608680000       -0.27591496720000        1.72367136800000
H            4.65131027920000       -0.08913004370000        2.40360664640000
C            3.29895728890000       -1.56518237080000        1.64158900990000
H            3.71937882940000       -2.34479046990000        2.26015771670000
C            2.25424460030000       -1.85507283750000        0.79457030560000
H            1.85018832820000       -2.85532529320000        0.73764563620000
C            1.72848570680000       -0.83031929870000        0.00836434140000

 Bond Distances (Angstroems)
 ---------------------------
O1-C2=1.3181         O1-H4=1.0000         C2-O1=1.3181         C2-O3=1.1999         C2-C5=1.5447         O3-C2=1.1999         
H4-O1=1.0000         C5-C2=1.5447         C5-H6=1.0891         C5-H7=1.0976         C5-N8=1.4497         H6-C5=1.0891         
H7-C5=1.0976         N8-C5=1.4497         N8-H9=1.0087         N8-C10=1.3385        H9-N8=1.0087         C10-N8=1.3385        
C10-O11=1.2252       C10-C12=1.5209       O11-C10=1.2252       C12-C10=1.5209       C12-H13=1.1010       C12-N14=1.4581       
C12-C17=1.5467       H13-C12=1.1010       N14-C12=1.4581       N14-H15=1.0151       N14-H16=1.0146       H15-N14=1.0151       
H16-N14=1.0146       C17-C12=1.5467       C17-H18=1.0920       C17-H19=1.0921       C17-C20=1.4936       H18-C17=1.0920       
H19-C17=1.0921       C20-C17=1.4936       C20-C21=1.3659       C20-C34=1.4282       C21-C20=1.3659       C21-H22=1.0742       
C21-N23=1.3650       H22-C21=1.0742       N23-C21=1.3650       N23-H24=1.0056       N23-C25=1.3635       H24-N23=1.0056       
C25-N23=1.3635       C25-C26=1.3892       C25-C34=1.4161       C26-C25=1.3892       C26-H27=1.0799       C26-C28=1.3775       
H27-C26=1.0799       C28-C26=1.3775       C28-H29=1.0800       C28-C30=1.3980       H29-C28=1.0800       C30-C28=1.3980       
C30-H31=1.0804       C30-C32=1.3758       H31-C30=1.0804       C32-C30=1.3758       C32-H33=1.0803       C32-C34=1.3945       
H33-C32=1.0803       C34-C20=1.4282       C34-C25=1.4161       C34-C32=1.3945       
 C  H  Rav=1.0867 sigma=0.0085  Rmin=1.0742  Rmax=1.1010    10
 C  C  Rav=1.4376 sigma=0.0660  Rmin=1.3659  Rmax=1.5467    12
 N  H  Rav=1.0110 sigma=0.0040  Rmin=1.0056  Rmax=1.0151     4
 N  C  Rav=1.3950 sigma=0.0491  Rmin=1.3385  Rmax=1.4581     5
 O  H  Rav=1.0000 sigma=0.0000  Rmin=1.0000  Rmax=1.0000     1
 O  C  Rav=1.2478 sigma=0.0508  Rmin=1.1999  Rmax=1.3181     3

 selected bond angles (degree)
 --------------------
H4-O1-C2=112.19                O3-C2-O1=122.98                C5-C2-O1=115.10                C5-C2-O3=121.91                
H6-C5-C2=108.72                H7-C5-C2=107.67                H7-C5-H6=109.59                N8-C5-C2=112.17                
N8-C5-H6=109.23                N8-C5-H7=109.43                H9-N8-C5=119.61                C10-N8-C5=123.19               
C10-N8-H9=117.03               O11-C10-N8=123.05              C12-C10-N8=113.65              C12-C10-O11=123.27             

 selected dihedral angles (degree)
 ---------------------------------
O3-C2-O1-H4=187.54            C5-C2-O1-H4=  8.42            H6-C5-C2-O1=174.17            H6-C5-C2-O3=355.04            
H7-C5-C2-O1= 55.52            H7-C5-C2-O3=236.39            N8-C5-C2-O1=295.07            N8-C5-C2-O3=115.94            
H9-N8-C5-C2=245.11            H9-N8-C5-H6=  5.71            H9-N8-C5-H7=125.68            C10-N8-C5-C2= 69.97           
C10-N8-C5-H6=190.57           C10-N8-C5-H7=310.54           O11-C10-N8-C5=357.69          O11-C10-N8-H9=182.43          
C12-C10-N8-C5=179.62          C12-C10-N8-H9=  4.37          
           -------------------------------------------------
          |                Final Singlepoint                |
           -------------------------------------------------

          ...................................................
          :                      SETUP                      :
          :.................................................:
          :  # basis functions                  91          :
          :  # atomic orbitals                  91          :
          :  # shells                           53          :
          :  # electrons                       100          :
          :  max. iterations                   250          :
          :  Hamiltonian                  GFN2-xTB          :
          :  restarted?                      false          :
          :  GBSA solvation                  false          :
          :  PC potential                    false          :
          :  electronic temp.          300.0000000     K    :
          :  accuracy                    1.0000000          :
          :  -> integral cutoff          0.2500000E+02      :
          :  -> integral neglect         0.1000000E-07      :
          :  -> SCF convergence          0.1000000E-05 Eh   :
          :  -> wf. convergence          0.1000000E-03 e    :
          :  Broyden damping             0.4000000          :
          :  net charge                          0          :
          :  unpaired electrons                  0          :
          ...................................................

 iter      E             dE          RMSdq      gap      omega  full diag
   1    -57.2391355 -0.572391E+02  0.129E-05    3.31       0.0  T
   2    -57.2391355 -0.115108E-11  0.920E-06    3.31    1863.9  T
   3    -57.2391355 -0.174083E-11  0.540E-06    3.31    3177.0  T

   *** convergence criteria satisfied after 3 iterations ***

         #    Occupation            Energy/Eh            Energy/eV
      -------------------------------------------------------------
         1        2.0000           -0.7400183             -20.1369
       ...           ...                  ...                  ...
        44        2.0000           -0.4213812             -11.4664
        45        2.0000           -0.4115047             -11.1976
        46        2.0000           -0.4094021             -11.1404
        47        2.0000           -0.4067721             -11.0688
        48        2.0000           -0.3967935             -10.7973
        49        2.0000           -0.3768212             -10.2538
        50        2.0000           -0.3600116              -9.7964 (HOMO)
        51                         -0.2382023              -6.4818 (LUMO)
        52                         -0.2343623              -6.3773
        53                         -0.2260598              -6.1514
        54                         -0.1918719              -5.2211
        55                         -0.1563139              -4.2535
       ...                                ...                  ...
        91                          0.7243963              19.7118
      -------------------------------------------------------------
                  HL-Gap            0.1218093 Eh            3.3146 eV
             Fermi-level           -0.2991070 Eh           -8.1391 eV

 SCC (total)                   0 d,  0 h,  0 min,  0.243 sec
 SCC setup                      ...        0 min,  0.004 sec (  1.776%)
 Dispersion                     ...        0 min,  0.000 sec (  0.051%)
 classical contributions        ...        0 min,  0.004 sec (  1.846%)
 integral evaluation            ...        0 min,  0.004 sec (  1.539%)
 iterations                     ...        0 min,  0.229 sec ( 94.081%)
 molecular gradient             ...        0 min,  0.001 sec (  0.580%)
 printout                       ...        0 min,  0.000 sec (  0.122%)

         :::::::::::::::::::::::::::::::::::::::::::::::::::::
         ::                     SUMMARY                     ::
         :::::::::::::::::::::::::::::::::::::::::::::::::::::
         :: total energy             -56.480910951092 Eh    ::
         :: gradient norm              0.000195303027 Eh/a0 ::
         :: HOMO-LUMO gap              3.314601064947 eV    ::
         ::.................................................::
         :: SCC energy               -57.238468518727 Eh    ::
         :: -> isotropic ES            0.097749017313 Eh    ::
         :: -> anisotropic ES          0.003759371053 Eh    ::
         :: -> anisotropic XC          0.019477521276 Eh    ::
         :: -> dispersion             -0.038298905175 Eh    ::
         :: repulsion energy           0.757557567635 Eh    ::
         :: add. restraining           0.000000000000 Eh    ::
         :: total charge               0.000000000000 e     ::
         :::::::::::::::::::::::::::::::::::::::::::::::::::::

           -------------------------------------------------
          |                Property Printout                |
           -------------------------------------------------

    * Orbital Energies and Occupations

         #    Occupation            Energy/Eh            Energy/eV
      -------------------------------------------------------------
         1        2.0000           -0.7400183             -20.1369
       ...           ...                  ...                  ...
        38        2.0000           -0.4686869             -12.7536
        39        2.0000           -0.4611140             -12.5476
        40        2.0000           -0.4502485             -12.2519
        41        2.0000           -0.4492680             -12.2252
        42        2.0000           -0.4470945             -12.1661
        43        2.0000           -0.4231654             -11.5149
        44        2.0000           -0.4213812             -11.4664
        45        2.0000           -0.4115047             -11.1976
        46        2.0000           -0.4094021             -11.1404
        47        2.0000           -0.4067721             -11.0688
        48        2.0000           -0.3967935             -10.7973
        49        2.0000           -0.3768212             -10.2538
        50        2.0000           -0.3600116              -9.7964 (HOMO)
        51                         -0.2382023              -6.4818 (LUMO)
        52                         -0.2343623              -6.3773
        53                         -0.2260598              -6.1514
        54                         -0.1918719              -5.2211
        55                         -0.1563139              -4.2535
        56                         -0.0663031              -1.8042
        57                         -0.0188648              -0.5133
        58                          0.0193778               0.5273
        59                          0.0369660               1.0059
        60                          0.0596545               1.6233
        61                          0.0763817               2.0785
       ...                                ...                  ...
        91                          0.7243963              19.7118
      -------------------------------------------------------------
                  HL-Gap            0.1218093 Eh            3.3146 eV
             Fermi-level           -0.2991070 Eh           -8.1391 eV

     #   Z          covCN         q      C6AA      α(0)
     1   8 O        1.654    -0.379    20.443     6.104
     2   6 C        2.685     0.359    20.909     7.483
     3   8 O        0.856    -0.383    21.338     6.193
     4   1 H        0.800     0.367     0.551     1.166
     5   6 C        3.738    -0.039    21.360     6.595
     6   1 H        0.925     0.078     2.005     2.214
     7   1 H        0.924     0.074     2.038     2.232
     8   7 N        2.688    -0.160    24.470     7.347
     9   1 H        0.860     0.202     1.097     1.640
    10   6 C        2.759     0.270    22.445     7.758
    11   8 O        0.859    -0.454    22.800     6.402
    12   6 C        3.789     0.032    20.046     6.377
    13   1 H        0.923     0.037     2.486     2.466
    14   7 N        2.634    -0.354    29.116     8.014
    15   1 H        0.860     0.143     1.451     1.887
    16   1 H        0.860     0.151     1.394     1.849
    17   6 C        3.810    -0.063    21.706     6.632
    18   1 H        0.924     0.045     2.381     2.413
    19   1 H        0.924     0.047     2.356     2.400
    20   6 C        3.059    -0.040    28.940     8.822
    21   6 C        3.037    -0.008    28.180     8.707
    22   1 H        0.926     0.029     2.593     2.518
    23   7 N        2.779    -0.095    23.103     7.139
    24   1 H        0.860     0.170     1.273     1.767
    25   6 C        3.093     0.047    26.840     8.491
    26   6 C        2.909    -0.051    29.256     8.869
    27   1 H        0.926     0.027     2.636     2.539
    28   6 C        2.925    -0.036    28.888     8.814
    29   1 H        0.926     0.028     2.616     2.529
    30   6 C        2.920    -0.041    29.012     8.833
    31   1 H        0.926     0.025     2.653     2.547
    32   6 C        2.911    -0.035    28.859     8.809
    33   1 H        0.926     0.022     2.699     2.569
    34   6 C        3.118    -0.016    28.230     8.702

 Mol. C6AA /au·bohr⁶  :      13344.549740
 Mol. C8AA /au·bohr⁸  :     312525.185575
 Mol. α(0) /au        :        178.829938


Wiberg/Mayer (AO) data.
largest (>0.10) Wiberg bond orders for each atom

 ---------------------------------------------------------------------------
     #   Z sym  total        # sym  WBO       # sym  WBO       # sym  WBO
 ---------------------------------------------------------------------------
     1   8 O    2.230 --     2 C    1.202     4 H    0.765     3 O    0.182
     2   6 C    3.931 --     3 O    1.769     1 O    1.202     5 C    0.927
     3   8 O    2.059 --     2 C    1.769     1 O    0.182
     4   1 H    0.865 --     1 O    0.765
     5   6 C    3.965 --     8 N    0.991     6 H    0.975     7 H    0.954
                             2 C    0.927
     6   1 H    0.994 --     5 C    0.975
     7   1 H    0.994 --     5 C    0.954
     8   7 N    3.474 --    10 C    1.300     5 C    0.991     9 H    0.926
                            11 O    0.191
     9   1 H    0.959 --     8 N    0.926
    10   6 C    3.945 --    11 O    1.614     8 N    1.300    12 C    0.950
    11   8 O    2.017 --    10 C    1.614     8 N    0.191
    12   6 C    3.981 --    14 N    1.011    13 H    0.959    17 C    0.957
                            10 C    0.950
    13   1 H    0.998 --    12 C    0.959
    14   7 N    3.006 --    12 C    1.011    15 H    0.965    16 H    0.961
    15   1 H    0.979 --    14 N    0.965
    16   1 H    0.977 --    14 N    0.961
    17   6 C    3.993 --    20 C    1.013    18 H    0.973    19 H    0.969
                            12 C    0.957
    18   1 H    0.998 --    17 C    0.973
    19   1 H    0.997 --    17 C    0.969
    20   6 C    3.973 --    21 C    1.573    34 C    1.206    17 C    1.013
    21   6 C    3.953 --    20 C    1.573    23 N    1.207    22 H    0.969
    22   1 H    0.998 --    21 C    0.969
    23   7 N    3.555 --    21 C    1.207    25 C    1.180    24 H    0.943
    24   1 H    0.970 --    23 N    0.943
    25   6 C    3.959 --    26 C    1.337    34 C    1.247    23 N    1.180
    26   6 C    3.989 --    28 C    1.496    25 C    1.337    27 H    0.968
                            32 C    0.114
    27   1 H    0.999 --    26 C    0.968
    28   6 C    3.991 --    26 C    1.496    30 C    1.370    29 H    0.972
    29   1 H    0.999 --    28 C    0.972
    30   6 C    3.991 --    32 C    1.506    28 C    1.370    31 H    0.972
    31   1 H    0.999 --    30 C    0.972
    32   6 C    3.993 --    30 C    1.506    34 C    1.330    33 H    0.969
                            26 C    0.114
    33   1 H    0.999 --    32 C    0.969
    34   6 C    3.985 --    32 C    1.330    25 C    1.247    20 C    1.206
 ---------------------------------------------------------------------------

Topologies differ in total number of bonds
Writing topology from bond orders to xtbtopo.mol

molecular dipole:
                 x           y           z       tot (Debye)
 q only:       -0.735      -1.177      -0.660
   full:       -0.938      -1.668      -0.542       5.055
molecular quadrupole (traceless):
                xx          xy          yy          xz          yz          zz
 q only:       10.102       9.896      -7.044       0.596       5.955      -3.058
  q+dip:        9.190      14.281      -3.330       1.209       4.332      -5.860
   full:       10.124      13.971      -4.764      -1.471       5.706      -5.360

           -------------------------------------------------
          |                Geometry Summary                 |
           -------------------------------------------------

      molecular mass/u    :      261.2770023
   center of mass at/Å    :        0.0000000      -0.0000000      -0.0000000
  moments of inertia/u·Å² :        0.8849661E+03   0.1539491E+04   0.2043180E+04
rotational constants/cm⁻¹ :        0.1904890E-01   0.1095014E-01   0.8250682E-02

 * 31 selected distances

     #   Z          #   Z                                           value/Å
     1   8 O        2   6 C                                       1.3180909
     2   6 C        3   8 O                                       1.1999261
     1   8 O        4   1 H                                       1.0000021 (min)
     5   6 C        6   1 H                                       1.0891123
     5   6 C        7   1 H                                       1.0976468
     5   6 C        8   7 N                                       1.4496945
     8   7 N        9   1 H                                       1.0087236
     8   7 N       10   6 C                                       1.3385348
    10   6 C       11   8 O                                       1.2252362
    12   6 C       13   1 H                                       1.1010179
    12   6 C       14   7 N                                       1.4580785 (max)
    14   7 N       15   1 H                                       1.0150712
    14   7 N       16   1 H                                       1.0146312
    17   6 C       18   1 H                                       1.0920045
    17   6 C       19   1 H                                       1.0920779
    20   6 C       21   6 C                                       1.3659276
    21   6 C       22   1 H                                       1.0742002
    21   6 C       23   7 N                                       1.3649573
    23   7 N       24   1 H                                       1.0055768
    23   7 N       25   6 C                                       1.3635217
    25   6 C       26   6 C                                       1.3892119
    26   6 C       27   1 H                                       1.0798968
    26   6 C       28   6 C                                       1.3775277
    28   6 C       29   1 H                                       1.0800441
    28   6 C       30   6 C                                       1.3979879
    30   6 C       31   1 H                                       1.0803567
    30   6 C       32   6 C                                       1.3758278
    32   6 C       33   1 H                                       1.0802810
    20   6 C       34   6 C                                       1.4281516
    25   6 C       34   6 C                                       1.4161078
    32   6 C       34   6 C                                       1.3945115

 * 6 distinct bonds (by element types)

   Z      Z             #   av. dist./Å        max./Å        min./Å
   1 H    6 C          10     1.0866638     1.1010179     1.0742002
   6 C    6 C           8     1.3931567     1.4281516     1.3659276
   1 H    7 N           4     1.0110007     1.0150712     1.0055768
   6 C    7 N           5     1.3949574     1.4580785     1.3385348
   1 H    8 O           1     1.0000021     1.0000021     1.0000021
   6 C    8 O           3     1.2477511     1.3180909     1.1999261


optimized geometry written to: xtbopt.xyz


           -------------------------------------------------
          | TOTAL ENERGY              -56.480910951092 Eh   |
          | GRADIENT NORM               0.000195303027 Eh/α |
          | HOMO-LUMO GAP               3.314601064947 eV   |
           -------------------------------------------------

------------------------------------------------------------------------
 * finished run on 2026/10/01 at 18:03:12.463     
------------------------------------------------------------------------
 total:
 * wall-time:     0 d,  0 h,  0 min,  0.829 sec
 *  cpu-time:     0 d,  0 h,  0 min, 11.371 sec
 * ratio c/w:    13.717 speedup
 SCF:
 * wall-time:     0 d,  0 h,  0 min,  0.330 sec
 *  cpu-time:     0 d,  0 h,  0 min,  4.557 sec
 * ratio c/w:    13.800 speedup
 ANC optimizer:
 * wall-time:     0 d,  0 h,  0 min,  0.485 sec
 *  cpu-time:     0 d,  0 h,  0 min,  6.613 sec
 * ratio c/w:    13.639 speedup


--- STDERR ---
normal termination of xtb
Note: The following floating-point exceptions are signalling: IEEE_UNDERFLOW_FLAG IEEE_DENORMAL
