37
 energy: -61.564395007559 gnorm: 0.000121473201 xtb: 6.7.1-6.fc44.fc44
O           -2.42449156090000        1.52301491580000       -2.58879038340000
C           -2.62269695470000        1.21432838680000       -1.44788051080000
O           -2.54229521080000        2.06945295550000       -0.44549616440000
H           -2.62201008540000        1.61923168910000        0.44076677780000
C           -3.02636301350000       -0.22102380940000       -1.04747959920000
H           -3.16186011640000       -0.80888025930000       -1.95421877960000
H           -3.97910629240000       -0.15601629090000       -0.50630177910000
N           -2.04536251940000       -0.88464819980000       -0.20878258890000
H           -1.52460244770000       -1.67463251860000       -0.58984163120000
C           -1.80703204560000       -0.53186772840000        1.05610785730000
O           -2.32489945190000        0.43404329440000        1.60502036490000
C           -0.82831452040000       -1.45498122300000        1.78330491330000
H           -1.19746107400000       -2.48313539720000        1.70509012700000
H           -0.78264538280000       -1.15806964210000        2.83096486820000
N            0.50815180990000       -1.41237677550000        1.22283610300000
H            1.16281356490000       -0.75755962200000        1.62358489850000
C            0.83160275830000       -2.03031789710000        0.06988411750000
O            0.02389584540000       -2.68140961820000       -0.57748371360000
C            2.28750149170000       -1.87544092480000       -0.37176678460000
N            2.71345412460000       -2.93476836440000       -1.26146423170000
H            2.06464009150000       -2.99947417880000       -2.04072715690000
H            2.69403654870000       -3.82971986510000       -0.78397380980000
H            2.93514474800000       -1.88806394070000        0.51198990140000
C            2.43754324970000       -0.52001415520000       -1.09899560300000
H            3.47638694900000       -0.44458034520000       -1.42480961950000
H            1.80324628430000       -0.53192688130000       -1.98725437370000
C            2.07294579130000        0.63892058840000       -0.21780389340000
C            2.87079696530000        0.96892173360000        0.87456348440000
H            3.78238688930000        0.41561442650000        1.05393952420000
C            2.51445116630000        2.00366784640000        1.72146695710000
H            3.14482579660000        2.24923622170000        2.56377954700000
C            1.35628828050000        2.72622876870000        1.48560687080000
H            1.07812429370000        3.53390824670000        2.14528432580000
C            0.56316816110000        2.41634250350000        0.39438274080000
H           -0.33346384410000        2.98192649940000        0.19478144740000
C            0.91813296300000        1.37641572120000       -0.44793460120000
H            0.29685683330000        1.14477292180000       -1.30157860060000
