      -----------------------------------------------------------      
     |                   =====================                   |     
     |                           x T B                           |     
     |                   =====================                   |     
     |                         S. Grimme                         |     
     |          Mulliken Center for Theoretical Chemistry        |     
     |                    University of Bonn                     |     
      -----------------------------------------------------------      

   * xtb version 6.7.1-6.fc44.fc44 compiled by Fedora project on Sun Jan 18 23:32:34 UTC 2026

   xtb is free software: you can redistribute it and/or modify it under
   the terms of the GNU Lesser General Public License as published by
   the Free Software Foundation, either version 3 of the License, or
   (at your option) any later version.
   
   xtb is distributed in the hope that it will be useful,
   but WITHOUT ANY WARRANTY; without even the implied warranty of
   MERCHANTABILITY or FITNESS FOR A PARTICULAR PURPOSE.  See the
   GNU Lesser General Public License for more details.
   
   Cite this work as:
   * C. Bannwarth, E. Caldeweyher, S. Ehlert, A. Hansen, P. Pracht,
     J. Seibert, S. Spicher, S. Grimme, WIREs Comput. Mol. Sci., 2020, 11,
     e01493. DOI: 10.1002/wcms.1493
   
   for GFN2-xTB:
   * C. Bannwarth, S. Ehlert and S. Grimme., J. Chem. Theory Comput., 2019,
     15, 1652-1671. DOI: 10.1021/acs.jctc.8b01176
   for GFN1-xTB:
   * S. Grimme, C. Bannwarth, P. Shushkov, J. Chem. Theory Comput., 2017,
     13, 1989-2009. DOI: 10.1021/acs.jctc.7b00118
   for GFN0-xTB:
   * P. Pracht, E. Caldeweyher, S. Ehlert, S. Grimme, ChemRxiv, 2019, preprint.
     DOI: 10.26434/chemrxiv.8326202.v1
   for GFN-FF:
   * S. Spicher and S. Grimme, Angew. Chem. Int. Ed., 2020, 59, 15665-15673.
     DOI: 10.1002/anie.202004239
   
   for ALPB and GBSA implicit solvation:
   * S. Ehlert, M. Stahn, S. Spicher, S. Grimme, J. Chem. Theory Comput.,
     2021, 17, 4250-4261. DOI: 10.1021/acs.jctc.1c00471
   
   for ddCOSMO and CPCM-X implicit solvation:
   * M. Stahn, S. Ehlert, S. Grimme, J. Phys. Chem. A,
     2023, XX, XXXX-XXXX. DOI: 10.1021/acs.jpca.3c04382
   
   for DFT-D4:
   * E. Caldeweyher, C. Bannwarth and S. Grimme, J. Chem. Phys., 2017,
     147, 034112. DOI: 10.1063/1.4993215
   * E. Caldeweyher, S. Ehlert, A. Hansen, H. Neugebauer, S. Spicher,
     C. Bannwarth and S. Grimme, J. Chem. Phys., 2019, 150, 154122.
     DOI: 10.1063/1.5090222
   * E. Caldeweyher, J.-M. Mewes, S. Ehlert and S. Grimme, Phys. Chem. Chem. Phys.
     2020, 22, 8499-8512. DOI: 10.1039/D0CP00502A
   
   for sTDA-xTB:
   * S. Grimme and C. Bannwarth, J. Chem. Phys., 2016, 145, 054103.
     DOI: 10.1063/1.4959605
   
   in the mass-spec context:
   * V. Asgeirsson, C. Bauer and S. Grimme, Chem. Sci., 2017, 8, 4879.
     DOI: 10.1039/c7sc00601b
   * J. Koopman and S. Grimme, ACS Omega 2019, 4, 12, 15120-15133.
     DOI: 10.1021/acsomega.9b02011
   
   for metadynamics refer to:
   * S. Grimme, J. Chem. Theory Comput., 2019, 155, 2847-2862
     DOI: 10.1021/acs.jctc.9b00143
   
   for SPH calculations refer to:
   * S. Spicher and S. Grimme, J. Chem. Theory Comput., 2021, 17, 1701-1714
     DOI: 10.1021/acs.jctc.0c01306
   
   for ONIOM refer to:
   * C. Plett, A. Katbashev, S. Ehlert, S. Grimme, M. Bursch,
     Phys. Chem. Chem. Phys., 2023, 25, 17860-17868. DOI: 10.1039/D3CP02178E
   
   for DIPRO refer to:
   * J. Kohn, N. Gildemeister, S. Grimme, D. Fazzi, A. Hansen,
     J. Chem. Phys., 2023, just accepted.
   
   for PTB refer to:
   * S. Grimme, M. Mueller, A. Hansen, J. Chem. Phys., 2023, 158, 124111.
     DOI: 10.1063/5.0137838
   
   with help from (in alphabetical order)
   P. Atkinson, C. Bannwarth, F. Bohle, G. Brandenburg, E. Caldeweyher
   M. Checinski, S. Dohm, S. Ehlert, S. Ehrlich, I. Gerasimov, C. Hölzer
   A. Katbashev, J. Kohn, J. Koopman, C. Lavigne, S. Lehtola, F. März, M. Müller,
   F. Musil, H. Neugebauer, J. Pisarek, C. Plett, P. Pracht, F. Pultar,
   J. Seibert, P. Shushkov, S. Spicher, M. Stahn, M. Steiner, T. Strunk,
   J. Stückrath, T. Rose, and J. Unsleber
   
 * started run on 2026/10/01 at 17:51:24.511     
   ID    Z sym.   atoms
    1    8 O      1-6
    2    7 N      7-12
    3    6 C      13-34
    4    1 H      35-68

           -------------------------------------------------
          |                Calculation Setup                |
           -------------------------------------------------

          program call               : /usr/bin/xtb input.xyz --opt --gfn 2 --chrg 0 --uhf 0
          hostname                   : fedora
          coordinate file            : input.xyz
          omp threads                :                    16


           -------------------------------------------------
          |                 G F N 2 - x T B                 |
           -------------------------------------------------

        Reference                      10.1021/acs.jctc.8b01176
      * Hamiltonian:
        H0-scaling (s, p, d)           1.850000    2.230000    2.230000
        zeta-weighting                 0.500000
      * Dispersion:
        s8                             2.700000
        a1                             0.520000
        a2                             5.000000
        s9                             5.000000
      * Repulsion:
        kExp                           1.500000    1.000000
        rExp                           1.000000
      * Coulomb:
        alpha                          2.000000
        third order                    shell-resolved
        anisotropic                    true
        a3                             3.000000
        a5                             4.000000
        cn-shift                       1.200000
        cn-exp                         4.000000
        max-rad                        5.000000


          ...................................................
          :                      SETUP                      :
          :.................................................:
          :  # basis functions                 170          :
          :  # atomic orbitals                 170          :
          :  # shells                          102          :
          :  # electrons                       188          :
          :  max. iterations                   250          :
          :  Hamiltonian                  GFN2-xTB          :
          :  restarted?                      false          :
          :  GBSA solvation                  false          :
          :  PC potential                    false          :
          :  electronic temp.          300.0000000     K    :
          :  accuracy                    1.0000000          :
          :  -> integral cutoff          0.2500000E+02      :
          :  -> integral neglect         0.1000000E-07      :
          :  -> SCF convergence          0.1000000E-05 Eh   :
          :  -> wf. convergence          0.1000000E-03 e    :
          :  Broyden damping             0.4000000          :
          :  net charge                          0          :
          :  unpaired electrons                  0          :
          ...................................................

 iter      E             dE          RMSdq      gap      omega  full diag
   1   -106.6067188 -0.106607E+03  0.454E+00    2.97       0.0  T
   2   -107.1281420 -0.521423E+00  0.253E+00    2.37       1.0  T
   3   -107.1565536 -0.284115E-01  0.161E+00    2.80       1.0  T
   4   -107.1137518  0.428018E-01  0.111E+00    2.58       1.0  T
   5   -107.1923145 -0.785627E-01  0.184E-01    2.58       1.0  T
   6   -107.1937615 -0.144699E-02  0.833E-02    2.73       1.0  T
   7   -107.1938810 -0.119523E-03  0.405E-02    2.69       1.0  T
   8   -107.1938881 -0.706313E-05  0.149E-02    2.70       1.0  T
   9   -107.1938927 -0.461047E-05  0.596E-03    2.69       2.0  T
  10   -107.1938936 -0.849687E-06  0.250E-03    2.69       4.9  T
  11   -107.1938937 -0.102282E-06  0.116E-03    2.69      10.4  T
  12   -107.1938937 -0.215372E-07  0.373E-04    2.69      32.5  T
  13   -107.1938937 -0.251056E-08  0.156E-04    2.69      77.6  T

   *** convergence criteria satisfied after 13 iterations ***

         #    Occupation            Energy/Eh            Energy/eV
      -------------------------------------------------------------
         1        2.0000           -0.7846499             -21.3514
       ...           ...                  ...                  ...
        88        2.0000           -0.3825653             -10.4101
        89        2.0000           -0.3746365             -10.1944
        90        2.0000           -0.3637375              -9.8978
        91        2.0000           -0.3628087              -9.8725
        92        2.0000           -0.3532050              -9.6112
        93        2.0000           -0.3477299              -9.4622
        94        2.0000           -0.3441435              -9.3646 (HOMO)
        95                         -0.2451181              -6.6700 (LUMO)
        96                         -0.2357517              -6.4151
        97                         -0.2267598              -6.1704
        98                         -0.2235351              -6.0827
        99                         -0.2184960              -5.9456
       ...                                ...                  ...
       170                          2.1637774              58.8794
      -------------------------------------------------------------
                  HL-Gap            0.0990254 Eh            2.6946 eV
             Fermi-level           -0.2946308 Eh           -8.0173 eV

 SCC (total)                   0 d,  0 h,  0 min,  0.062 sec
 SCC setup                      ...        0 min,  0.000 sec (  0.388%)
 Dispersion                     ...        0 min,  0.001 sec (  0.932%)
 classical contributions        ...        0 min,  0.000 sec (  0.197%)
 integral evaluation            ...        0 min,  0.002 sec (  2.477%)
 iterations                     ...        0 min,  0.051 sec ( 82.328%)
 molecular gradient             ...        0 min,  0.008 sec ( 12.954%)
 printout                       ...        0 min,  0.000 sec (  0.697%)

         :::::::::::::::::::::::::::::::::::::::::::::::::::::
         ::                     SUMMARY                     ::
         :::::::::::::::::::::::::::::::::::::::::::::::::::::
         :: total energy            -105.517940864286 Eh    ::
         :: gradient norm              1.684600420269 Eh/a0 ::
         :: HOMO-LUMO gap              2.694617501852 eV    ::
         ::.................................................::
         :: SCC energy              -107.189580281460 Eh    ::
         :: -> isotropic ES            0.298533643148 Eh    ::
         :: -> anisotropic ES         -0.011366348940 Eh    ::
         :: -> anisotropic XC          0.040091019116 Eh    ::
         :: -> dispersion             -0.084813923817 Eh    ::
         :: repulsion energy           1.671639417175 Eh    ::
         :: add. restraining           0.000000000000 Eh    ::
         :: total charge               0.000000000000 e     ::
         :::::::::::::::::::::::::::::::::::::::::::::::::::::

      ----------------------------------------------------------- 
     |                   =====================                   |
     |                        A N C O P T                        |
     |                   =====================                   |
     |               Approximate Normal Coordinate               |
     |                Rational Function Optimizer                |
      ----------------------------------------------------------- 
      ----------------------------------------------------------- 
     |                   =====================                   |
     |                        A N C O P T                        |
     |                   =====================                   |
     |               Approximate Normal Coordinate               |
     |                Rational Function Optimizer                |
      ----------------------------------------------------------- 

          ...................................................
          :                      SETUP                      :
          :.................................................:
          :   optimization level            normal          :
          :   max. optcycles                   204          :
          :   ANC micro-cycles                  20          :
          :   degrees of freedom               198          :
          :.................................................:
          :   RF solver                   davidson          :
          :   write xtbopt.log                true          :
          :   linear?                        false          :
          :   energy convergence         0.5000000E-05 Eh   :
          :   grad. convergence          0.1000000E-02 Eh/α :
          :   maxmium RF displ.          1.0000000          :
          :   Hlow (freq-cutoff)         0.1000000E-01      :
          :   Hmax (freq-cutoff)         5.0000000          :
          :   S6 in model hess.         20.0000000          :
          ...................................................

generating ANC from exact Hessian ...
Using Lindh-Hessian (1995)
 Shifting diagonal of input Hessian by    9.8010828461939734E-003
 Lowest  eigenvalues of input Hessian
    0.000000    0.000000    0.000000    0.000000    0.000000    0.000000
    0.010000    0.010188    0.010832    0.010940    0.011298    0.011401
    0.011857    0.012108    0.012312    0.012713    0.013085    0.013676
 Highest eigenvalues
    2.167168    2.418373    2.493033    2.561724    3.133815    3.513428


........................................................................
.............................. CYCLE    1 ..............................
........................................................................

 iter      E             dE          RMSdq      gap      omega  full diag
   1   -107.1938937 -0.107194E+03  0.633E-05    2.69       0.0  T
   2   -107.1938937 -0.553655E-10  0.408E-05    2.69     297.3  T
   3   -107.1938937 -0.386393E-10  0.247E-05    2.69     491.6  T
     SCC iter.                  ...        0 min,  0.018 sec
     gradient                   ...        0 min,  0.006 sec
 * total energy  :  -105.5179409 Eh     change       -0.6092762E-09 Eh
   gradient norm :     1.6846015 Eh/α   predicted     0.0000000E+00 (-100.00%)
   displ. norm   :     0.5865453 α      lambda       -0.8873776E+00
   maximum displ.:     0.2770457 α      in ANC's #198, #197, #136, ...

........................................................................
.............................. CYCLE    2 ..............................
........................................................................

 iter      E             dE          RMSdq      gap      omega  full diag
   1   -107.2988952 -0.107299E+03  0.103E+00    2.47       0.0  T
   2   -107.3607075 -0.618124E-01  0.629E-01    3.31       1.0  T
   3   -107.3733285 -0.126209E-01  0.263E-01    3.32       1.0  T
   4   -107.3731579  0.170575E-03  0.149E-01    3.32       1.0  T
   5   -107.3736162 -0.458324E-03  0.559E-02    3.32       1.0  T
   6   -107.3737461 -0.129890E-03  0.212E-02    3.32       1.0  T
   7   -107.3737660 -0.198861E-04  0.618E-03    3.32       2.0  T
   8   -107.3737668 -0.746145E-06  0.279E-03    3.32       4.4  T
   9   -107.3737669 -0.142231E-06  0.112E-03    3.32      10.8  T
  10   -107.3737669 -0.196694E-07  0.327E-04    3.32      37.1  T
  11   -107.3737669 -0.231152E-08  0.138E-04    3.32      88.1  T
     SCC iter.                  ...        0 min,  0.066 sec
     gradient                   ...        0 min,  0.006 sec
 * total energy  :  -106.0924300 Eh     change       -0.5744891E+00 Eh
   gradient norm :     0.6757911 Eh/α   predicted    -0.5963557E+00 (   3.81%)
   displ. norm   :     0.6564963 α      lambda       -0.3974751E+00
   maximum displ.:     0.1548617 α      in ANC's #119, #136, #194, ...

........................................................................
.............................. CYCLE    3 ..............................
........................................................................

 iter      E             dE          RMSdq      gap      omega  full diag
   1   -107.5987985 -0.107599E+03  0.646E-01    3.62       0.0  T
   2   -107.6137831 -0.149846E-01  0.358E-01    3.82       1.0  T
   3   -107.6151141 -0.133101E-02  0.195E-01    3.84       1.0  T
   4   -107.6150337  0.804424E-04  0.662E-02    3.83       1.0  T
   5   -107.6152116 -0.177948E-03  0.164E-02    3.84       1.0  T
   6   -107.6152187 -0.709891E-05  0.766E-03    3.84       1.6  T
   7   -107.6152199 -0.123777E-05  0.278E-03    3.84       4.4  T
   8   -107.6152200 -0.645346E-07  0.103E-03    3.84      11.7  T
   9   -107.6152200 -0.144137E-07  0.357E-04    3.84      34.0  T
  10   -107.6152200 -0.720277E-09  0.145E-04    3.84      83.8  T
     SCC iter.                  ...        0 min,  0.068 sec
     gradient                   ...        0 min,  0.006 sec
 * total energy  :  -106.3984264 Eh     change       -0.3059965E+00 Eh
   gradient norm :     0.3420720 Eh/α   predicted    -0.2843915E+00 (  -7.06%)
   displ. norm   :     0.6535970 α      lambda       -0.1976876E+00
   maximum displ.:     0.2012226 α      in ANC's #119, #130, #118, ...

........................................................................
.............................. CYCLE    4 ..............................
........................................................................

 iter      E             dE          RMSdq      gap      omega  full diag
   1   -107.7510844 -0.107751E+03  0.524E-01    4.05       0.0  T
   2   -107.7559790 -0.489460E-02  0.300E-01    4.14       1.0  T
   3   -107.7562520 -0.273018E-03  0.153E-01    4.15       1.0  T
   4   -107.7563159 -0.639473E-04  0.286E-02    4.14       1.0  T
   5   -107.7563446 -0.286760E-04  0.993E-03    4.15       1.2  T
   6   -107.7563455 -0.875008E-06  0.325E-03    4.15       3.7  T
   7   -107.7563456 -0.727469E-07  0.135E-03    4.15       9.0  T
   8   -107.7563456 -0.210420E-07  0.380E-04    4.15      31.9  T
   9   -107.7563456 -0.132921E-08  0.168E-04    4.15      72.2  T
     SCC iter.                  ...        0 min,  0.054 sec
     gradient                   ...        0 min,  0.006 sec
 * total energy  :  -106.5294703 Eh     change       -0.1310439E+00 Eh
   gradient norm :     0.1351084 Eh/α   predicted    -0.1410692E+00 (   7.65%)
   displ. norm   :     0.5678725 α      lambda       -0.5533332E-01
   maximum displ.:     0.1783682 α      in ANC's #24, #96, #87, ...

........................................................................
.............................. CYCLE    5 ..............................
........................................................................

 iter      E             dE          RMSdq      gap      omega  full diag
   1   -107.7719304 -0.107772E+03  0.377E-01    4.11       0.0  T
   2   -107.7726386 -0.708117E-03  0.223E-01    4.12       1.0  T
   3   -107.7725949  0.436376E-04  0.801E-02    4.10       1.0  T
   4   -107.7727403 -0.145396E-03  0.110E-02    4.11       1.1  T
   5   -107.7727439 -0.358421E-05  0.526E-03    4.11       2.3  T
   6   -107.7727441 -0.169391E-06  0.166E-03    4.11       7.3  T
   7   -107.7727441 -0.237191E-07  0.590E-04    4.11      20.6  T
   8   -107.7727441 -0.410979E-08  0.221E-04    4.11      54.9  T
     SCC iter.                  ...        0 min,  0.045 sec
     gradient                   ...        0 min,  0.006 sec
 * total energy  :  -106.5615569 Eh     change       -0.3208659E-01 Eh
   gradient norm :     0.0705839 Eh/α   predicted    -0.3658859E-01 (  14.03%)
   displ. norm   :     0.3973461 α      lambda       -0.1380401E-01
   maximum displ.:     0.1041643 α      in ANC's #22, #23, #42, ...

........................................................................
.............................. CYCLE    6 ..............................
........................................................................

 iter      E             dE          RMSdq      gap      omega  full diag
   1   -107.7919333 -0.107792E+03  0.197E-01    4.13       0.0  T
   2   -107.7920916 -0.158340E-03  0.116E-01    4.11       1.0  T
   3   -107.7920850  0.661566E-05  0.351E-02    4.12       1.0  T
   4   -107.7921109 -0.259160E-04  0.524E-03    4.12       2.3  T
   5   -107.7921114 -0.504019E-06  0.252E-03    4.12       4.8  T
   6   -107.7921115 -0.623212E-07  0.838E-04    4.12      14.5  T
   7   -107.7921115 -0.499507E-08  0.302E-04    4.12      40.1  T
     SCC iter.                  ...        0 min,  0.041 sec
     gradient                   ...        0 min,  0.005 sec
 * total energy  :  -106.5694690 Eh     change       -0.7912097E-02 Eh
   gradient norm :     0.0416731 Eh/α   predicted    -0.7991820E-02 (   1.01%)
   displ. norm   :     0.3525499 α      lambda       -0.5498826E-02
   maximum displ.:     0.1278269 α      in ANC's #26, #15, #19, ...

........................................................................
.............................. CYCLE    7 ..............................
........................................................................

 iter      E             dE          RMSdq      gap      omega  full diag
   1   -107.8054090 -0.107805E+03  0.160E-01    4.07       0.0  T
   2   -107.8054961 -0.871762E-04  0.938E-02    4.09       1.0  T
   3   -107.8054839  0.121985E-04  0.303E-02    4.08       1.0  T
   4   -107.8055107 -0.267786E-04  0.371E-03    4.09       3.3  T
   5   -107.8055109 -0.229451E-06  0.180E-03    4.09       6.7  T
   6   -107.8055110 -0.287315E-07  0.645E-04    4.09      18.8  T
   7   -107.8055110 -0.361544E-08  0.217E-04    4.09      55.9  T
     SCC iter.                  ...        0 min,  0.033 sec
     gradient                   ...        0 min,  0.008 sec
 * total energy  :  -106.5715313 Eh     change       -0.2062345E-02 Eh
   gradient norm :     0.0364398 Eh/α   predicted    -0.3091142E-02 (  49.88%)
   displ. norm   :     0.3372240 α      lambda       -0.4769962E-02
   maximum displ.:     0.1469622 α      in ANC's #23, #22, #27, ...

........................................................................
.............................. CYCLE    8 ..............................
........................................................................

 iter      E             dE          RMSdq      gap      omega  full diag
   1   -107.8004959 -0.107800E+03  0.160E-01    4.05       0.0  T
   2   -107.8006651 -0.169213E-03  0.954E-02    4.07       1.0  T
   3   -107.8006629  0.217036E-05  0.366E-02    4.06       1.0  T
   4   -107.8006837 -0.207799E-04  0.480E-03    4.06       2.5  T
   5   -107.8006846 -0.875197E-06  0.203E-03    4.06       6.0  T
   6   -107.8006846 -0.310176E-07  0.644E-04    4.06      18.8  T
   7   -107.8006846 -0.355359E-08  0.244E-04    4.06      49.6  T
     SCC iter.                  ...        0 min,  0.032 sec
     gradient                   ...        0 min,  0.004 sec
 * total energy  :  -106.5712219 Eh     change        0.3094733E-03 Eh
   gradient norm :     0.0475688 Eh/α   predicted    -0.2656202E-02 (-958.30%)
   displ. norm   :     0.1814300 α      lambda       -0.4343643E-02
   maximum displ.:     0.0541599 α      in ANC's #18, #27, #23, ...

........................................................................
.............................. CYCLE    9 ..............................
........................................................................

 iter      E             dE          RMSdq      gap      omega  full diag
   1   -107.8121297 -0.107812E+03  0.106E-01    4.10       0.0  T
   2   -107.8122171 -0.874041E-04  0.625E-02    4.09       1.0  T
   3   -107.8122176 -0.507083E-06  0.264E-02    4.09       1.0  T
   4   -107.8122287 -0.111705E-04  0.333E-03    4.09       3.6  T
   5   -107.8122291 -0.332406E-06  0.140E-03    4.09       8.7  T
   6   -107.8122291 -0.261106E-07  0.507E-04    4.09      23.9  T
   7   -107.8122291 -0.137187E-08  0.180E-04    4.09      67.2  T
     SCC iter.                  ...        0 min,  0.031 sec
     gradient                   ...        0 min,  0.005 sec
 * total energy  :  -106.5732695 Eh     change       -0.2047624E-02 Eh
   gradient norm :     0.0154135 Eh/α   predicted    -0.2243313E-02 (   9.56%)
   displ. norm   :     0.1168471 α      lambda       -0.7303401E-03
   maximum displ.:     0.0448413 α      in ANC's #24, #44, #4, ...

........................................................................
.............................. CYCLE   10 ..............................
........................................................................

 iter      E             dE          RMSdq      gap      omega  full diag
   1   -107.8111337 -0.107811E+03  0.549E-02    4.09       0.0  T
   2   -107.8111407 -0.693937E-05  0.322E-02    4.09       1.0  T
   3   -107.8111400  0.666081E-06  0.708E-03    4.09       1.7  T
   4   -107.8111416 -0.165115E-05  0.143E-03    4.09       8.5  T
   5   -107.8111417 -0.319345E-07  0.677E-04    4.09      17.9  T
   6   -107.8111417 -0.359398E-08  0.218E-04    4.09      55.5  T
     SCC iter.                  ...        0 min,  0.027 sec
     gradient                   ...        0 min,  0.005 sec
 * total energy  :  -106.5734543 Eh     change       -0.1848306E-03 Eh
   gradient norm :     0.0120032 Eh/α   predicted    -0.3701595E-03 ( 100.27%)
   displ. norm   :     0.0900251 α      lambda       -0.3827915E-03
   maximum displ.:     0.0330973 α      in ANC's #15, #9, #19, ...

........................................................................
.............................. CYCLE   11 ..............................
........................................................................

 iter      E             dE          RMSdq      gap      omega  full diag
   1   -107.8120806 -0.107812E+03  0.335E-02    4.09       0.0  T
   2   -107.8120842 -0.362262E-05  0.195E-02    4.08       1.0  T
   3   -107.8120841  0.161259E-06  0.512E-03    4.08       2.4  T
   4   -107.8120846 -0.572485E-06  0.861E-04    4.08      14.1  T
   5   -107.8120846 -0.126257E-07  0.425E-04    4.08      28.5  T
     SCC iter.                  ...        0 min,  0.028 sec
     gradient                   ...        0 min,  0.004 sec
 * total energy  :  -106.5736594 Eh     change       -0.2050853E-03 Eh
   gradient norm :     0.0069877 Eh/α   predicted    -0.1929546E-03 (  -5.91%)
   displ. norm   :     0.0966982 α      lambda       -0.1905488E-03
   maximum displ.:     0.0386791 α      in ANC's #15, #10, #9, ...

........................................................................
.............................. CYCLE   12 ..............................
........................................................................

 iter      E             dE          RMSdq      gap      omega  full diag
   1   -107.8121409 -0.107812E+03  0.282E-02    4.08       0.0  T
   2   -107.8121450 -0.415358E-05  0.166E-02    4.08       1.0  T
   3   -107.8121450 -0.460957E-09  0.536E-03    4.07       2.3  T
   4   -107.8121454 -0.363849E-06  0.855E-04    4.07      14.2  T
   5   -107.8121454 -0.176417E-07  0.414E-04    4.07      29.3  T
     SCC iter.                  ...        0 min,  0.022 sec
     gradient                   ...        0 min,  0.005 sec
 * total energy  :  -106.5737455 Eh     change       -0.8606908E-04 Eh
   gradient norm :     0.0057869 Eh/α   predicted    -0.9616955E-04 (  11.74%)
   displ. norm   :     0.0859377 α      lambda       -0.1071690E-03
   maximum displ.:     0.0360816 α      in ANC's #15, #17, #7, ...

........................................................................
.............................. CYCLE   13 ..............................
........................................................................

 iter      E             dE          RMSdq      gap      omega  full diag
   1   -107.8129148 -0.107813E+03  0.201E-02    4.07       0.0  T
   2   -107.8129163 -0.153401E-05  0.119E-02    4.07       1.0  T
   3   -107.8129163  0.906227E-07  0.344E-03    4.07       3.5  T
   4   -107.8129165 -0.278576E-06  0.602E-04    4.07      20.2  T
   5   -107.8129165 -0.719810E-08  0.311E-04    4.07      38.9  T
     SCC iter.                  ...        0 min,  0.023 sec
     gradient                   ...        0 min,  0.004 sec
 * total energy  :  -106.5738061 Eh     change       -0.6065414E-04 Eh
   gradient norm :     0.0044194 Eh/α   predicted    -0.5398147E-04 ( -11.00%)
   displ. norm   :     0.0937262 α      lambda       -0.8248611E-04
   maximum displ.:     0.0385054 α      in ANC's #15, #7, #17, ...

........................................................................
.............................. CYCLE   14 ..............................
........................................................................

 iter      E             dE          RMSdq      gap      omega  full diag
   1   -107.8130506 -0.107813E+03  0.203E-02    4.07       0.0  T
   2   -107.8130516 -0.106698E-05  0.119E-02    4.07       1.0  T
   3   -107.8130516  0.274638E-07  0.279E-03    4.07       4.3  T
   4   -107.8130518 -0.167038E-06  0.584E-04    4.07      20.8  T
   5   -107.8130518 -0.417758E-08  0.272E-04    4.07      44.6  T
     SCC iter.                  ...        0 min,  0.022 sec
     gradient                   ...        0 min,  0.005 sec
 * total energy  :  -106.5738427 Eh     change       -0.3662011E-04 Eh
   gradient norm :     0.0041076 Eh/α   predicted    -0.4160865E-04 (  13.62%)
   displ. norm   :     0.0403436 α      lambda       -0.3333985E-04
   maximum displ.:     0.0169252 α      in ANC's #17, #31, #5, ...

........................................................................
.............................. CYCLE   15 ..............................
........................................................................

 iter      E             dE          RMSdq      gap      omega  full diag
   1   -107.8125615 -0.107813E+03  0.111E-02    4.06       0.0  T
   2   -107.8125623 -0.710300E-06  0.648E-03    4.06       1.9  T
   3   -107.8125623 -0.107590E-09  0.228E-03    4.06       5.3  T
   4   -107.8125623 -0.650214E-07  0.319E-04    4.06      38.0  T
   5   -107.8125623 -0.245778E-08  0.157E-04    4.06      77.1  T
     SCC iter.                  ...        0 min,  0.022 sec
     gradient                   ...        0 min,  0.004 sec
 * total energy  :  -106.5738615 Eh     change       -0.1874693E-04 Eh
   gradient norm :     0.0025951 Eh/α   predicted    -0.1669988E-04 ( -10.92%)
   displ. norm   :     0.0472305 α      lambda       -0.2650090E-04
   maximum displ.:     0.0213606 α      in ANC's #17, #5, #3, ...

........................................................................
.............................. CYCLE   16 ..............................
........................................................................

 iter      E             dE          RMSdq      gap      omega  full diag
   1   -107.8125199 -0.107813E+03  0.111E-02    4.06       0.0  T
   2   -107.8125203 -0.442469E-06  0.654E-03    4.06       1.9  T
   3   -107.8125203  0.537455E-07  0.215E-03    4.06       5.6  T
   4   -107.8125204 -0.125763E-06  0.303E-04    4.06      40.0  T
   5   -107.8125204 -0.173613E-08  0.150E-04    4.06      80.8  T
     SCC iter.                  ...        0 min,  0.022 sec
     gradient                   ...        0 min,  0.005 sec
 * total energy  :  -106.5738748 Eh     change       -0.1328244E-04 Eh
   gradient norm :     0.0020062 Eh/α   predicted    -0.1328272E-04 (   0.00%)
   displ. norm   :     0.0360131 α      lambda       -0.1343746E-04
   maximum displ.:     0.0139301 α      in ANC's #3, #17, #5, ...

........................................................................
.............................. CYCLE   17 ..............................
........................................................................

 iter      E             dE          RMSdq      gap      omega  full diag
   1   -107.8124827 -0.107812E+03  0.767E-03    4.07       0.0  T
   2   -107.8124829 -0.131121E-06  0.451E-03    4.07       2.7  T
   3   -107.8124828  0.246826E-07  0.114E-03    4.07      10.6  T
   4   -107.8124829 -0.468199E-07  0.197E-04    4.07      61.7  T
   5   -107.8124829 -0.534655E-09  0.100E-04    4.07     121.0  T
     SCC iter.                  ...        0 min,  0.024 sec
     gradient                   ...        0 min,  0.016 sec
 * total energy  :  -106.5738815 Eh     change       -0.6750904E-05 Eh
   gradient norm :     0.0016767 Eh/α   predicted    -0.6729706E-05 (  -0.31%)
   displ. norm   :     0.0508744 α      lambda       -0.9668363E-05
   maximum displ.:     0.0234309 α      in ANC's #3, #5, #17, ...

........................................................................
.............................. CYCLE   18 ..............................
........................................................................

 iter      E             dE          RMSdq      gap      omega  full diag
   1   -107.8127334 -0.107813E+03  0.945E-03    4.07       0.0  T
   2   -107.8127335 -0.167936E-06  0.555E-03    4.07       2.2  T
   3   -107.8127335  0.215124E-07  0.122E-03    4.07       9.9  T
   4   -107.8127336 -0.490819E-07  0.264E-04    4.07      46.0  T
   5   -107.8127336 -0.947537E-09  0.120E-04    4.07     101.3  T
     SCC iter.                  ...        0 min,  0.022 sec
     gradient                   ...        0 min,  0.005 sec
 * total energy  :  -106.5738868 Eh     change       -0.5296279E-05 Eh
   gradient norm :     0.0017381 Eh/α   predicted    -0.4844084E-05 (  -8.54%)
   displ. norm   :     0.0341739 α      lambda       -0.7311818E-05
   maximum displ.:     0.0183370 α      in ANC's #3, #17, #15, ...

........................................................................
.............................. CYCLE   19 ..............................
........................................................................

 iter      E             dE          RMSdq      gap      omega  full diag
   1   -107.8125424 -0.107813E+03  0.759E-03    4.07       0.0  T
   2   -107.8125427 -0.287902E-06  0.442E-03    4.07       2.7  T
   3   -107.8125427  0.589294E-08  0.154E-03    4.07       7.9  T
   4   -107.8125427 -0.397563E-07  0.238E-04    4.07      50.9  T
   5   -107.8125427 -0.111406E-08  0.112E-04    4.07     108.8  T
     SCC iter.                  ...        0 min,  0.022 sec
     gradient                   ...        0 min,  0.004 sec
 * total energy  :  -106.5738903 Eh     change       -0.3506738E-05 Eh
   gradient norm :     0.0014836 Eh/α   predicted    -0.3660732E-05 (   4.39%)
   displ. norm   :     0.0172397 α      lambda       -0.4863690E-05
   maximum displ.:     0.0071684 α      in ANC's #3, #9, #2, ...

........................................................................
.............................. CYCLE   20 ..............................
........................................................................

 iter      E             dE          RMSdq      gap      omega  full diag
   1   -107.8128028 -0.107813E+03  0.527E-03    4.07       0.0  T
   2   -107.8128030 -0.164478E-06  0.310E-03    4.07       3.9  T
   3   -107.8128030  0.200785E-09  0.116E-03    4.07      10.4  T
   4   -107.8128030 -0.201408E-07  0.148E-04    4.07      81.8  T
   5   -107.8128030 -0.463260E-09  0.738E-05    4.07     164.3  T
     SCC iter.                  ...        0 min,  0.022 sec
     gradient                   ...        0 min,  0.005 sec
 * total energy  :  -106.5738930 Eh     change       -0.2642409E-05 Eh
   gradient norm :     0.0011308 Eh/α   predicted    -0.2433907E-05 (  -7.89%)
   displ. norm   :     0.0142404 α      lambda       -0.2877657E-05
   maximum displ.:     0.0064761 α      in ANC's #3, #2, #9, ...
 * RMSD in coord.:     0.3168564 α      energy gain  -0.1055952E+01 Eh

generating ANC from exact Hessian ...
Using Lindh-Hessian (1995)
 Shifting diagonal of input Hessian by    9.6280397056428494E-003
 Lowest  eigenvalues of input Hessian
    0.000000    0.000000    0.000000    0.000000    0.000000    0.000000
    0.010000    0.010241    0.010743    0.011185    0.011492    0.011593
    0.011878    0.012335    0.012745    0.013371    0.013512    0.014034
 Highest eigenvalues
    2.289104    2.318822    2.319651    2.322844    2.339754    2.350683


........................................................................
.............................. CYCLE   21 ..............................
........................................................................

 iter      E             dE          RMSdq      gap      omega  full diag
   1   -107.8129035 -0.107813E+03  0.425E-03    4.07       0.0  T
   2   -107.8129036 -0.567599E-07  0.250E-03    4.07       4.9  T
   3   -107.8129035  0.621209E-08  0.708E-04    4.07      17.1  T
   4   -107.8129036 -0.139507E-07  0.114E-04    4.07     106.6  T
     SCC iter.                  ...        0 min,  0.013 sec
     gradient                   ...        0 min,  0.005 sec
 * total energy  :  -106.5738947 Eh     change       -0.1701941E-05 Eh
   gradient norm :     0.0008483 Eh/α   predicted     0.0000000E+00 (-100.00%)
   displ. norm   :     0.0098130 α      lambda       -0.1596179E-05
   maximum displ.:     0.0048194 α      in ANC's #3, #15, #13, ...

   *** GEOMETRY OPTIMIZATION CONVERGED AFTER 21 ITERATIONS ***

------------------------------------------------------------------------
 total energy gain   :        -1.0559538 Eh     -662.6210 kcal/mol
 total RMSD          :         0.3168564 a0        0.1677 Å
 total power (kW/mol):      -132.0193501 (step)-2993.0335 (real)
------------------------------------------------------------------------

 ANCopt (total)                0 d,  0 h,  0 min,  0.926 sec
 optimizer setup                ...        0 min,  0.000 sec (  0.017%)
 model hessian                  ...        0 min,  0.053 sec (  5.757%)
 ANC generation                 ...        0 min,  0.011 sec (  1.228%)
 coordinate transformation      ...        0 min,  0.001 sec (  0.065%)
 single point calculation       ...        0 min,  0.837 sec ( 90.329%)
 optimization log               ...        0 min,  0.004 sec (  0.404%)
 hessian update                 ...        0 min,  0.000 sec (  0.050%)
 rational function              ...        0 min,  0.005 sec (  0.555%)

================
 final structure:
================
68
 xtb: 6.7.1-6.fc44.fc44
O            1.09643466231850       -0.43179447022128        1.27357995195798
O            0.86594902498451       -0.82936318302105       -1.71613758104252
O           -3.25229683018605       -2.56445130352935        0.14780081064754
O           -3.24466422365004        3.17295816971690        0.16432902109172
O           -1.30489651609425        1.62808405306586       -1.44623254597580
O            2.13935578674529        2.81664626808770        1.25143698189719
N            0.42030531615670       -2.54664972759067       -0.37466756063056
N           -2.23009948013079       -0.88892515222345       -0.96785380319225
N           -3.83903033063035        1.02004075180143        0.21443989435913
N           -0.60410609451311        2.27025617085605        0.59920977321093
N            1.92434828137711        1.71715390245349       -0.71153365748644
N            3.20064346002430       -0.49711696363666        0.49729026127933
C            1.98185197145516       -1.03130884987366        0.69043376400100
C            1.77386152120335       -2.45338507691693        0.15621286129080
C            1.82828947577118       -3.49315155179786        1.28226641672909
C            0.35765466955459       -3.67438265261995        1.65409056686652
C           -0.34104695548787       -3.57782621610600        0.30210625289790
C            0.05560421647659       -1.65030197083187       -1.29837340559771
C           -1.38859919427170       -1.71579718080506       -1.81239174602817
C           -1.45270217961260       -1.19466557125718       -3.24372481645477
C           -3.09343793960256       -1.37359652954116       -0.07788122121162
C           -3.90039088499218       -0.32924496875149        0.72434604551687
C           -5.35876894013198       -0.78271684839602        0.78509366102395
C           -2.99867635623997        2.03865967448058        0.51141592668746
C           -1.73272420023774        1.70669281169240        1.31595560719694
C           -1.82255581273132        2.34469962285871        2.69667406710587
C           -0.45986709668900        2.12788305593365       -0.71788387553572
C            0.90074294913937        2.60564768407263       -1.24119753118157
C            0.94535330208293        2.57850410750568       -2.75975073506457
C            2.41533060353860        1.87466296203609        0.52700349020276
C            3.48005003148250        0.86079695463298        0.94203373220434
C            4.83392537242874        1.18827764660680        0.30554700876444
C            5.50756188711420       -0.17750105776430        0.21987019668254
C            4.35014477174730       -1.10357986051235       -0.15026651292828
H            2.48563807161202       -2.65940913592865       -0.64824020034642
H            2.24630855052725       -4.42904580178029        0.90800119001588
H            2.43162510142043       -3.14992094208353        2.12133897682289
H            0.16069040276751       -4.61621720018943        2.16088006592326
H            0.03583936434395       -2.84933715052411        2.28931627330806
H           -0.24207621434313       -4.52224442040409       -0.25005680166609
H           -1.39704834316224       -3.32734750318405        0.38996860758218
H           -2.10308826390350        0.11899713967185       -1.09917121352943
H           -1.75839404202774       -2.74423784522962       -1.75147521974733
H           -2.46550591532486       -1.28202154551658       -3.62727536031496
H           -0.77830259760099       -1.75971255370087       -3.88170566586514
H           -1.15709923793641       -0.14878570127196       -3.25350601518979
H           -4.61152961879526        1.29590608845804       -0.37785557583527
H           -3.49068665108314       -0.35263209730770        1.74220270190911
H           -5.92588159856356       -0.15566238126797        1.46829577427815
H           -5.39732459919659       -1.81381461150139        1.12512475115197
H           -5.80857789763644       -0.73055527971175       -0.20455405348580
H            0.15868060559121        2.65746705772105        1.14386159752592
H           -1.58084695485779        0.62365679739812        1.40060775147884
H           -2.62963029163840        1.89480273572288        3.27021048829178
H           -2.01808248427051        3.40936536186174        2.59092312651104
H           -0.88687301351769        2.20144267763726        3.23210570311783
H            1.94818973586890        0.80513964032263       -1.15594965054063
H            1.10187087238415        3.60877159373789       -0.84903531606560
H            0.14275340729464        3.19036944051682       -3.16027498106657
H            0.80623278992579        1.55614561953150       -3.10288102432626
H            1.89951813678398        2.95372795358675       -3.12035557146812
H            3.53697300436402        0.89144402359694        2.03794216555836
H            5.39555899852507        1.90776641637484        0.89568585721701
H            4.67969849550575        1.59692718311095       -0.69449559339192
H            5.91261818504252       -0.45699708499860        1.19290525149052
H            6.30908380206947       -0.20736642023555       -0.51464709607295
H            4.20387676397607       -1.12664983495152       -1.23721792674089
H            4.51405484275570       -2.12154935649417        0.20967335997303

 Bond Distances (Angstroems)
 ---------------------------
O1-C13=1.2180        O2-C18=1.2268        O3-C21=1.2224        O4-C24=1.2115        O5-C27=1.2224        O6-C30=1.2200        
N7-C14=1.4569        N7-C17=1.4495        N7-C18=1.3378        N8-C19=1.4509        N8-C21=1.3313        N8-H42=1.0243        
N9-C22=1.4437        N9-C24=1.3535        N9-H47=1.0118        N10-C25=1.4509       N10-C27=1.3326       N10-H52=1.0141       
N11-C28=1.4552       N11-C30=1.3416       N11-H57=1.0148       N12-C13=1.3447       N12-C31=1.4560       N12-C34=1.4521       
C13-O1=1.2180        C13-N12=1.3447       C13-C14=1.5333       C14-N7=1.4569        C14-C13=1.5333       C14-C15=1.5336       
C14-H35=1.0937       C15-C14=1.5336       C15-C16=1.5277       C15-H36=1.0912       C15-H37=1.0890       C16-C15=1.5277       
C16-C17=1.5249       C16-H38=1.0875       C16-H39=1.0899       C17-N7=1.4495        C17-C16=1.5249       C17-H40=1.0985       
C17-H41=1.0889       C18-O2=1.2268        C18-N7=1.3378        C18-C19=1.5343       C19-N8=1.4509        C19-C18=1.5343       
C19-C20=1.5246       C19-H43=1.0946       C20-C19=1.5246       C20-H44=1.0865       C20-H45=1.0868       C20-H46=1.0869       
C21-O3=1.2224        C21-N8=1.3313        C21-C22=1.5445       C22-N9=1.4437        C22-C21=1.5445       C22-C23=1.5285       
C22-H48=1.0975       C23-C22=1.5285       C23-H49=1.0870       C23-H50=1.0864       C23-H51=1.0883       C24-O4=1.2115        
C24-N9=1.3535        C24-C25=1.5363       C25-N10=1.4509       C25-C24=1.5363       C25-C26=1.5236       C25-H53=1.0969       
C26-C25=1.5236       C26-H54=1.0875       C26-H55=1.0876       C26-H56=1.0875       C27-O5=1.2224        C27-N10=1.3326       
C27-C28=1.5341       C28-N11=1.4552       C28-C27=1.5341       C28-C29=1.5195       C28-H58=1.0957       C29-C28=1.5195       
C29-H59=1.0858       C29-H60=1.0873       C29-H61=1.0869       C30-O6=1.2200        C30-N11=1.3416       C30-C31=1.5277       
C31-N12=1.4560       C31-C30=1.5277       C31-C32=1.5314       C31-H62=1.0978       C32-C31=1.5314       C32-C33=1.5253       
C32-H63=1.0869       C32-H64=1.0913       C33-C32=1.5253       C33-C34=1.5278       C33-H65=1.0904       C33-H66=1.0876       
C34-N12=1.4521       C34-C33=1.5278       C34-H67=1.0970       C34-H68=1.0921       H35-C14=1.0937       H36-C15=1.0912       
H37-C15=1.0890       H38-C16=1.0875       H39-C16=1.0899       H40-C17=1.0985       H41-C17=1.0889       H42-N8=1.0243        
H43-C19=1.0946       H44-C20=1.0865       H45-C20=1.0868       H46-C20=1.0869       H47-N9=1.0118        H48-C22=1.0975       
H49-C23=1.0870       H50-C23=1.0864       H51-C23=1.0883       H52-N10=1.0141       H53-C25=1.0969       H54-C26=1.0875       
H55-C26=1.0876       H56-C26=1.0875       H57-N11=1.0148       H58-C28=1.0957       H59-C29=1.0858       H60-C29=1.0873       
H61-C29=1.0869       H62-C31=1.0978       H63-C32=1.0869       H64-C32=1.0913       H65-C33=1.0904       H66-C33=1.0876       
H67-C34=1.0970       H68-C34=1.0921       
 C  H  Rav=1.0904 sigma=0.0040  Rmin=1.0858  Rmax=1.0985    30
 C  C  Rav=1.5298 sigma=0.0059  Rmin=1.5195  Rmax=1.5445    16
 N  H  Rav=1.0163 sigma=0.0048  Rmin=1.0118  Rmax=1.0243     4
 N  C  Rav=1.4040 sigma=0.0556  Rmin=1.3313  Rmax=1.4569    14
 O  C  Rav=1.2202 sigma=0.0048  Rmin=1.2115  Rmax=1.2268     6

 selected bond angles (degree)
 --------------------
C17-N7-C14=111.31              C18-N7-C14=117.51              C18-N7-C17=130.98              C21-N8-C19=123.90              
H42-N8-C19=114.47              H42-N8-C21=121.62              C24-N9-C22=130.71              H47-N9-C22=115.41              
H47-N9-C24=113.41              C27-N10-C25=122.07             H52-N10-C25=117.91             H52-N10-C27=119.35             

 selected dihedral angles (degree)
 ---------------------------------

           -------------------------------------------------
          |                Final Singlepoint                |
           -------------------------------------------------

          ...................................................
          :                      SETUP                      :
          :.................................................:
          :  # basis functions                 170          :
          :  # atomic orbitals                 170          :
          :  # shells                          102          :
          :  # electrons                       188          :
          :  max. iterations                   250          :
          :  Hamiltonian                  GFN2-xTB          :
          :  restarted?                      false          :
          :  GBSA solvation                  false          :
          :  PC potential                    false          :
          :  electronic temp.          300.0000000     K    :
          :  accuracy                    1.0000000          :
          :  -> integral cutoff          0.2500000E+02      :
          :  -> integral neglect         0.1000000E-07      :
          :  -> SCF convergence          0.1000000E-05 Eh   :
          :  -> wf. convergence          0.1000000E-03 e    :
          :  Broyden damping             0.4000000          :
          :  net charge                          0          :
          :  unpaired electrons                  0          :
          ...................................................

 iter      E             dE          RMSdq      gap      omega  full diag
   1   -107.8129036 -0.107813E+03  0.571E-05    4.07       0.0  T
   2   -107.8129036 -0.202647E-10  0.320E-05    4.07     378.7  T
   3   -107.8129036 -0.194689E-11  0.157E-05    4.07     773.8  T

   *** convergence criteria satisfied after 3 iterations ***

         #    Occupation            Energy/Eh            Energy/eV
      -------------------------------------------------------------
         1        2.0000           -0.7093221             -19.3016
       ...           ...                  ...                  ...
        88        2.0000           -0.4049998             -11.0206
        89        2.0000           -0.3923758             -10.6771
        90        2.0000           -0.3908395             -10.6353
        91        2.0000           -0.3857705             -10.4974
        92        2.0000           -0.3824284             -10.4064
        93        2.0000           -0.3802989             -10.3485
        94        2.0000           -0.3780824             -10.2881 (HOMO)
        95                         -0.2284566              -6.2166 (LUMO)
        96                         -0.2181301              -5.9356
        97                         -0.2153242              -5.8593
        98                         -0.2055671              -5.5938
        99                         -0.2007363              -5.4623
       ...                                ...                  ...
       170                          0.6518515              17.7378
      -------------------------------------------------------------
                  HL-Gap            0.1496258 Eh            4.0715 eV
             Fermi-level           -0.3032695 Eh           -8.2524 eV

 SCC (total)                   0 d,  0 h,  0 min,  0.019 sec
 SCC setup                      ...        0 min,  0.000 sec (  1.002%)
 Dispersion                     ...        0 min,  0.000 sec (  2.567%)
 classical contributions        ...        0 min,  0.000 sec (  0.170%)
 integral evaluation            ...        0 min,  0.002 sec ( 12.384%)
 iterations                     ...        0 min,  0.011 sec ( 56.872%)
 molecular gradient             ...        0 min,  0.005 sec ( 24.624%)
 printout                       ...        0 min,  0.000 sec (  2.333%)

         :::::::::::::::::::::::::::::::::::::::::::::::::::::
         ::                     SUMMARY                     ::
         :::::::::::::::::::::::::::::::::::::::::::::::::::::
         :: total energy            -106.573894676339 Eh    ::
         :: gradient norm              0.000847776186 Eh/a0 ::
         :: HOMO-LUMO gap              4.071523968461 eV    ::
         ::.................................................::
         :: SCC energy              -107.808649368735 Eh    ::
         :: -> isotropic ES            0.232795279666 Eh    ::
         :: -> anisotropic ES         -0.006130217369 Eh    ::
         :: -> anisotropic XC          0.028153401870 Eh    ::
         :: -> dispersion             -0.083974083967 Eh    ::
         :: repulsion energy           1.234754692396 Eh    ::
         :: add. restraining           0.000000000000 Eh    ::
         :: total charge              -0.000000000000 e     ::
         :::::::::::::::::::::::::::::::::::::::::::::::::::::

           -------------------------------------------------
          |                Property Printout                |
           -------------------------------------------------

    * Orbital Energies and Occupations

         #    Occupation            Energy/Eh            Energy/eV
      -------------------------------------------------------------
         1        2.0000           -0.7093221             -19.3016
       ...           ...                  ...                  ...
        82        2.0000           -0.4431651             -12.0591
        83        2.0000           -0.4254241             -11.5764
        84        2.0000           -0.4206466             -11.4464
        85        2.0000           -0.4197787             -11.4228
        86        2.0000           -0.4139550             -11.2643
        87        2.0000           -0.4113765             -11.1941
        88        2.0000           -0.4049998             -11.0206
        89        2.0000           -0.3923758             -10.6771
        90        2.0000           -0.3908395             -10.6353
        91        2.0000           -0.3857705             -10.4974
        92        2.0000           -0.3824284             -10.4064
        93        2.0000           -0.3802989             -10.3485
        94        2.0000           -0.3780824             -10.2881 (HOMO)
        95                         -0.2284566              -6.2166 (LUMO)
        96                         -0.2181301              -5.9356
        97                         -0.2153242              -5.8593
        98                         -0.2055671              -5.5938
        99                         -0.2007363              -5.4623
       100                         -0.1999928              -5.4421
       101                         -0.0311245              -0.8469
       102                         -0.0102268              -0.2783
       103                         -0.0054842              -0.1492
       104                          0.0065295               0.1777
       105                          0.0133583               0.3635
       ...                                ...                  ...
       170                          0.6518515              17.7378
      -------------------------------------------------------------
                  HL-Gap            0.1496258 Eh            4.0715 eV
             Fermi-level           -0.3032695 Eh           -8.2524 eV

     #   Z          covCN         q      C6AA      α(0)
     1   8 O        0.859    -0.453    22.760     6.396
     2   8 O        0.860    -0.475    23.240     6.464
     3   8 O        0.858    -0.467    23.069     6.440
     4   8 O        0.860    -0.424    22.175     6.314
     5   8 O        0.858    -0.450    22.716     6.390
     6   8 O        0.858    -0.450    22.712     6.390
     7   7 N        2.764    -0.085    22.889     7.106
     8   7 N        2.690    -0.188    25.076     7.437
     9   7 N        2.688    -0.191    25.151     7.448
    10   7 N        2.696    -0.165    24.573     7.362
    11   7 N        2.692    -0.182    24.943     7.417
    12   7 N        2.757    -0.106    23.327     7.173
    13   6 C        2.761     0.269    22.455     7.760
    14   6 C        3.836     0.026    20.111     6.380
    15   6 C        3.831    -0.057    21.575     6.609
    16   6 C        3.835    -0.059    21.617     6.615
    17   6 C        3.770    -0.012    20.822     6.503
    18   6 C        2.768     0.261    22.606     7.787
    19   6 C        3.791     0.031    20.065     6.379
    20   6 C        3.758    -0.114    22.742     6.799
    21   6 C        2.751     0.263    22.563     7.778
    22   6 C        3.785     0.019    20.264     6.412
    23   6 C        3.758    -0.113    22.723     6.796
    24   6 C        2.751     0.279    22.281     7.729
    25   6 C        3.793     0.032    20.046     6.376
    26   6 C        3.758    -0.113    22.721     6.796
    27   6 C        2.757     0.275    22.354     7.742
    28   6 C        3.797     0.027    20.122     6.387
    29   6 C        3.757    -0.114    22.743     6.799
    30   6 C        2.754     0.278    22.297     7.732
    31   6 C        3.830     0.022    20.186     6.393
    32   6 C        3.833    -0.063    21.684     6.625
    33   6 C        3.832    -0.063    21.678     6.624
    34   6 C        3.768     0.000    20.610     6.470
    35   1 H        0.924     0.044     2.392     2.419
    36   1 H        0.924     0.043     2.403     2.424
    37   1 H        0.925     0.044     2.399     2.422
    38   1 H        0.925     0.049     2.327     2.386
    39   1 H        0.925     0.062     2.178     2.308
    40   1 H        0.923     0.043     2.408     2.426
    41   1 H        0.925     0.097     1.816     2.108
    42   1 H        0.859     0.234     0.950     1.527
    43   1 H        0.924     0.062     2.180     2.309
    44   1 H        0.925     0.048     2.346     2.395
    45   1 H        0.925     0.047     2.354     2.399
    46   1 H        0.925     0.080     1.975     2.198
    47   1 H        0.860     0.194     1.137     1.670
    48   1 H        0.924     0.059     2.206     2.323
    49   1 H        0.925     0.049     2.328     2.386
    50   1 H        0.925     0.076     2.020     2.222
    51   1 H        0.925     0.048     2.341     2.393
    52   1 H        0.860     0.218     1.021     1.583
    53   1 H        0.924     0.049     2.330     2.387
    54   1 H        0.925     0.046     2.366     2.406
    55   1 H        0.925     0.068     2.111     2.272
    56   1 H        0.925     0.059     2.207     2.323
    57   1 H        0.860     0.215     1.033     1.592
    58   1 H        0.924     0.069     2.102     2.267
    59   1 H        0.925     0.063     2.164     2.300
    60   1 H        0.925     0.071     2.072     2.251
    61   1 H        0.925     0.045     2.379     2.412
    62   1 H        0.924     0.067     2.114     2.274
    63   1 H        0.925     0.059     2.212     2.326
    64   1 H        0.924     0.053     2.288     2.366
    65   1 H        0.924     0.051     2.310     2.377
    66   1 H        0.925     0.053     2.282     2.362
    67   1 H        0.924     0.052     2.296     2.369
    68   1 H        0.924     0.047     2.352     2.398

 Mol. C6AA /au·bohr⁶  :      43608.930502
 Mol. C8AA /au·bohr⁸  :     970179.850937
 Mol. α(0) /au        :        310.411095


Wiberg/Mayer (AO) data.
largest (>0.10) Wiberg bond orders for each atom

 ---------------------------------------------------------------------------
     #   Z sym  total        # sym  WBO       # sym  WBO       # sym  WBO
 ---------------------------------------------------------------------------
     1   8 O    1.992 --    13 C    1.657    12 N    0.195
     2   8 O    1.969 --    18 C    1.612     7 N    0.195
     3   8 O    1.975 --    21 C    1.624     8 N    0.203
     4   8 O    2.014 --    24 C    1.699     9 N    0.193
     5   8 O    2.018 --    27 C    1.613    10 N    0.199
     6   8 O    1.989 --    30 C    1.644    11 N    0.193
     7   7 N    3.524 --    18 C    1.300    17 C    0.977    14 C    0.969
                             2 O    0.195
     8   7 N    3.480 --    21 C    1.324    19 C    0.976    42 H    0.856
                             3 O    0.203
     9   7 N    3.429 --    24 C    1.239    22 C    0.992    47 H    0.927
                             4 O    0.193
    10   7 N    3.486 --    27 C    1.326    25 C    0.975    52 H    0.900
                             5 O    0.199
    11   7 N    3.453 --    30 C    1.291    28 C    0.972    57 H    0.901
                             6 O    0.193
    12   7 N    3.493 --    13 C    1.262    34 C    0.981    31 C    0.966
                             1 O    0.195
    13   6 C    3.954 --     1 O    1.657    12 N    1.262    14 C    0.933
    14   6 C    3.974 --    15 C    0.981     7 N    0.969    35 H    0.957
                            13 C    0.933
    15   6 C    3.994 --    16 C    1.005    14 C    0.981    36 H    0.978
                            37 H    0.978
    16   6 C    3.993 --    15 C    1.005    17 C    1.004    39 H    0.977
                            38 H    0.977
    17   6 C    3.960 --    16 C    1.004     7 N    0.977    40 H    0.966
                            41 H    0.947
    18   6 C    3.950 --     2 O    1.612     7 N    1.300    19 C    0.931
    19   6 C    3.970 --    20 C    1.001     8 N    0.976    43 H    0.956
                            18 C    0.931
    20   6 C    3.988 --    19 C    1.001    44 H    0.985    45 H    0.984
                            46 H    0.977
    21   6 C    3.956 --     3 O    1.624     8 N    1.324    22 C    0.921
    22   6 C    3.968 --    23 C    0.997     9 N    0.992    48 H    0.944
                            21 C    0.921
    23   6 C    3.989 --    22 C    0.997    49 H    0.985    51 H    0.985
                            50 H    0.979
    24   6 C    3.952 --     4 O    1.699     9 N    1.239    25 C    0.932
    25   6 C    3.970 --    26 C    0.998    10 N    0.975    53 H    0.952
                            24 C    0.932
    26   6 C    3.990 --    25 C    0.998    54 H    0.984    55 H    0.983
                            56 H    0.981
    27   6 C    3.950 --     5 O    1.613    10 N    1.326    28 C    0.926
    28   6 C    3.966 --    29 C    1.009    11 N    0.972    58 H    0.952
                            27 C    0.926
    29   6 C    3.989 --    28 C    1.009    61 H    0.986    59 H    0.982
                            60 H    0.979
    30   6 C    3.955 --     6 O    1.644    11 N    1.291    31 C    0.938
    31   6 C    3.966 --    32 C    0.980    12 N    0.966    62 H    0.955
                            30 C    0.938
    32   6 C    3.992 --    33 C    1.004    31 C    0.980    63 H    0.977
                            64 H    0.976
    33   6 C    3.994 --    32 C    1.004    34 C    1.003    65 H    0.979
                            66 H    0.977
    34   6 C    3.973 --    33 C    1.003    12 N    0.981    68 H    0.971
                            67 H    0.966
    35   1 H    0.998 --    14 C    0.957
    36   1 H    0.998 --    15 C    0.978
    37   1 H    0.998 --    15 C    0.978
    38   1 H    0.996 --    16 C    0.977
    39   1 H    0.996 --    16 C    0.977
    40   1 H    0.998 --    17 C    0.966
    41   1 H    0.990 --    17 C    0.947
    42   1 H    0.945 --     8 N    0.856
    43   1 H    0.996 --    19 C    0.956
    44   1 H    0.997 --    20 C    0.985
    45   1 H    0.997 --    20 C    0.984
    46   1 H    0.993 --    20 C    0.977
    47   1 H    0.962 --     9 N    0.927
    48   1 H    0.996 --    22 C    0.944
    49   1 H    0.997 --    23 C    0.985
    50   1 H    0.993 --    23 C    0.979
    51   1 H    0.998 --    23 C    0.985
    52   1 H    0.953 --    10 N    0.900
    53   1 H    0.998 --    25 C    0.952
    54   1 H    0.997 --    26 C    0.984
    55   1 H    0.995 --    26 C    0.983
    56   1 H    0.996 --    26 C    0.981
    57   1 H    0.954 --    11 N    0.901
    58   1 H    0.995 --    28 C    0.952
    59   1 H    0.995 --    29 C    0.982
    60   1 H    0.995 --    29 C    0.979
    61   1 H    0.997 --    29 C    0.986
    62   1 H    0.995 --    31 C    0.955
    63   1 H    0.996 --    32 C    0.977
    64   1 H    0.997 --    32 C    0.976
    65   1 H    0.997 --    33 C    0.979
    66   1 H    0.996 --    33 C    0.977
    67   1 H    0.997 --    34 C    0.966
    68   1 H    0.997 --    34 C    0.971
 ---------------------------------------------------------------------------

Topologies differ in total number of bonds
Writing topology from bond orders to xtbtopo.mol

molecular dipole:
                 x           y           z       tot (Debye)
 q only:        2.019      -1.800       0.013
   full:        2.296      -2.195       0.053       8.074
molecular quadrupole (traceless):
                xx          xy          yy          xz          yz          zz
 q only:       21.215      -3.602     -18.047      -6.611      -3.793      -3.169
  q+dip:       21.985      -6.684     -19.841      -5.436      -1.993      -2.144
   full:       22.554      -6.769     -20.626      -5.934      -2.413      -1.928

           -------------------------------------------------
          |                Geometry Summary                 |
           -------------------------------------------------

      molecular mass/u    :      478.5428241
   center of mass at/Å    :        0.0029415       0.0064156      -0.0138335
  moments of inertia/u·Å² :        0.2792089E+04   0.4236817E+04   0.5421619E+04
rotational constants/cm⁻¹ :        0.6037642E-02   0.3978844E-02   0.3109336E-02

 * 64 selected distances

     #   Z          #   Z                                           value/Å
     1   8 O       13   6 C                                       1.2179659
    12   7 N       13   6 C                                       1.3446629
     7   7 N       14   6 C                                       1.4569307
    14   6 C       15   6 C                                       1.5336472 (max)
    15   6 C       16   6 C                                       1.5276993
     7   7 N       17   6 C                                       1.4494845
    16   6 C       17   6 C                                       1.5249161
     2   8 O       18   6 C                                       1.2268359
     7   7 N       18   6 C                                       1.3377889
     8   7 N       19   6 C                                       1.4508910
    19   6 C       20   6 C                                       1.5245990
     3   8 O       21   6 C                                       1.2224172
     8   7 N       21   6 C                                       1.3312818
     9   7 N       22   6 C                                       1.4437250
    22   6 C       23   6 C                                       1.5284613
     4   8 O       24   6 C                                       1.2114507
     9   7 N       24   6 C                                       1.3535045
    10   7 N       25   6 C                                       1.4508988
    25   6 C       26   6 C                                       1.5236490
     5   8 O       27   6 C                                       1.2224426
    10   7 N       27   6 C                                       1.3325956
    11   7 N       28   6 C                                       1.4552434
    28   6 C       29   6 C                                       1.5194509
     6   8 O       30   6 C                                       1.2199585
    11   7 N       30   6 C                                       1.3415839
    12   7 N       31   6 C                                       1.4559517
    31   6 C       32   6 C                                       1.5314496
    32   6 C       33   6 C                                       1.5252798
    12   7 N       34   6 C                                       1.4520608
    33   6 C       34   6 C                                       1.5278213
    14   6 C       35   1 H                                       1.0937169
    15   6 C       36   1 H                                       1.0911978
    15   6 C       37   1 H                                       1.0889739
    16   6 C       38   1 H                                       1.0875123
    16   6 C       39   1 H                                       1.0898519
    17   6 C       40   1 H                                       1.0984558
    17   6 C       41   1 H                                       1.0888519
     8   7 N       42   1 H                                       1.0243455
    19   6 C       43   1 H                                       1.0946001
    20   6 C       44   1 H                                       1.0865145
    20   6 C       45   1 H                                       1.0867901
    20   6 C       46   1 H                                       1.0868954
     9   7 N       47   1 H                                       1.0117663 (min)
    22   6 C       48   1 H                                       1.0974684
    23   6 C       49   1 H                                       1.0870048
    23   6 C       50   1 H                                       1.0864025
    23   6 C       51   1 H                                       1.0883252
    10   7 N       52   1 H                                       1.0141112
    25   6 C       53   1 H                                       1.0969047
    26   6 C       54   1 H                                       1.0875296
    26   6 C       55   1 H                                       1.0876246
    26   6 C       56   1 H                                       1.0875257
    11   7 N       57   1 H                                       1.0148124
    28   6 C       58   1 H                                       1.0956740
    29   6 C       59   1 H                                       1.0858019
    29   6 C       60   1 H                                       1.0873408
    29   6 C       61   1 H                                       1.0868576
    31   6 C       62   1 H                                       1.0978137
    32   6 C       63   1 H                                       1.0869041
    32   6 C       64   1 H                                       1.0912680
    33   6 C       65   1 H                                       1.0904064
    33   6 C       66   1 H                                       1.0875869
    34   6 C       67   1 H                                       1.0969914
    34   6 C       68   1 H                                       1.0921013

 * 5 distinct bonds (by element types)

   Z      Z             #   av. dist./Å        max./Å        min./Å
   1 H    6 C          30     1.0903631     1.0984558     1.0858019
   6 C    6 C          10     1.5266974     1.5336472     1.5194509
   1 H    7 N           4     1.0162588     1.0243455     1.0117663
   6 C    7 N          14     1.4040431     1.4569307     1.3312818
   6 C    8 O           6     1.2201785     1.2268359     1.2114507


optimized geometry written to: xtbopt.xyz


           -------------------------------------------------
          | TOTAL ENERGY             -106.573894676339 Eh   |
          | GRADIENT NORM               0.000847776186 Eh/α |
          | HOMO-LUMO GAP               4.071523968461 eV   |
           -------------------------------------------------

------------------------------------------------------------------------
 * finished run on 2026/10/01 at 17:51:25.541     
------------------------------------------------------------------------
 total:
 * wall-time:     0 d,  0 h,  0 min,  1.031 sec
 *  cpu-time:     0 d,  0 h,  0 min, 15.516 sec
 * ratio c/w:    15.055 speedup
 SCF:
 * wall-time:     0 d,  0 h,  0 min,  0.062 sec
 *  cpu-time:     0 d,  0 h,  0 min,  0.967 sec
 * ratio c/w:    15.519 speedup
 ANC optimizer:
 * wall-time:     0 d,  0 h,  0 min,  0.947 sec
 *  cpu-time:     0 d,  0 h,  0 min, 14.266 sec
 * ratio c/w:    15.057 speedup


--- STDERR ---
normal termination of xtb
Note: The following floating-point exceptions are signalling: IEEE_UNDERFLOW_FLAG IEEE_DENORMAL
