68
 energy: -106.573894676339 gnorm: 0.000847776186 xtb: 6.7.1-6.fc44.fc44
O            1.09643466231850       -0.43179447022128        1.27357995195798
O            0.86594902498451       -0.82936318302105       -1.71613758104252
O           -3.25229683018605       -2.56445130352935        0.14780081064754
O           -3.24466422365004        3.17295816971690        0.16432902109172
O           -1.30489651609425        1.62808405306586       -1.44623254597580
O            2.13935578674529        2.81664626808770        1.25143698189719
N            0.42030531615670       -2.54664972759067       -0.37466756063056
N           -2.23009948013079       -0.88892515222345       -0.96785380319225
N           -3.83903033063035        1.02004075180143        0.21443989435913
N           -0.60410609451311        2.27025617085605        0.59920977321093
N            1.92434828137711        1.71715390245349       -0.71153365748644
N            3.20064346002430       -0.49711696363666        0.49729026127933
C            1.98185197145516       -1.03130884987366        0.69043376400100
C            1.77386152120335       -2.45338507691693        0.15621286129080
C            1.82828947577118       -3.49315155179786        1.28226641672909
C            0.35765466955459       -3.67438265261995        1.65409056686652
C           -0.34104695548787       -3.57782621610600        0.30210625289790
C            0.05560421647659       -1.65030197083187       -1.29837340559771
C           -1.38859919427170       -1.71579718080506       -1.81239174602817
C           -1.45270217961260       -1.19466557125718       -3.24372481645477
C           -3.09343793960256       -1.37359652954116       -0.07788122121162
C           -3.90039088499218       -0.32924496875149        0.72434604551687
C           -5.35876894013198       -0.78271684839602        0.78509366102395
C           -2.99867635623997        2.03865967448058        0.51141592668746
C           -1.73272420023774        1.70669281169240        1.31595560719694
C           -1.82255581273132        2.34469962285871        2.69667406710587
C           -0.45986709668900        2.12788305593365       -0.71788387553572
C            0.90074294913937        2.60564768407263       -1.24119753118157
C            0.94535330208293        2.57850410750568       -2.75975073506457
C            2.41533060353860        1.87466296203609        0.52700349020276
C            3.48005003148250        0.86079695463298        0.94203373220434
C            4.83392537242874        1.18827764660680        0.30554700876444
C            5.50756188711420       -0.17750105776430        0.21987019668254
C            4.35014477174730       -1.10357986051235       -0.15026651292828
H            2.48563807161202       -2.65940913592865       -0.64824020034642
H            2.24630855052725       -4.42904580178029        0.90800119001588
H            2.43162510142043       -3.14992094208353        2.12133897682289
H            0.16069040276751       -4.61621720018943        2.16088006592326
H            0.03583936434395       -2.84933715052411        2.28931627330806
H           -0.24207621434313       -4.52224442040409       -0.25005680166609
H           -1.39704834316224       -3.32734750318405        0.38996860758218
H           -2.10308826390350        0.11899713967185       -1.09917121352943
H           -1.75839404202774       -2.74423784522962       -1.75147521974733
H           -2.46550591532486       -1.28202154551658       -3.62727536031496
H           -0.77830259760099       -1.75971255370087       -3.88170566586514
H           -1.15709923793641       -0.14878570127196       -3.25350601518979
H           -4.61152961879526        1.29590608845804       -0.37785557583527
H           -3.49068665108314       -0.35263209730770        1.74220270190911
H           -5.92588159856356       -0.15566238126797        1.46829577427815
H           -5.39732459919659       -1.81381461150139        1.12512475115197
H           -5.80857789763644       -0.73055527971175       -0.20455405348580
H            0.15868060559121        2.65746705772105        1.14386159752592
H           -1.58084695485779        0.62365679739812        1.40060775147884
H           -2.62963029163840        1.89480273572288        3.27021048829178
H           -2.01808248427051        3.40936536186174        2.59092312651104
H           -0.88687301351769        2.20144267763726        3.23210570311783
H            1.94818973586890        0.80513964032263       -1.15594965054063
H            1.10187087238415        3.60877159373789       -0.84903531606560
H            0.14275340729464        3.19036944051682       -3.16027498106657
H            0.80623278992579        1.55614561953150       -3.10288102432626
H            1.89951813678398        2.95372795358675       -3.12035557146812
H            3.53697300436402        0.89144402359694        2.03794216555836
H            5.39555899852507        1.90776641637484        0.89568585721701
H            4.67969849550575        1.59692718311095       -0.69449559339192
H            5.91261818504252       -0.45699708499860        1.19290525149052
H            6.30908380206947       -0.20736642023555       -0.51464709607295
H            4.20387676397607       -1.12664983495152       -1.23721792674089
H            4.51405484275570       -2.12154935649417        0.20967335997303
