68
 energy: -106.573605377875 gnorm: 0.000766676412 xtb: 6.7.1-6.fc44.fc44
O            1.21575301340605       -0.18277722367869        1.45605059711012
O            1.00470768329067       -0.90583938083761       -1.64560767062615
O           -3.44702792217212       -2.61974803822121       -0.22222972603332
O           -3.20166364046310        3.08292039604559        0.40835905706611
O           -1.33202217298668        1.65217058710057       -1.37728376232292
O            2.26607538667942        2.84228739440918        1.25115692045200
N            0.30287480579331       -2.34052092223290       -0.09527259632689
N           -2.21468580633276       -0.88380531592075       -0.97882885031864
N           -3.86571319455854        0.95600695174995        0.25984447657910
N           -0.58541482925860        2.08989182781920        0.70306682592055
N            1.92444301181001        1.77022158151737       -0.70845258930955
N            3.22423947993311       -0.46207663279862        0.50013599841579
C            2.00394408418718       -0.89214248631156        0.85245092640866
C            1.63434132792397       -2.33413883045734        0.50291269655199
C            1.49529660501311       -3.20268521530088        1.75628679910530
C            0.30146545080632       -4.09750493656130        1.43121909870151
C           -0.61957163378193       -3.14152143268887        0.68171745227904
C            0.09506723539221       -1.58625888426556       -1.18203274120077
C           -1.30302722651100       -1.64175057567795       -1.81100365643461
C           -1.27693323922439       -1.05848326210783       -3.21855122619643
C           -3.19723897908980       -1.42682149385724       -0.25892561732410
C           -3.98090155552485       -0.43482497619593        0.63446803268991
C           -5.45401538026589       -0.83670192213255        0.64941634007128
C           -2.98601505097091        1.91319480161674        0.63924048752315
C           -1.71221252325820        1.47011643299807        1.37720940424530
C           -1.75840927641117        1.94904692971794        2.82269963841126
C           -0.47409488779819        2.09357251765163       -0.62426614366579
C            0.85530350915592        2.65482870784574       -1.13988308000990
C            0.85828001551995        2.75891010663139       -2.65674354226129
C            2.50574785895497        1.91955044937356        0.49457461429846
C            3.61547179559753        0.91111845784442        0.79227985332959
C            4.84790030206351        1.13886834317864       -0.08577072680897
C            5.45991124721911       -0.25554054320382       -0.18120906407016
C            4.23438453191450       -1.16388918582260       -0.27067765482545
H            2.33616880213144       -2.75865893369056       -0.22046867923263
H            2.40493581624128       -3.76044934707848        1.96990828840404
H            1.26035104520901       -2.56441182877388        2.60942371769629
H            0.60714240568060       -4.91520715784864        0.77684396138717
H           -0.16819700342343       -4.51345652582260        2.31919919793848
H           -1.35359152540140       -3.64759561488239        0.05613622500017
H           -1.15846485766568       -2.50194845727742        1.39028775599332
H           -2.09666189815920        0.13176639944159       -1.04356025755347
H           -1.65324781694206       -2.68019287227932       -1.82876931738474
H           -0.51314550291816       -1.55043736535803       -3.81455074044035
H           -1.05372711038898        0.00353123588084       -3.16173227652253
H           -2.24530969539353       -1.19198740969611       -3.69344886776330
H           -4.63684772569293        1.31959465838876       -0.28521235980485
H           -3.57482269766420       -0.56925310100082        1.64609306152338
H           -5.99994450163458       -0.26773154433903        1.39757201978602
H           -5.53082577053946       -1.89694032757676        0.87363639412618
H           -5.89859004806599       -0.66133634046980       -0.32786500142158
H            0.18067106668360        2.42567089976373        1.27304672482742
H           -1.58584023356549        0.38129928129424        1.34053413972453
H           -2.57301483193595        1.46502138453979        3.35668968653866
H           -1.91543779134967        3.02481000414483        2.84419207781990
H           -0.81979143828617        1.70968259731093        3.31675331709495
H            1.94480533119815        0.86911863404607       -1.17498130886954
H            1.03390515456077        3.62954683823128       -0.67221856306491
H            0.01763954181482        3.36427827710239       -2.98285636289556
H            0.75804839219302        1.76637723225718       -3.08921682867998
H            1.78409226778133        3.20985190384867       -3.00424741527551
H            3.85857874568640        1.00726094293517        1.85840002127495
H            5.52384587563852        1.87298401937525        0.34547933608124
H            4.53669567286484        1.48321328065484       -1.07290945132860
H            6.02418653592315       -0.47900079811402        0.72475561423440
H            6.11766256629902       -0.36864061130033       -1.03988646140175
H            3.89966741744900       -1.27412331137783       -1.30935411689888
H            4.43590021067909       -2.15192873344895        0.14887872357467
