68
frame_0000
O       1.008801179269103     -0.687881030773971      1.573462623469974
O       0.888339005081419     -0.824767662723108     -1.530944629847781
O      -3.199416021154140     -2.532822463152828      0.343293765267927
O      -3.046078565722545      3.160763709259686      0.179259043022762
O      -1.314309956111247      1.517065022129275     -1.317413391356560
O       2.309240551639627      2.784764866138934      1.200378161361419
N       0.360944173522637     -2.535116628295033     -0.389530067177220
N      -2.153028768017779     -0.925642400216315     -1.038099982018615
N      -3.597763500618917      1.147281709366149      0.190932331887751
N      -0.536671282012445      2.285594708688326      0.431895185341533
N       1.967803789324545      1.641754393638100     -0.710565227378446
N       3.073928829129100     -0.592676138823067      0.535164143926785
C       1.845190453720190     -1.175727138404662      0.813475713373725
C       1.809046661074432     -2.777320161575969      0.326963567562933
C       1.697614513868669     -3.709784923906985      1.369654497124967
C       0.377232512974826     -3.747799640595636      1.762376861424618
C      -0.200940015022458     -3.711675848315077      0.233435486572470
C       0.139808388426324     -1.641137966661976     -1.181822072657346
C      -1.301751667000179     -1.755578147736933     -1.787796615460580
C      -1.213104813939458     -1.378443266261432     -3.089028841242604
C      -3.109510414046261     -1.294498119315453     -0.147028229742505
C      -3.939831553776178     -0.021751617392512      0.727313604113033
C      -5.276096345862536     -0.721235335818790      0.775513478447826
C      -3.161440023528733      2.039229609648580      0.606830304282150
C      -1.726957743744505      1.749900151008469      1.423839753364271
C      -1.869967727723887      2.381453741369337      2.600675674108976
C      -0.362035199721100      2.091792755915685     -0.699926410421297
C       1.032435088282254      2.421481246361153     -1.189121835986064
C       1.130515319216510      2.643078242589651     -2.815270164846245
C       2.447314715048926      1.904156727780795      0.728890393012338
C       3.470347997129974      0.810070704563810      1.156525293313904
C       4.769369876713704      0.997937890787891      0.846970699149067
C       5.034464193612984      0.417449937723739     -0.643895802457492
C       4.223828685035661     -0.807157443389132     -0.542924523219582
H       2.557124086806556     -2.852771683943833     -0.476971069444933
H       2.288289927580959     -4.710963151798125      0.860607704651561
H       2.188345701184693     -3.378292039866269      2.130937597650223
H       0.077646216203042     -4.825460650854468      2.057597532229789
H       0.025113463169621     -2.982619658554234      2.227709540541462
H      -0.190383478982931     -4.539128717616555     -0.238160974891722
H      -1.271954246199125     -3.416376847755790      0.407978776893393
H      -2.097298405346331     -0.016603180721834     -0.982885707908316
H      -1.600264737137992     -2.774996378279123     -1.820009521993731
H      -1.091493937617537     -0.135452308318012     -3.029421592578588
H      -2.395388120328332     -1.318063804620475     -3.610559431985845
H      -0.777754765712933     -1.872506874615203     -3.757753248028428
H      -4.839220823904514      1.341249574826268     -0.397309301981327
H      -3.428612513442462     -0.419173801666782      1.597485614798058
H      -5.332628733263461     -1.836877395579443      0.985743293899257
H      -5.676355989015250     -0.536912111273710     -0.105780985143455
H      -5.849840857955172     -0.247477794045245      1.425443499478400
H       0.057731438543849      2.749539839697497      1.027310347326970
H      -1.516291900625168      0.588437145990009      1.578201700553533
H      -0.716340570586593      2.350017190491377      3.122591699580665
H      -2.818454430668635      2.073292037919539      3.194815967851909
H      -2.029536123324348      3.451817326787435      2.705787727621817
H       2.064418571799841      0.739882562085808     -1.056390857493379
H       1.098005412371341      3.654449342383395     -0.820618250732831
H       0.847194852409091      1.538445347426590     -3.217662956156574
H       2.077045059055673      2.994736361065841     -3.051820420858333
H       0.269623948300275      3.246259130238585     -3.229798988223719
H       3.289757540009333      0.569085296562216      2.185250792632298
H       5.730025190294084      0.703208095344293      1.522253622311891
H       5.011947545238615      2.080461084826857      0.695999549795880
H       6.031470359551676      0.360154459135838     -0.896735833316834
H       4.666939999334060      0.795558071244222     -1.434536098838855
H       3.694979021061002     -1.170685273355211     -1.311657022269716
H       4.749493653153847     -1.683589029908258      0.064979559952206
