68
 energy: -106.573894676340 gnorm: 0.000847772226 xtb: 6.7.1-6.fc44.fc44
O            1.09643465991891       -0.43179447136012        1.27357994884602
O            0.86594903200618       -0.82936318593529       -1.71613758162644
O           -3.25229683255139       -2.56445130956206        0.14780079201822
O           -3.24466422925653        3.17295816634788        0.16432902412680
O           -1.30489651345544        1.62808405038365       -1.44623254823737
O            2.13935578258151        2.81664626828120        1.25143697731496
N            0.42030531543682       -2.54664972755135       -0.37466755905417
N           -2.23009947577559       -0.88892515172530       -0.96785380511989
N           -3.83903033181064        1.02004074595542        0.21443990055011
N           -0.60410609315620        2.27025617019448        0.59920977245958
N            1.92434827867788        1.71715390301499       -0.71153366258521
N            3.20064345863467       -0.49711696739169        0.49729026263151
C            1.98185196931436       -1.03130885270870        0.69043376511745
C            1.77386151857929       -2.45338507937590        0.15621286903007
C            1.82828946711575       -3.49315155190667        1.28226642685410
C            0.35765465863181       -3.67438265172993        1.65409057058906
C           -0.34104695741295       -3.57782621487458        0.30210625192271
C            0.05560421980208       -1.65030197080500       -1.29837340582838
C           -1.38859918945366       -1.71579717848828       -1.81239174951066
C           -1.45270217132538       -1.19466556443501       -3.24372481793981
C           -3.09343793855382       -1.37359653307627       -0.07788122770621
C           -3.90039088020872       -0.32924497613708        0.72434604575398
C           -5.35876893755066       -0.78271685568594        0.78509366505428
C           -2.99867635764731        2.03865967184786        0.51141593057462
C           -1.73272419863970        1.70669281146483        1.31595560806992
C           -1.82255580923157        2.34469963231271        2.69667406430512
C           -0.45986709451132        2.12788305506004       -0.71788387593674
C            0.90074294915104        2.60564768696989       -1.24119753460505
C            0.94535329901012        2.57850411252181       -2.75975073872377
C            2.41533059634664        1.87466296077690        0.52700348641121
C            3.48005002401381        0.86079695295173        0.94203372710154
C            4.83392537150908        1.18827764619754        0.30554701179735
C            5.50756188711173       -0.17750105739724        0.21987019244925
C            4.35014477064382       -1.10357986153414       -0.15026651271316
H            2.48563807368039       -2.65940914035253       -0.64824018725869
H            2.24630854270265       -4.42904580254289        0.90800120286959
H            2.43162508797666       -3.14992094144706        2.12133899033104
H            0.16069038957552       -4.61621719871779        2.16088006984644
H            0.03583935015797       -2.84933714901112        2.28931627417423
H           -0.24207621593708       -4.52224442211401       -0.25005679914665
H           -1.39704834563403       -3.32734750050270        0.38996859799257
H           -2.10308825911333        0.11899714031536       -1.09917120727486
H           -1.75839404201597       -2.74423784214687       -1.75147522501335
H           -2.46550590808711       -1.28202153751785       -3.62727536343712
H           -0.77830258950125       -1.75971255146819       -3.88170566902179
H           -1.15709923173750       -0.14878569260164       -3.25350601287993
H           -4.61152961835793        1.29590607954863       -0.37785557378551
H           -3.49068664775280       -0.35263210872601        1.74220270250062
H           -5.92588159169424       -0.15566239404374        1.46829578682606
H           -5.39732459532467       -1.81381462215892        1.12512474933842
H           -5.80857790215364       -0.73055527739741       -0.20455404507397
H            0.15868060674795        2.65746705394455        1.14386159540245
H           -1.58084695554862        0.62365679713736        1.40060775775436
H           -2.62963028493545        1.89480273634388        3.27021048815548
H           -2.01808247645063        3.40936537299886        2.59092311780495
H           -0.88687300682760        2.20144268640042        3.23210569959947
H            1.94818973159232        0.80513963975718       -1.15594965430486
H            1.10187087445275        3.60877159584086       -0.84903531807900
H            0.14275340435406        3.19036945774884       -3.16027497801368
H            0.80623279011682        1.55614562416381       -3.10288102987137
H            1.89951813410446        2.95372796080731       -3.12035557315864
H            3.53697301807659        0.89144401966105        2.03794216101378
H            5.39555900370711        1.90776641618788        0.89568586441812
H            4.67969850091901        1.59692718914099       -0.69449558832677
H            5.91261819260984       -0.45699708476323        1.19290524422453
H            6.30908379697787       -0.20736641824143       -0.51464710765110
H            4.20387675464232       -1.12664983930988       -1.23721792644086
H            4.51405484603256       -2.12154935616198        0.20967335888194
