34
frame_0031
O      -4.430502331400000      0.779991845400000      0.716487856800000
C      -4.541588208400000      1.652071175800000     -0.264773289700000
O      -5.148808771100000      2.680976636900000     -0.166853012000000
H      -3.854678749600000      0.001286574600000      0.470475255900000
C      -3.855279328500000      1.237519478600000     -1.586213316500000
H      -4.022141389700000      2.020865275600000     -2.324249408000000
H      -4.336531788600000      0.309932470500000     -1.923375649800000
N      -2.430761842600000      1.012845181400000     -1.445466380100000
H      -1.771064773000000      1.615621948000000     -1.920860294100000
C      -1.900252986300000     -0.037861816400000     -0.811675610800000
O      -2.564716947800000     -0.851057568500000     -0.176568376300000
C      -0.384223597700000     -0.106303793200000     -0.889627711300000
H      -0.095881044000000     -1.168638720100000     -0.914708040100000
N       0.091923102800000      0.656972538000000     -2.036544658300000
H      -0.006990448800000      0.117442869900000     -2.890138557300000
H       1.078731674600000      0.863594171400000     -1.915209257100000
C       0.172989370100000      0.511491408600000      0.411822999800000
H      -0.298858293900000      0.010453621200000      1.258722403900000
H      -0.089458765400000      1.570775279400000      0.434785688100000
C       1.653783801100000      0.350349479000000      0.480186730500000
C       2.602332835900000      1.301743838200000      0.237412908400000
H       2.473751347600000      2.340794588800000     -0.001358306500000
N       3.854587011000000      0.761144344200000      0.356168181000000
H       4.719065512300000      1.264582164400000      0.255825634100000
C       3.738301972800000     -0.560524119700000      0.679866057000000
C       4.712269369500000     -1.525446135400000      0.903740406000000
H       5.762848497400000     -1.282892138000000      0.838581320100000
C       4.287119133600000     -2.798758293700000      1.214560657900000
H       5.016793512600000     -3.573874738200000      1.395773794300000
C       2.927166322800000     -3.110156174000000      1.304618699500000
H       2.638825143000000     -4.120404800300000      1.554664529400000
C       1.957015372600000     -2.159137074600000      1.084304979900000
H       0.908931585000000     -2.407057114400000      1.162056823900000
C       2.357979294900000     -0.862016884100000      0.763354688400000
