34
 energy: -56.478952734330 gnorm: 0.000086146370 xtb: 6.7.1-6.fc44.fc44
O           -4.43050233140000        0.77999184540000        0.71648785680000
C           -4.54158820840000        1.65207117580000       -0.26477328970000
O           -5.14880877110000        2.68097663690000       -0.16685301200000
H           -3.85467874960000        0.00128657460000        0.47047525590000
C           -3.85527932850000        1.23751947860000       -1.58621331650000
H           -4.02214138970000        2.02086527560000       -2.32424940800000
H           -4.33653178860000        0.30993247050000       -1.92337564980000
N           -2.43076184260000        1.01284518140000       -1.44546638010000
H           -1.77106477300000        1.61562194800000       -1.92086029410000
C           -1.90025298630000       -0.03786181640000       -0.81167561080000
O           -2.56471694780000       -0.85105756850000       -0.17656837630000
C           -0.38422359770000       -0.10630379320000       -0.88962771130000
H           -0.09588104400000       -1.16863872010000       -0.91470804010000
N            0.09192310280000        0.65697253800000       -2.03654465830000
H           -0.00699044880000        0.11744286990000       -2.89013855730000
H            1.07873167460000        0.86359417140000       -1.91520925710000
C            0.17298937010000        0.51149140860000        0.41182299980000
H           -0.29885829390000        0.01045362120000        1.25872240390000
H           -0.08945876540000        1.57077527940000        0.43478568810000
C            1.65378380110000        0.35034947900000        0.48018673050000
C            2.60233283590000        1.30174383820000        0.23741290840000
H            2.47375134760000        2.34079458880000       -0.00135830650000
N            3.85458701100000        0.76114434420000        0.35616818100000
H            4.71906551230000        1.26458216440000        0.25582563410000
C            3.73830197280000       -0.56052411970000        0.67986605700000
C            4.71226936950000       -1.52544613540000        0.90374040600000
H            5.76284849740000       -1.28289213800000        0.83858132010000
C            4.28711913360000       -2.79875829370000        1.21456065790000
H            5.01679351260000       -3.57387473820000        1.39577379430000
C            2.92716632280000       -3.11015617400000        1.30461869950000
H            2.63882514300000       -4.12040480030000        1.55466452940000
C            1.95701537260000       -2.15913707460000        1.08430497990000
H            0.90893158500000       -2.40705711440000        1.16205682390000
C            2.35797929490000       -0.86201688410000        0.76335468840000
