34
frame_0028
O      -4.789495039870679      1.541229114403375     -0.925871498041764
C      -4.212642066805076      2.017940935101639     -1.842361412622315
O      -4.779638712694547      1.990847923435703     -3.104584074241660
H      -4.265129697330295      1.331729001741994      0.000784134557642
C      -2.756228962104971      2.417451452909162     -1.761175418696374
H      -2.957731339924119      3.130610810481702     -0.801036221047781
H      -2.334937300663495      2.797220089469954     -2.729832429231097
N      -1.939097000313797      1.297528826664474     -1.339256334323801
H      -1.235533491560114      1.046263539594508     -1.973213546300080
C      -2.031142850095984      0.906345611380401     -0.101067916731448
O      -2.716669712402594      0.970524254809834      0.800925296652881
C      -0.794029473831407     -0.128235169765318      0.249916303374891
H      -1.215983625776892     -1.097860982151270      0.881923078467103
N      -0.378897460853279     -0.740851743128680     -1.087758248043025
H      -0.821200772768639     -1.582204860896587     -1.456722667360335
H       0.715611606330220     -1.143133410669917     -0.858028074941353
C       0.289826300682110      0.541577933852985      0.944590971318605
H      -0.190097398429509      0.880376408225628      1.673218648381349
H       0.466010773322864      1.203550931696539      0.358505126035119
C       1.134682441738467     -0.461277082057769      1.394313251866869
C       1.299919139484111     -1.039867573407253      2.754776288364081
H       0.440484854876485     -0.991279818359424      3.569005961508423
N       2.536136381994734     -1.958989395250925      2.689225042242570
H       2.579074154082314     -2.438141069145688      3.457834295094279
C       3.085216064119408     -1.703292947239026      1.528386335812101
C       4.386972678953218     -2.308247748947985      1.048568511983061
H       4.997602214206560     -3.014901055244319      1.798987928927491
C       4.936400191051558     -1.731213924138141      0.072454157962721
H       6.000922974498009     -2.502303767816888     -0.078225741528649
C       4.319935664660181     -1.041141190182320     -0.849190763422237
H       4.711709154158723     -0.574960648480652     -1.620584344295234
C       3.180910789959041     -0.354798948312462     -0.506740256218201
H       2.646710806069263      0.423936748828441     -0.973828771593222
C       2.444538102698777     -0.581454731088336      0.684378361953630
