      -----------------------------------------------------------      
     |                   =====================                   |     
     |                           x T B                           |     
     |                   =====================                   |     
     |                         S. Grimme                         |     
     |          Mulliken Center for Theoretical Chemistry        |     
     |                    University of Bonn                     |     
      -----------------------------------------------------------      

   * xtb version 6.7.1-6.fc44.fc44 compiled by Fedora project on Sun Jan 18 23:32:34 UTC 2026

   xtb is free software: you can redistribute it and/or modify it under
   the terms of the GNU Lesser General Public License as published by
   the Free Software Foundation, either version 3 of the License, or
   (at your option) any later version.
   
   xtb is distributed in the hope that it will be useful,
   but WITHOUT ANY WARRANTY; without even the implied warranty of
   MERCHANTABILITY or FITNESS FOR A PARTICULAR PURPOSE.  See the
   GNU Lesser General Public License for more details.
   
   Cite this work as:
   * C. Bannwarth, E. Caldeweyher, S. Ehlert, A. Hansen, P. Pracht,
     J. Seibert, S. Spicher, S. Grimme, WIREs Comput. Mol. Sci., 2020, 11,
     e01493. DOI: 10.1002/wcms.1493
   
   for GFN2-xTB:
   * C. Bannwarth, S. Ehlert and S. Grimme., J. Chem. Theory Comput., 2019,
     15, 1652-1671. DOI: 10.1021/acs.jctc.8b01176
   for GFN1-xTB:
   * S. Grimme, C. Bannwarth, P. Shushkov, J. Chem. Theory Comput., 2017,
     13, 1989-2009. DOI: 10.1021/acs.jctc.7b00118
   for GFN0-xTB:
   * P. Pracht, E. Caldeweyher, S. Ehlert, S. Grimme, ChemRxiv, 2019, preprint.
     DOI: 10.26434/chemrxiv.8326202.v1
   for GFN-FF:
   * S. Spicher and S. Grimme, Angew. Chem. Int. Ed., 2020, 59, 15665-15673.
     DOI: 10.1002/anie.202004239
   
   for ALPB and GBSA implicit solvation:
   * S. Ehlert, M. Stahn, S. Spicher, S. Grimme, J. Chem. Theory Comput.,
     2021, 17, 4250-4261. DOI: 10.1021/acs.jctc.1c00471
   
   for ddCOSMO and CPCM-X implicit solvation:
   * M. Stahn, S. Ehlert, S. Grimme, J. Phys. Chem. A,
     2023, XX, XXXX-XXXX. DOI: 10.1021/acs.jpca.3c04382
   
   for DFT-D4:
   * E. Caldeweyher, C. Bannwarth and S. Grimme, J. Chem. Phys., 2017,
     147, 034112. DOI: 10.1063/1.4993215
   * E. Caldeweyher, S. Ehlert, A. Hansen, H. Neugebauer, S. Spicher,
     C. Bannwarth and S. Grimme, J. Chem. Phys., 2019, 150, 154122.
     DOI: 10.1063/1.5090222
   * E. Caldeweyher, J.-M. Mewes, S. Ehlert and S. Grimme, Phys. Chem. Chem. Phys.
     2020, 22, 8499-8512. DOI: 10.1039/D0CP00502A
   
   for sTDA-xTB:
   * S. Grimme and C. Bannwarth, J. Chem. Phys., 2016, 145, 054103.
     DOI: 10.1063/1.4959605
   
   in the mass-spec context:
   * V. Asgeirsson, C. Bauer and S. Grimme, Chem. Sci., 2017, 8, 4879.
     DOI: 10.1039/c7sc00601b
   * J. Koopman and S. Grimme, ACS Omega 2019, 4, 12, 15120-15133.
     DOI: 10.1021/acsomega.9b02011
   
   for metadynamics refer to:
   * S. Grimme, J. Chem. Theory Comput., 2019, 155, 2847-2862
     DOI: 10.1021/acs.jctc.9b00143
   
   for SPH calculations refer to:
   * S. Spicher and S. Grimme, J. Chem. Theory Comput., 2021, 17, 1701-1714
     DOI: 10.1021/acs.jctc.0c01306
   
   for ONIOM refer to:
   * C. Plett, A. Katbashev, S. Ehlert, S. Grimme, M. Bursch,
     Phys. Chem. Chem. Phys., 2023, 25, 17860-17868. DOI: 10.1039/D3CP02178E
   
   for DIPRO refer to:
   * J. Kohn, N. Gildemeister, S. Grimme, D. Fazzi, A. Hansen,
     J. Chem. Phys., 2023, just accepted.
   
   for PTB refer to:
   * S. Grimme, M. Mueller, A. Hansen, J. Chem. Phys., 2023, 158, 124111.
     DOI: 10.1063/5.0137838
   
   with help from (in alphabetical order)
   P. Atkinson, C. Bannwarth, F. Bohle, G. Brandenburg, E. Caldeweyher
   M. Checinski, S. Dohm, S. Ehlert, S. Ehrlich, I. Gerasimov, C. Hölzer
   A. Katbashev, J. Kohn, J. Koopman, C. Lavigne, S. Lehtola, F. März, M. Müller,
   F. Musil, H. Neugebauer, J. Pisarek, C. Plett, P. Pracht, F. Pultar,
   J. Seibert, P. Shushkov, S. Spicher, M. Stahn, M. Steiner, T. Strunk,
   J. Stückrath, T. Rose, and J. Unsleber
   
 * started run on 2026/10/01 at 18:05:17.836     
   ID    Z sym.   atoms
    1    8 O      1, 3, 11
    2    6 C      2, 5, 10, 12, 17, 20, 21, 25, 26, 28, 30, 32, 34
    3    1 H      4, 6, 7, 9, 13, 15, 16, 18, 19, 22, 24, 27, 29, 31, 33
    4    7 N      8, 14, 23

           -------------------------------------------------
          |                Calculation Setup                |
           -------------------------------------------------

          program call               : /usr/bin/xtb input.xyz --opt --gfn 2 --chrg 0 --uhf 0
          hostname                   : fedora
          coordinate file            : input.xyz
          omp threads                :                    16


           -------------------------------------------------
          |                 G F N 2 - x T B                 |
           -------------------------------------------------

        Reference                      10.1021/acs.jctc.8b01176
      * Hamiltonian:
        H0-scaling (s, p, d)           1.850000    2.230000    2.230000
        zeta-weighting                 0.500000
      * Dispersion:
        s8                             2.700000
        a1                             0.520000
        a2                             5.000000
        s9                             5.000000
      * Repulsion:
        kExp                           1.500000    1.000000
        rExp                           1.000000
      * Coulomb:
        alpha                          2.000000
        third order                    shell-resolved
        anisotropic                    true
        a3                             3.000000
        a5                             4.000000
        cn-shift                       1.200000
        cn-exp                         4.000000
        max-rad                        5.000000


          ...................................................
          :                      SETUP                      :
          :.................................................:
          :  # basis functions                  91          :
          :  # atomic orbitals                  91          :
          :  # shells                           53          :
          :  # electrons                       100          :
          :  max. iterations                   250          :
          :  Hamiltonian                  GFN2-xTB          :
          :  restarted?                      false          :
          :  GBSA solvation                  false          :
          :  PC potential                    false          :
          :  electronic temp.          300.0000000     K    :
          :  accuracy                    1.0000000          :
          :  -> integral cutoff          0.2500000E+02      :
          :  -> integral neglect         0.1000000E-07      :
          :  -> SCF convergence          0.1000000E-05 Eh   :
          :  -> wf. convergence          0.1000000E-03 e    :
          :  Broyden damping             0.4000000          :
          :  net charge                          0          :
          :  unpaired electrons                  0          :
          ...................................................

 iter      E             dE          RMSdq      gap      omega  full diag
   1    -56.7109734 -0.567110E+02  0.449E+00    2.81       0.0  T
   2    -56.8990851 -0.188112E+00  0.270E+00    3.05       1.0  T
   3    -56.9241913 -0.251062E-01  0.157E+00    3.10       1.0  T
   4    -56.9244679 -0.276539E-03  0.568E-01    3.13       1.0  T
   5    -56.9342523 -0.978446E-02  0.136E-01    3.11       1.0  T
   6    -56.9343774 -0.125014E-03  0.105E-01    3.13       1.0  T
   7    -56.9346519 -0.274567E-03  0.379E-02    3.13       1.0  T
   8    -56.9346496  0.227997E-05  0.261E-02    3.12       1.0  T
   9    -56.9346675 -0.178761E-04  0.692E-03    3.12       2.5  T
  10    -56.9346680 -0.499391E-06  0.276E-03    3.12       6.2  T
  11    -56.9346681 -0.121213E-06  0.123E-03    3.12      14.0  T
  12    -56.9346682 -0.696324E-08  0.384E-04    3.12      44.7  T
  13    -56.9346682 -0.314348E-08  0.148E-04    3.12     115.5  T

   *** convergence criteria satisfied after 13 iterations ***

         #    Occupation            Energy/Eh            Energy/eV
      -------------------------------------------------------------
         1        2.0000           -0.7751565             -21.0931
       ...           ...                  ...                  ...
        44        2.0000           -0.4215353             -11.4706
        45        2.0000           -0.4119004             -11.2084
        46        2.0000           -0.3973907             -10.8136
        47        2.0000           -0.3868427             -10.5265
        48        2.0000           -0.3835768             -10.4377
        49        2.0000           -0.3746141             -10.1938
        50        2.0000           -0.3697555             -10.0616 (HOMO)
        51                         -0.2549552              -6.9377 (LUMO)
        52                         -0.2470239              -6.7219
        53                         -0.2234275              -6.0798
        54                         -0.2192321              -5.9656
        55                         -0.1897110              -5.1623
       ...                                ...                  ...
        91                          0.9780593              26.6143
      -------------------------------------------------------------
                  HL-Gap            0.1148003 Eh            3.1239 eV
             Fermi-level           -0.3123554 Eh           -8.4996 eV

 SCC (total)                   0 d,  0 h,  0 min,  0.109 sec
 SCC setup                      ...        0 min,  0.005 sec (  4.511%)
 Dispersion                     ...        0 min,  0.012 sec ( 11.127%)
 classical contributions        ...        0 min,  0.007 sec (  6.280%)
 integral evaluation            ...        0 min,  0.003 sec (  2.288%)
 iterations                     ...        0 min,  0.038 sec ( 34.745%)
 molecular gradient             ...        0 min,  0.044 sec ( 40.666%)
 printout                       ...        0 min,  0.000 sec (  0.371%)

         :::::::::::::::::::::::::::::::::::::::::::::::::::::
         ::                     SUMMARY                     ::
         :::::::::::::::::::::::::::::::::::::::::::::::::::::
         :: total energy             -56.066453523045 Eh    ::
         :: gradient norm              0.740128562115 Eh/a0 ::
         :: HOMO-LUMO gap              3.123874105570 eV    ::
         ::.................................................::
         :: SCC energy               -56.934657437912 Eh    ::
         :: -> isotropic ES            0.107557045020 Eh    ::
         :: -> anisotropic ES          0.006110035247 Eh    ::
         :: -> anisotropic XC          0.022767253603 Eh    ::
         :: -> dispersion             -0.034063290739 Eh    ::
         :: repulsion energy           0.868203914867 Eh    ::
         :: add. restraining           0.000000000000 Eh    ::
         :: total charge               0.000000000000 e     ::
         :::::::::::::::::::::::::::::::::::::::::::::::::::::

      ----------------------------------------------------------- 
     |                   =====================                   |
     |                        A N C O P T                        |
     |                   =====================                   |
     |               Approximate Normal Coordinate               |
     |                Rational Function Optimizer                |
      ----------------------------------------------------------- 
      ----------------------------------------------------------- 
     |                   =====================                   |
     |                        A N C O P T                        |
     |                   =====================                   |
     |               Approximate Normal Coordinate               |
     |                Rational Function Optimizer                |
      ----------------------------------------------------------- 

          ...................................................
          :                      SETUP                      :
          :.................................................:
          :   optimization level            normal          :
          :   max. optcycles                   200          :
          :   ANC micro-cycles                  20          :
          :   degrees of freedom                96          :
          :.................................................:
          :   RF solver                   davidson          :
          :   write xtbopt.log                true          :
          :   linear?                        false          :
          :   energy convergence         0.5000000E-05 Eh   :
          :   grad. convergence          0.1000000E-02 Eh/α :
          :   maxmium RF displ.          1.0000000          :
          :   Hlow (freq-cutoff)         0.1000000E-01      :
          :   Hmax (freq-cutoff)         5.0000000          :
          :   S6 in model hess.         20.0000000          :
          ...................................................

generating ANC from exact Hessian ...
Using Lindh-Hessian (1995)
 Shifting diagonal of input Hessian by    9.6630400031773468E-003
 Lowest  eigenvalues of input Hessian
    0.000000    0.000000    0.000000    0.000000    0.000000    0.000000
    0.010000    0.010057    0.010486    0.010893    0.011966    0.013026
    0.014714    0.015417    0.015901    0.016516    0.018981    0.020285
 Highest eigenvalues
    2.089050    2.241677    2.256242    2.397037    2.397563    2.824774


........................................................................
.............................. CYCLE    1 ..............................
........................................................................

 iter      E             dE          RMSdq      gap      omega  full diag
   1    -56.9346682 -0.569347E+02  0.674E-05    3.12       0.0  T
   2    -56.9346682 -0.170814E-10  0.420E-05    3.12     408.5  T
   3    -56.9346682  0.568434E-12  0.261E-05    3.12     658.3  T
     SCC iter.                  ...        0 min,  0.006 sec
     gradient                   ...        0 min,  0.002 sec
 * total energy  :   -56.0664535 Eh     change       -0.2590781E-09 Eh
   gradient norm :     0.7401286 Eh/α   predicted     0.0000000E+00 (-100.00%)
   displ. norm   :     0.5497524 α      lambda       -0.3585104E+00
   maximum displ.:     0.1920581 α      in ANC's #74, #68, #66, ...

........................................................................
.............................. CYCLE    2 ..............................
........................................................................

 iter      E             dE          RMSdq      gap      omega  full diag
   1    -57.0491248 -0.570491E+02  0.726E-01    3.35       0.0  T
   2    -57.0568069 -0.768205E-02  0.456E-01    3.40       1.0  T
   3    -57.0583581 -0.155125E-02  0.250E-01    3.44       1.0  T
   4    -57.0581595  0.198635E-03  0.156E-01    3.40       1.0  T
   5    -57.0586479 -0.488465E-03  0.409E-02    3.43       1.0  T
   6    -57.0586907 -0.427449E-04  0.137E-02    3.42       1.2  T
   7    -57.0586934 -0.268717E-05  0.661E-03    3.42       2.6  T
   8    -57.0586940 -0.655720E-06  0.250E-03    3.42       6.9  T
   9    -57.0586941 -0.996303E-07  0.796E-04    3.42      21.5  T
  10    -57.0586941 -0.348408E-08  0.371E-04    3.42      46.2  T
     SCC iter.                  ...        0 min,  0.020 sec
     gradient                   ...        0 min,  0.002 sec
 * total energy  :   -56.3324072 Eh     change       -0.2659536E+00 Eh
   gradient norm :     0.3701036 Eh/α   predicted    -0.2334603E+00 ( -12.22%)
   displ. norm   :     0.5722468 α      lambda       -0.1854222E+00
   maximum displ.:     0.1468042 α      in ANC's #40, #74, #53, ...

........................................................................
.............................. CYCLE    3 ..............................
........................................................................

 iter      E             dE          RMSdq      gap      omega  full diag
   1    -57.1901391 -0.571901E+02  0.719E-01    3.45       0.0  T
   2    -57.1960532 -0.591411E-02  0.426E-01    3.52       1.0  T
   3    -57.1967013 -0.648093E-03  0.254E-01    3.54       1.0  T
   4    -57.1968982 -0.196916E-03  0.121E-01    3.52       1.0  T
   5    -57.1971280 -0.229835E-03  0.241E-02    3.53       1.0  T
   6    -57.1971447 -0.167263E-04  0.100E-02    3.53       1.7  T
   7    -57.1971461 -0.135746E-05  0.456E-03    3.53       3.8  T
   8    -57.1971464 -0.275890E-06  0.147E-03    3.53      11.7  T
   9    -57.1971464 -0.220638E-07  0.625E-04    3.53      27.4  T
  10    -57.1971464 -0.322774E-08  0.224E-04    3.53      76.6  T
     SCC iter.                  ...        0 min,  0.036 sec
     gradient                   ...        0 min,  0.002 sec
 * total energy  :   -56.4492527 Eh     change       -0.1168455E+00 Eh
   gradient norm :     0.1232256 Eh/α   predicted    -0.1230709E+00 (   5.33%)
   displ. norm   :     0.4497561 α      lambda       -0.3851929E-01
   maximum displ.:     0.1846076 α      in ANC's #26, #40, #35, ...

........................................................................
.............................. CYCLE    4 ..............................
........................................................................

 iter      E             dE          RMSdq      gap      omega  full diag
   1    -57.2177338 -0.572177E+02  0.453E-01    3.54       0.0  T
   2    -57.2180805 -0.346659E-03  0.277E-01    3.53       1.0  T
   3    -57.2178284  0.252068E-03  0.161E-01    3.55       1.0  T
   4    -57.2183048 -0.476452E-03  0.277E-02    3.54       1.0  T
   5    -57.2183245 -0.196406E-04  0.813E-03    3.54       2.1  T
   6    -57.2183250 -0.528527E-06  0.431E-03    3.54       4.0  T
   7    -57.2183252 -0.219661E-06  0.174E-03    3.54       9.8  T
   8    -57.2183253 -0.427510E-07  0.580E-04    3.54      29.6  T
   9    -57.2183253 -0.273726E-08  0.234E-04    3.54      73.4  T
     SCC iter.                  ...        0 min,  0.136 sec
     gradient                   ...        0 min,  0.003 sec
 * total energy  :   -56.4718443 Eh     change       -0.2259165E-01 Eh
   gradient norm :     0.0576648 Eh/α   predicted    -0.2315556E-01 (   2.50%)
   displ. norm   :     0.3165726 α      lambda       -0.9764880E-02
   maximum displ.:     0.1554148 α      in ANC's #26, #43, #19, ...

........................................................................
.............................. CYCLE    5 ..............................
........................................................................

 iter      E             dE          RMSdq      gap      omega  full diag
   1    -57.2297769 -0.572298E+02  0.271E-01    3.55       0.0  T
   2    -57.2298854 -0.108535E-03  0.160E-01    3.55       1.0  T
   3    -57.2298475  0.379320E-04  0.562E-02    3.56       1.0  T
   4    -57.2298985 -0.510353E-04  0.143E-02    3.55       1.2  T
   5    -57.2299033 -0.472988E-05  0.453E-03    3.55       3.8  T
   6    -57.2299035 -0.238801E-06  0.237E-03    3.55       7.3  T
   7    -57.2299036 -0.658438E-07  0.789E-04    3.55      21.7  T
   8    -57.2299036 -0.100666E-07  0.307E-04    3.55      55.9  T
     SCC iter.                  ...        0 min,  0.016 sec
     gradient                   ...        0 min,  0.002 sec
 * total energy  :   -56.4760036 Eh     change       -0.4159304E-02 Eh
   gradient norm :     0.0427717 Eh/α   predicted    -0.5371773E-02 (  29.15%)
   displ. norm   :     0.1836066 α      lambda       -0.3337051E-02
   maximum displ.:     0.0627271 α      in ANC's #8, #15, #45, ...

........................................................................
.............................. CYCLE    6 ..............................
........................................................................

 iter      E             dE          RMSdq      gap      omega  full diag
   1    -57.2302836 -0.572303E+02  0.148E-01    3.56       0.0  T
   2    -57.2303395 -0.559149E-04  0.882E-02    3.56       1.0  T
   3    -57.2303188  0.207684E-04  0.388E-02    3.56       1.0  T
   4    -57.2303434 -0.246424E-04  0.135E-02    3.56       1.3  T
   5    -57.2303488 -0.542120E-05  0.233E-03    3.56       7.4  T
   6    -57.2303489 -0.424407E-07  0.129E-03    3.56      13.3  T
   7    -57.2303489 -0.119935E-07  0.504E-04    3.56      34.0  T
   8    -57.2303489 -0.417845E-08  0.150E-04    3.56     114.5  T
     SCC iter.                  ...        0 min,  0.015 sec
     gradient                   ...        0 min,  0.002 sec
 * total energy  :   -56.4779414 Eh     change       -0.1937723E-02 Eh
   gradient norm :     0.0207432 Eh/α   predicted    -0.1724776E-02 ( -10.99%)
   displ. norm   :     0.1259253 α      lambda       -0.9630470E-03
   maximum displ.:     0.0560162 α      in ANC's #8, #12, #4, ...

........................................................................
.............................. CYCLE    7 ..............................
........................................................................

 iter      E             dE          RMSdq      gap      omega  full diag
   1    -57.2318475 -0.572318E+02  0.779E-02    3.57       0.0  T
   2    -57.2318670 -0.194909E-04  0.446E-02    3.57       1.0  T
   3    -57.2318655  0.152581E-05  0.188E-02    3.57       1.0  T
   4    -57.2318678 -0.232603E-05  0.591E-03    3.57       2.9  T
   5    -57.2318688 -0.930682E-06  0.137E-03    3.57      12.5  T
   6    -57.2318688 -0.265668E-07  0.717E-04    3.57      23.9  T
   7    -57.2318688 -0.393224E-08  0.273E-04    3.57      62.9  T
     SCC iter.                  ...        0 min,  0.013 sec
     gradient                   ...        0 min,  0.002 sec
 * total energy  :   -56.4785268 Eh     change       -0.5854388E-03 Eh
   gradient norm :     0.0140730 Eh/α   predicted    -0.4891959E-03 ( -16.44%)
   displ. norm   :     0.1329808 α      lambda       -0.5563465E-03
   maximum displ.:     0.0542624 α      in ANC's #8, #24, #14, ...

........................................................................
.............................. CYCLE    8 ..............................
........................................................................

 iter      E             dE          RMSdq      gap      omega  full diag
   1    -57.2354039 -0.572354E+02  0.771E-02    3.57       0.0  T
   2    -57.2354091 -0.524469E-05  0.452E-02    3.57       1.0  T
   3    -57.2354030  0.610950E-05  0.163E-02    3.57       1.0  T
   4    -57.2354101 -0.712650E-05  0.393E-03    3.57       4.4  T
   5    -57.2354106 -0.443027E-06  0.106E-03    3.57      16.2  T
   6    -57.2354106 -0.377574E-08  0.599E-04    3.57      28.6  T
   7    -57.2354106 -0.327302E-08  0.163E-04    3.57     105.3  T
     SCC iter.                  ...        0 min,  0.014 sec
     gradient                   ...        0 min,  0.002 sec
 * total energy  :   -56.4787973 Eh     change       -0.2704869E-03 Eh
   gradient norm :     0.0117536 Eh/α   predicted    -0.2830940E-03 (   4.66%)
   displ. norm   :     0.0689087 α      lambda       -0.2215164E-03
   maximum displ.:     0.0334322 α      in ANC's #8, #7, #17, ...

........................................................................
.............................. CYCLE    9 ..............................
........................................................................

 iter      E             dE          RMSdq      gap      omega  full diag
   1    -57.2348910 -0.572349E+02  0.326E-02    3.57       0.0  T
   2    -57.2348921 -0.109736E-05  0.190E-02    3.57       1.0  T
   3    -57.2348909  0.114434E-05  0.728E-03    3.57       2.4  T
   4    -57.2348923 -0.138388E-05  0.186E-03    3.57       9.2  T
   5    -57.2348924 -0.941083E-07  0.537E-04    3.57      31.9  T
   6    -57.2348924 -0.892420E-09  0.284E-04    3.57      60.4  T
     SCC iter.                  ...        0 min,  0.014 sec
     gradient                   ...        0 min,  0.002 sec
 * total energy  :   -56.4789207 Eh     change       -0.1234508E-03 Eh
   gradient norm :     0.0075906 Eh/α   predicted    -0.1112870E-03 (  -9.85%)
   displ. norm   :     0.0531041 α      lambda       -0.1035505E-03
   maximum displ.:     0.0231718 α      in ANC's #7, #8, #11, ...

........................................................................
.............................. CYCLE   10 ..............................
........................................................................

 iter      E             dE          RMSdq      gap      omega  full diag
   1    -57.2356112 -0.572356E+02  0.251E-02    3.58       0.0  T
   2    -57.2356123 -0.114998E-05  0.145E-02    3.58       1.2  T
   3    -57.2356119  0.467055E-06  0.628E-03    3.58       2.7  T
   4    -57.2356125 -0.622466E-06  0.169E-03    3.58      10.1  T
   5    -57.2356126 -0.775733E-07  0.496E-04    3.58      34.6  T
   6    -57.2356126 -0.240306E-08  0.266E-04    3.58      64.4  T
     SCC iter.                  ...        0 min,  0.011 sec
     gradient                   ...        0 min,  0.002 sec
 * total energy  :   -56.4789899 Eh     change       -0.6912132E-04 Eh
   gradient norm :     0.0040298 Eh/α   predicted    -0.5192518E-04 ( -24.88%)
   displ. norm   :     0.0618261 α      lambda       -0.6386332E-04
   maximum displ.:     0.0284089 α      in ANC's #8, #11, #7, ...

........................................................................
.............................. CYCLE   11 ..............................
........................................................................

 iter      E             dE          RMSdq      gap      omega  full diag
   1    -57.2357587 -0.572358E+02  0.276E-02    3.58       0.0  T
   2    -57.2357593 -0.643343E-06  0.161E-02    3.58       1.1  T
   3    -57.2357590  0.332238E-06  0.463E-03    3.58       3.7  T
   4    -57.2357595 -0.460254E-06  0.104E-03    3.58      16.5  T
   5    -57.2357595 -0.190781E-07  0.466E-04    3.58      36.8  T
   6    -57.2357595 -0.525802E-09  0.239E-04    3.58      71.7  T
     SCC iter.                  ...        0 min,  0.012 sec
     gradient                   ...        0 min,  0.002 sec
 * total energy  :   -56.4790254 Eh     change       -0.3557035E-04 Eh
   gradient norm :     0.0027049 Eh/α   predicted    -0.3205785E-04 (  -9.87%)
   displ. norm   :     0.0339217 α      lambda       -0.1959750E-04
   maximum displ.:     0.0181782 α      in ANC's #4, #8, #11, ...

........................................................................
.............................. CYCLE   12 ..............................
........................................................................

 iter      E             dE          RMSdq      gap      omega  full diag
   1    -57.2355211 -0.572355E+02  0.141E-02    3.58       0.0  T
   2    -57.2355213 -0.176480E-06  0.834E-03    3.58       2.1  T
   3    -57.2355212  0.122780E-06  0.221E-03    3.58       7.7  T
   4    -57.2355213 -0.143882E-06  0.752E-04    3.58      22.8  T
   5    -57.2355213 -0.148925E-07  0.236E-04    3.58      72.6  T
     SCC iter.                  ...        0 min,  0.009 sec
     gradient                   ...        0 min,  0.002 sec
 * total energy  :   -56.4790370 Eh     change       -0.1160589E-04 Eh
   gradient norm :     0.0020230 Eh/α   predicted    -0.9811060E-05 ( -15.46%)
   displ. norm   :     0.0298009 α      lambda       -0.1212652E-04
   maximum displ.:     0.0149598 α      in ANC's #4, #10, #8, ...

........................................................................
.............................. CYCLE   13 ..............................
........................................................................

 iter      E             dE          RMSdq      gap      omega  full diag
   1    -57.2358016 -0.572358E+02  0.122E-02    3.58       0.0  T
   2    -57.2358017 -0.100378E-06  0.716E-03    3.58       2.4  T
   3    -57.2358017  0.111696E-07  0.120E-03    3.58      14.3  T
   4    -57.2358017 -0.234259E-07  0.401E-04    3.58      42.8  T
   5    -57.2358017 -0.336465E-08  0.210E-04    3.58      81.6  T
     SCC iter.                  ...        0 min,  0.010 sec
     gradient                   ...        0 min,  0.002 sec
 * total energy  :   -56.4790444 Eh     change       -0.7384072E-05 Eh
   gradient norm :     0.0014145 Eh/α   predicted    -0.6070871E-05 ( -17.78%)
   displ. norm   :     0.0286915 α      lambda       -0.5619298E-05
   maximum displ.:     0.0136648 α      in ANC's #4, #10, #8, ...

........................................................................
.............................. CYCLE   14 ..............................
........................................................................

 iter      E             dE          RMSdq      gap      omega  full diag
   1    -57.2355530 -0.572356E+02  0.124E-02    3.58       0.0  T
   2    -57.2355531 -0.175882E-06  0.723E-03    3.58       2.4  T
   3    -57.2355530  0.177591E-06  0.325E-03    3.58       5.3  T
   4    -57.2355532 -0.230462E-06  0.655E-04    3.58      26.2  T
   5    -57.2355532 -0.105952E-07  0.240E-04    3.58      71.4  T
     SCC iter.                  ...        0 min,  0.009 sec
     gradient                   ...        0 min,  0.002 sec
 * total energy  :   -56.4790478 Eh     change       -0.3347568E-05 Eh
   gradient norm :     0.0011643 Eh/α   predicted    -0.2815062E-05 ( -15.91%)
   displ. norm   :     0.0116659 α      lambda       -0.2527713E-05
   maximum displ.:     0.0064265 α      in ANC's #5, #15, #13, ...

........................................................................
.............................. CYCLE   15 ..............................
........................................................................

 iter      E             dE          RMSdq      gap      omega  full diag
   1    -57.2356876 -0.572357E+02  0.611E-03    3.58       0.0  T
   2    -57.2356876 -0.327490E-07  0.366E-03    3.58       4.7  T
   3    -57.2356876  0.709212E-07  0.168E-03    3.58      10.2  T
   4    -57.2356876 -0.874317E-07  0.294E-04    3.58      58.2  T
   5    -57.2356876 -0.204018E-08  0.102E-04    3.58     168.4  T
     SCC iter.                  ...        0 min,  0.010 sec
     gradient                   ...        0 min,  0.002 sec
 * total energy  :   -56.4790498 Eh     change       -0.2002949E-05 Eh
   gradient norm :     0.0007737 Eh/α   predicted    -0.1267500E-05 ( -36.72%)
   displ. norm   :     0.0126018 α      lambda       -0.1715210E-05
   maximum displ.:     0.0075090 α      in ANC's #5, #12, #1, ...

   *** GEOMETRY OPTIMIZATION CONVERGED AFTER 15 ITERATIONS ***

------------------------------------------------------------------------
 total energy gain   :        -0.4125962 Eh     -258.9081 kcal/mol
 total RMSD          :         0.2924780 a0        0.1548 Å
 total power (kW/mol):       -72.2180869 (step)-2401.0489 (real)
------------------------------------------------------------------------

 ANCopt (total)                0 d,  0 h,  0 min,  0.451 sec
 optimizer setup                ...        0 min,  0.000 sec (  0.031%)
 model hessian                  ...        0 min,  0.005 sec (  1.217%)
 ANC generation                 ...        0 min,  0.052 sec ( 11.504%)
 coordinate transformation      ...        0 min,  0.000 sec (  0.030%)
 single point calculation       ...        0 min,  0.386 sec ( 85.581%)
 optimization log               ...        0 min,  0.002 sec (  0.398%)
 hessian update                 ...        0 min,  0.001 sec (  0.165%)
 rational function              ...        0 min,  0.003 sec (  0.600%)

================
 final structure:
================
34
 xtb: 6.7.1-6.fc44.fc44
O           -4.85251739238495        1.44166993611046       -0.88732886610926
C           -4.25518844349888        1.94039907907995       -1.95105749916658
O           -4.79758803647146        2.06696471980934       -3.01265554314234
H           -4.23430631185624        1.36164534452819       -0.10687478977369
C           -2.79419061781459        2.39039080019816       -1.72520283530412
H           -2.81061249888799        3.17113465701040       -0.95325002138913
H           -2.41058220900356        2.80773583818069       -2.65520168439467
N           -1.92374900582525        1.31565272922217       -1.29359680012939
H           -1.19987518433319        0.96438613955065       -1.90853120831880
C           -1.97483905834233        0.75334974117902       -0.08267750880250
O           -2.83302240480457        1.02033518133642        0.75341220711136
C           -0.84270791080070       -0.22573555802957        0.19055785546619
H           -1.23915654170883       -1.02058706830555        0.84306176939240
N           -0.30302390459547       -0.71380340956284       -1.07121689978446
H           -0.90714811416165       -1.42784709598245       -1.46471755851499
H            0.60837543596619       -1.13186131158523       -0.91631778473314
C            0.24939782549322        0.53356240908811        0.97615751145932
H           -0.22653156413454        1.03383334342091        1.82116586106309
H            0.68856351996619        1.28581026357586        0.31880727055744
C            1.30788282235146       -0.39780981838612        1.46548409607533
C            1.29224200040858       -1.11162080515825        2.62912887789737
H            0.55561265357757       -1.11335114712655        3.40966315359140
N            2.41145432646521       -1.89198685669066        2.71972081324238
H            2.63988391939159       -2.49767730149083        3.48905067557192
C            3.18037269771740       -1.69742696303132        1.60972802312810
C            4.39795796709061       -2.25801035692355        1.24435035067928
H            4.89525253112791       -2.97392030912709        1.88223796891958
C            4.94552217193107       -1.86625783788263        0.04245787333061
H            5.89080907823918       -2.28207065559860       -0.27342193699735
C            4.30326708344709       -0.93506830825400       -0.77933860751219
H            4.76842359213880       -0.65234099143821       -1.71201198917124
C            3.09775400845604       -0.37494554767963       -0.42376545814452
H            2.61265658448488        0.34597486282502       -1.06522724266513
C            2.51382036783204       -0.75754618654885        0.78572590243186

 Bond Distances (Angstroems)
 ---------------------------
O1-C2=1.3180         O1-H4=0.9988         C2-O1=1.3180         C2-O3=1.1988         C2-C5=1.5453         O3-C2=1.1988         
H4-O1=0.9988         C5-C2=1.5453         C5-H6=1.0981         C5-H7=1.0891         C5-N8=1.4488         H6-C5=1.0981         
H7-C5=1.0891         N8-C5=1.4488         N8-H9=1.0127         N8-C10=1.3361        H9-N8=1.0127         C10-N8=1.3361        
C10-O11=1.2275       C10-C12=1.5215       O11-C10=1.2275       C12-C10=1.5215       C12-H13=1.1021       C12-N14=1.4566       
C12-C17=1.5448       H13-C12=1.1021       N14-C12=1.4566       N14-H15=1.0147       N14-H16=1.0146       H15-N14=1.0147       
H16-N14=1.0146       C17-C12=1.5448       C17-H18=1.0912       C17-H19=1.0913       C17-C20=1.4924       H18-C17=1.0912       
H19-C17=1.0913       C20-C17=1.4924       C20-C21=1.3652       C20-C34=1.4303       C21-C20=1.3652       C21-H22=1.0732       
C21-N23=1.3674       H22-C21=1.0732       N23-C21=1.3674       N23-H24=1.0054       N23-C25=1.3642       H24-N23=1.0054       
C25-N23=1.3642       C25-C26=1.3893       C25-C34=1.4166       C26-C25=1.3893       C26-H27=1.0802       C26-C28=1.3776       
H27-C26=1.0802       C28-C26=1.3776       C28-H29=1.0799       C28-C30=1.3982       H29-C28=1.0799       C30-C28=1.3982       
C30-H31=1.0799       C30-C32=1.3760       H31-C30=1.0799       C32-C30=1.3760       C32-H33=1.0801       C32-C34=1.3965       
H33-C32=1.0801       C34-C20=1.4303       C34-C25=1.4166       C34-C32=1.3965       
 C  H  Rav=1.0865 sigma=0.0088  Rmin=1.0732  Rmax=1.1021    10
 C  C  Rav=1.4378 sigma=0.0657  Rmin=1.3652  Rmax=1.5453    12
 N  H  Rav=1.0119 sigma=0.0038  Rmin=1.0054  Rmax=1.0147     4
 N  C  Rav=1.3946 sigma=0.0487  Rmin=1.3361  Rmax=1.4566     5
 O  H  Rav=0.9988 sigma=0.0000  Rmin=0.9988  Rmax=0.9988     1
 O  C  Rav=1.2481 sigma=0.0508  Rmin=1.1988  Rmax=1.3180     3

 selected bond angles (degree)
 --------------------
H4-O1-C2=112.36                O3-C2-O1=123.34                C5-C2-O1=114.88                C5-C2-O3=121.76                
H6-C5-C2=107.20                H7-C5-C2=108.65                H7-C5-H6=109.46                N8-C5-C2=113.30                
N8-C5-H6=109.09                N8-C5-H7=109.09                H9-N8-C5=120.39                C10-N8-C5=124.00               
C10-N8-H9=115.58               O11-C10-N8=123.54              C12-C10-N8=113.90              C12-C10-O11=122.54             

 selected dihedral angles (degree)
 ---------------------------------
O3-C2-O1-H4=176.67            C5-C2-O1-H4=355.23            H6-C5-C2-O1=299.71            H6-C5-C2-O3=118.30            
H7-C5-C2-O1=181.52            H7-C5-C2-O3=  0.11            N8-C5-C2-O1= 60.11            N8-C5-C2-O3=238.70            
H9-N8-C5-C2=111.16            H9-N8-C5-H6=230.48            H9-N8-C5-H7=350.00            C10-N8-C5-C2=288.96           
C10-N8-C5-H6= 48.28           C10-N8-C5-H7=167.80           O11-C10-N8-C5=  5.81          O11-C10-N8-H9=183.71          
C12-C10-N8-C5=187.56          C12-C10-N8-H9=  5.46          
           -------------------------------------------------
          |                Final Singlepoint                |
           -------------------------------------------------

          ...................................................
          :                      SETUP                      :
          :.................................................:
          :  # basis functions                  91          :
          :  # atomic orbitals                  91          :
          :  # shells                           53          :
          :  # electrons                       100          :
          :  max. iterations                   250          :
          :  Hamiltonian                  GFN2-xTB          :
          :  restarted?                      false          :
          :  GBSA solvation                  false          :
          :  PC potential                    false          :
          :  electronic temp.          300.0000000     K    :
          :  accuracy                    1.0000000          :
          :  -> integral cutoff          0.2500000E+02      :
          :  -> integral neglect         0.1000000E-07      :
          :  -> SCF convergence          0.1000000E-05 Eh   :
          :  -> wf. convergence          0.1000000E-03 e    :
          :  Broyden damping             0.4000000          :
          :  net charge                          0          :
          :  unpaired electrons                  0          :
          ...................................................

 iter      E             dE          RMSdq      gap      omega  full diag
   1    -57.2356876 -0.572357E+02  0.506E-05    3.58       0.0  T
   2    -57.2356876 -0.152198E-10  0.333E-05    3.58     514.7  T
   3    -57.2356876 -0.118661E-10  0.201E-05    3.58     851.6  T

   *** convergence criteria satisfied after 3 iterations ***

         #    Occupation            Energy/Eh            Energy/eV
      -------------------------------------------------------------
         1        2.0000           -0.7344246             -19.9847
       ...           ...                  ...                  ...
        44        2.0000           -0.4288616             -11.6699
        45        2.0000           -0.4258916             -11.5891
        46        2.0000           -0.4199136             -11.4264
        47        2.0000           -0.4019268             -10.9370
        48        2.0000           -0.3951558             -10.7527
        49        2.0000           -0.3921690             -10.6715
        50        2.0000           -0.3743224             -10.1858 (HOMO)
        51                         -0.2428118              -6.6072 (LUMO)
        52                         -0.2336210              -6.3572
        53                         -0.2298159              -6.2536
        54                         -0.2079526              -5.6587
        55                         -0.1692282              -4.6049
       ...                                ...                  ...
        91                          0.7063973              19.2220
      -------------------------------------------------------------
                  HL-Gap            0.1315106 Eh            3.5786 eV
             Fermi-level           -0.3085671 Eh           -8.3965 eV

 SCC (total)                   0 d,  0 h,  0 min,  0.009 sec
 SCC setup                      ...        0 min,  0.000 sec (  3.659%)
 Dispersion                     ...        0 min,  0.000 sec (  1.614%)
 classical contributions        ...        0 min,  0.000 sec (  0.156%)
 integral evaluation            ...        0 min,  0.000 sec (  5.600%)
 iterations                     ...        0 min,  0.006 sec ( 67.562%)
 molecular gradient             ...        0 min,  0.002 sec ( 19.305%)
 printout                       ...        0 min,  0.000 sec (  2.004%)

         :::::::::::::::::::::::::::::::::::::::::::::::::::::
         ::                     SUMMARY                     ::
         :::::::::::::::::::::::::::::::::::::::::::::::::::::
         :: total energy             -56.479049772039 Eh    ::
         :: gradient norm              0.000774010947 Eh/a0 ::
         :: HOMO-LUMO gap              3.578585351406 eV    ::
         ::.................................................::
         :: SCC energy               -57.235689438657 Eh    ::
         :: -> isotropic ES            0.098475693514 Eh    ::
         :: -> anisotropic ES          0.003226118091 Eh    ::
         :: -> anisotropic XC          0.019386789365 Eh    ::
         :: -> dispersion             -0.034081703676 Eh    ::
         :: repulsion energy           0.756639666619 Eh    ::
         :: add. restraining           0.000000000000 Eh    ::
         :: total charge              -0.000000000000 e     ::
         :::::::::::::::::::::::::::::::::::::::::::::::::::::

           -------------------------------------------------
          |                Property Printout                |
           -------------------------------------------------

    * Orbital Energies and Occupations

         #    Occupation            Energy/Eh            Energy/eV
      -------------------------------------------------------------
         1        2.0000           -0.7344246             -19.9847
       ...           ...                  ...                  ...
        38        2.0000           -0.4709576             -12.8154
        39        2.0000           -0.4649130             -12.6509
        40        2.0000           -0.4631415             -12.6027
        41        2.0000           -0.4592088             -12.4957
        42        2.0000           -0.4452962             -12.1171
        43        2.0000           -0.4367450             -11.8844
        44        2.0000           -0.4288616             -11.6699
        45        2.0000           -0.4258916             -11.5891
        46        2.0000           -0.4199136             -11.4264
        47        2.0000           -0.4019268             -10.9370
        48        2.0000           -0.3951558             -10.7527
        49        2.0000           -0.3921690             -10.6715
        50        2.0000           -0.3743224             -10.1858 (HOMO)
        51                         -0.2428118              -6.6072 (LUMO)
        52                         -0.2336210              -6.3572
        53                         -0.2298159              -6.2536
        54                         -0.2079526              -5.6587
        55                         -0.1692282              -4.6049
        56                         -0.0821427              -2.2352
        57                         -0.0191273              -0.5205
        58                          0.0106991               0.2911
        59                          0.0268663               0.7311
        60                          0.0655313               1.7832
        61                          0.0817051               2.2233
       ...                                ...                  ...
        91                          0.7063973              19.2220
      -------------------------------------------------------------
                  HL-Gap            0.1315106 Eh            3.5786 eV
             Fermi-level           -0.3085671 Eh           -8.3965 eV

     #   Z          covCN         q      C6AA      α(0)
     1   8 O        1.655    -0.376    20.385     6.095
     2   6 C        2.684     0.358    20.926     7.486
     3   8 O        0.856    -0.378    21.249     6.180
     4   1 H        0.800     0.365     0.556     1.171
     5   6 C        3.737    -0.040    21.365     6.596
     6   1 H        0.923     0.075     2.028     2.227
     7   1 H        0.925     0.078     1.999     2.211
     8   7 N        2.688    -0.163    24.535     7.357
     9   1 H        0.860     0.207     1.072     1.622
    10   6 C        2.758     0.261    22.595     7.784
    11   8 O        0.858    -0.462    22.957     6.424
    12   6 C        3.789     0.033    20.034     6.375
    13   1 H        0.923     0.034     2.532     2.488
    14   7 N        2.633    -0.357    29.195     8.025
    15   1 H        0.860     0.142     1.459     1.892
    16   1 H        0.860     0.163     1.313     1.795
    17   6 C        3.810    -0.061    21.673     6.627
    18   1 H        0.924     0.051     2.302     2.372
    19   1 H        0.924     0.051     2.310     2.377
    20   6 C        3.056    -0.032    28.743     8.792
    21   6 C        3.033    -0.007    28.168     8.705
    22   1 H        0.926     0.035     2.511     2.478
    23   7 N        2.778    -0.102    23.243     7.160
    24   1 H        0.860     0.160     1.335     1.810
    25   6 C        3.087     0.044    26.928     8.506
    26   6 C        2.908    -0.052    29.302     8.876
    27   1 H        0.926     0.025     2.662     2.552
    28   6 C        2.924    -0.036    28.891     8.815
    29   1 H        0.926     0.030     2.591     2.517
    30   6 C        2.919    -0.042    29.034     8.836
    31   1 H        0.926     0.028     2.615     2.529
    32   6 C        2.911    -0.041    29.010     8.832
    33   1 H        0.926     0.030     2.580     2.512
    34   6 C        3.116    -0.021    28.370     8.724

 Mol. C6AA /au·bohr⁶  :      13332.067340
 Mol. C8AA /au·bohr⁸  :     312430.684621
 Mol. α(0) /au        :        178.748407


Wiberg/Mayer (AO) data.
largest (>0.10) Wiberg bond orders for each atom

 ---------------------------------------------------------------------------
     #   Z sym  total        # sym  WBO       # sym  WBO       # sym  WBO
 ---------------------------------------------------------------------------
     1   8 O    2.232 --     2 C    1.201     4 H    0.769     3 O    0.183
     2   6 C    3.931 --     3 O    1.773     1 O    1.201     5 C    0.925
     3   8 O    2.065 --     2 C    1.773     1 O    0.183
     4   1 H    0.867 --     1 O    0.769
     5   6 C    3.964 --     8 N    0.991     7 H    0.974     6 H    0.953
                             2 C    0.925
     6   1 H    0.994 --     5 C    0.953
     7   1 H    0.994 --     5 C    0.974
     8   7 N    3.478 --    10 C    1.310     5 C    0.991     9 H    0.912
                            11 O    0.193
     9   1 H    0.957 --     8 N    0.912
    10   6 C    3.947 --    11 O    1.601     8 N    1.310    12 C    0.952
    11   8 O    2.005 --    10 C    1.601     8 N    0.193
    12   6 C    3.984 --    14 N    1.017    13 H    0.954    17 C    0.954
                            10 C    0.952
    13   1 H    0.999 --    12 C    0.954
    14   7 N    3.022 --    12 C    1.017    15 H    0.966    16 H    0.949
    15   1 H    0.980 --    14 N    0.966
    16   1 H    0.973 --    14 N    0.949
    17   6 C    3.992 --    20 C    1.016    19 H    0.972    18 H    0.970
                            12 C    0.954
    18   1 H    0.997 --    17 C    0.970
    19   1 H    0.997 --    17 C    0.972
    20   6 C    3.975 --    21 C    1.578    34 C    1.203    17 C    1.016
    21   6 C    3.951 --    20 C    1.578    23 N    1.199    22 H    0.970
    22   1 H    0.998 --    21 C    0.970
    23   7 N    3.546 --    21 C    1.199    25 C    1.177    24 H    0.947
    24   1 H    0.974 --    23 N    0.947
    25   6 C    3.958 --    26 C    1.337    34 C    1.247    23 N    1.177
    26   6 C    3.989 --    28 C    1.495    25 C    1.337    27 H    0.968
                            32 C    0.114
    27   1 H    0.999 --    26 C    0.968
    28   6 C    3.991 --    26 C    1.495    30 C    1.370    29 H    0.972
    29   1 H    0.999 --    28 C    0.972
    30   6 C    3.991 --    32 C    1.507    28 C    1.370    31 H    0.972
    31   1 H    0.999 --    30 C    0.972
    32   6 C    3.992 --    30 C    1.507    34 C    1.327    33 H    0.967
                            26 C    0.114
    33   1 H    0.999 --    32 C    0.967
    34   6 C    3.983 --    32 C    1.327    25 C    1.247    20 C    1.203
 ---------------------------------------------------------------------------

Topologies differ in total number of bonds
Writing topology from bond orders to xtbtopo.mol

molecular dipole:
                 x           y           z       tot (Debye)
 q only:        2.231      -0.641       0.775
   full:        2.723      -1.143       1.237       8.138
molecular quadrupole (traceless):
                xx          xy          yy          xz          yz          zz
 q only:      -25.853       5.583      16.531      -9.074      -2.681       9.322
  q+dip:      -32.573       5.197      20.734     -12.507      -5.597      11.839
   full:      -32.863       6.466      22.172     -11.264      -3.378      10.691

           -------------------------------------------------
          |                Geometry Summary                 |
           -------------------------------------------------

      molecular mass/u    :      261.2770023
   center of mass at/Å    :       -0.0084468       0.0157708       0.0121066
  moments of inertia/u·Å² :        0.4612914E+03   0.3394604E+04   0.3719261E+04
rotational constants/cm⁻¹ :        0.3654443E-01   0.4966009E-02   0.4532522E-02

 * 32 selected distances

     #   Z          #   Z                                           value/Å
     1   8 O        2   6 C                                       1.3179725
     2   6 C        3   8 O                                       1.1988356
     1   8 O        4   1 H                                       0.9988481 (min)
     5   6 C        6   1 H                                       1.0980628
     5   6 C        7   1 H                                       1.0891420
     5   6 C        8   7 N                                       1.4487977
     8   7 N        9   1 H                                       1.0126826
     8   7 N       10   6 C                                       1.3360841
    10   6 C       11   8 O                                       1.2275203
    12   6 C       13   1 H                                       1.1021443
    12   6 C       14   7 N                                       1.4565524
    14   7 N       15   1 H                                       1.0147253
    14   7 N       16   1 H                                       1.0146010
    17   6 C       18   1 H                                       1.0912466
    17   6 C       19   1 H                                       1.0912621
    17   6 C       20   6 C                                       1.4924093 (max)
    20   6 C       21   6 C                                       1.3652254
    21   6 C       22   1 H                                       1.0732473
    21   6 C       23   7 N                                       1.3674117
    23   7 N       24   1 H                                       1.0054400
    23   7 N       25   6 C                                       1.3642483
    25   6 C       26   6 C                                       1.3893412
    26   6 C       27   1 H                                       1.0801527
    26   6 C       28   6 C                                       1.3776220
    28   6 C       29   1 H                                       1.0799296
    28   6 C       30   6 C                                       1.3981972
    30   6 C       31   1 H                                       1.0799005
    30   6 C       32   6 C                                       1.3760203
    32   6 C       33   1 H                                       1.0800552
    20   6 C       34   6 C                                       1.4303032
    25   6 C       34   6 C                                       1.4165619
    32   6 C       34   6 C                                       1.3965069

 * 6 distinct bonds (by element types)

   Z      Z             #   av. dist./Å        max./Å        min./Å
   1 H    6 C          10     1.0865143     1.1021443     1.0732473
   6 C    6 C           9     1.4046875     1.4924093     1.3652254
   1 H    7 N           4     1.0118622     1.0147253     1.0054400
   6 C    7 N           5     1.3946188     1.4565524     1.3360841
   1 H    8 O           1     0.9988481     0.9988481     0.9988481
   6 C    8 O           3     1.2481095     1.3179725     1.1988356


optimized geometry written to: xtbopt.xyz


           -------------------------------------------------
          | TOTAL ENERGY              -56.479049772039 Eh   |
          | GRADIENT NORM               0.000774010947 Eh/α |
          | HOMO-LUMO GAP               3.578585351406 eV   |
           -------------------------------------------------

------------------------------------------------------------------------
 * finished run on 2026/10/01 at 18:05:18.431     
------------------------------------------------------------------------
 total:
 * wall-time:     0 d,  0 h,  0 min,  0.595 sec
 *  cpu-time:     0 d,  0 h,  0 min,  8.959 sec
 * ratio c/w:    15.054 speedup
 SCF:
 * wall-time:     0 d,  0 h,  0 min,  0.110 sec
 *  cpu-time:     0 d,  0 h,  0 min,  1.596 sec
 * ratio c/w:    14.530 speedup
 ANC optimizer:
 * wall-time:     0 d,  0 h,  0 min,  0.461 sec
 *  cpu-time:     0 d,  0 h,  0 min,  7.027 sec
 * ratio c/w:    15.234 speedup


--- STDERR ---
normal termination of xtb
Note: The following floating-point exceptions are signalling: IEEE_UNDERFLOW_FLAG IEEE_DENORMAL
