34
 energy: -56.479049772039 gnorm: 0.000774010947 xtb: 6.7.1-6.fc44.fc44
O           -4.85251739238495        1.44166993611046       -0.88732886610926
C           -4.25518844349888        1.94039907907995       -1.95105749916658
O           -4.79758803647146        2.06696471980934       -3.01265554314234
H           -4.23430631185624        1.36164534452819       -0.10687478977369
C           -2.79419061781459        2.39039080019816       -1.72520283530412
H           -2.81061249888799        3.17113465701040       -0.95325002138913
H           -2.41058220900356        2.80773583818069       -2.65520168439467
N           -1.92374900582525        1.31565272922217       -1.29359680012939
H           -1.19987518433319        0.96438613955065       -1.90853120831880
C           -1.97483905834233        0.75334974117902       -0.08267750880250
O           -2.83302240480457        1.02033518133642        0.75341220711136
C           -0.84270791080070       -0.22573555802957        0.19055785546619
H           -1.23915654170883       -1.02058706830555        0.84306176939240
N           -0.30302390459547       -0.71380340956284       -1.07121689978446
H           -0.90714811416165       -1.42784709598245       -1.46471755851499
H            0.60837543596619       -1.13186131158523       -0.91631778473314
C            0.24939782549322        0.53356240908811        0.97615751145932
H           -0.22653156413454        1.03383334342091        1.82116586106309
H            0.68856351996619        1.28581026357586        0.31880727055744
C            1.30788282235146       -0.39780981838612        1.46548409607533
C            1.29224200040858       -1.11162080515825        2.62912887789737
H            0.55561265357757       -1.11335114712655        3.40966315359140
N            2.41145432646521       -1.89198685669066        2.71972081324238
H            2.63988391939159       -2.49767730149083        3.48905067557192
C            3.18037269771740       -1.69742696303132        1.60972802312810
C            4.39795796709061       -2.25801035692355        1.24435035067928
H            4.89525253112791       -2.97392030912709        1.88223796891958
C            4.94552217193107       -1.86625783788263        0.04245787333061
H            5.89080907823918       -2.28207065559860       -0.27342193699735
C            4.30326708344709       -0.93506830825400       -0.77933860751219
H            4.76842359213880       -0.65234099143821       -1.71201198917124
C            3.09775400845604       -0.37494554767963       -0.42376545814452
H            2.61265658448488        0.34597486282502       -1.06522724266513
C            2.51382036783204       -0.75754618654885        0.78572590243186
