34
frame_0020
O      -0.976950505300000      1.040733963800000     -2.565210608600000
C      -0.722302601800000      1.951045675900000     -1.645753035900000
O       0.104714291500000      2.807977234600000     -1.777043406000000
H      -1.679019100000000      0.397096366500000     -2.269490277500000
C      -1.617135065500000      1.871030028000000     -0.390255529800000
H      -2.653544234300000      2.010178189700000     -0.723461545300000
H      -1.341789328000000      2.681261529300000      0.283561427800000
N      -1.534172287500000      0.612760675000000      0.330742245900000
H      -0.978831781100000      0.588616142800000      1.171396941700000
C      -2.039500472000000     -0.538901246200000     -0.139792749400000
O      -2.551728061100000     -0.626211774100000     -1.252294194200000
C      -1.971379195600000     -1.733477227800000      0.809766319000000
H      -2.179348919200000     -1.391709435100000      1.830735235000000
N      -2.934393943800000     -2.760637053700000      0.470931848600000
H      -2.801421680200000     -3.037945434300000     -0.497463178700000
H      -3.879782241700000     -2.399917249500000      0.547019294500000
C      -0.552608507500000     -2.347480233900000      0.766398865400000
H      -0.333655343000000     -2.644046932300000     -0.260703489400000
H      -0.580519090600000     -3.247200273600000      1.382786608700000
C       0.496572112500000     -1.408520715800000      1.256610275400000
C       0.836642304100000     -1.152788692200000      2.555026902300000
H       0.451087641600000     -1.592981740400000      3.455044096900000
N       1.813606421900000     -0.195132645300000      2.606934409300000
H       2.263919869100000      0.133353732100000      3.443673198900000
C       2.135791294600000      0.181811369000000      1.332500146000000
C       3.052994456000000      1.117333659400000      0.870259999600000
H       3.665281443900000      1.682904951600000      1.557258182800000
C       3.149027589300000      1.294347114000000     -0.492526234400000
H       3.845581513600000      2.017595902800000     -0.887442243500000
C       2.360556189100000      0.557105702900000     -1.380386399800000
H       2.464235435300000      0.730721909700000     -2.439779399100000
C       1.449685436700000     -0.369088667300000     -0.928840475300000
H       0.844527507700000     -0.931776757000000     -1.624041805300000
C       1.321661825800000     -0.562784669300000      0.447380838800000
