34
 energy: -56.480038545826 gnorm: 0.000077640726 xtb: 6.7.1-6.fc44.fc44
O           -0.97695050530000        1.04073396380000       -2.56521060860000
C           -0.72230260180000        1.95104567590000       -1.64575303590000
O            0.10471429150000        2.80797723460000       -1.77704340600000
H           -1.67901910000000        0.39709636650000       -2.26949027750000
C           -1.61713506550000        1.87103002800000       -0.39025552980000
H           -2.65354423430000        2.01017818970000       -0.72346154530000
H           -1.34178932800000        2.68126152930000        0.28356142780000
N           -1.53417228750000        0.61276067500000        0.33074224590000
H           -0.97883178110000        0.58861614280000        1.17139694170000
C           -2.03950047200000       -0.53890124620000       -0.13979274940000
O           -2.55172806110000       -0.62621177410000       -1.25229419420000
C           -1.97137919560000       -1.73347722780000        0.80976631900000
H           -2.17934891920000       -1.39170943510000        1.83073523500000
N           -2.93439394380000       -2.76063705370000        0.47093184860000
H           -2.80142168020000       -3.03794543430000       -0.49746317870000
H           -3.87978224170000       -2.39991724950000        0.54701929450000
C           -0.55260850750000       -2.34748023390000        0.76639886540000
H           -0.33365534300000       -2.64404693230000       -0.26070348940000
H           -0.58051909060000       -3.24720027360000        1.38278660870000
C            0.49657211250000       -1.40852071580000        1.25661027540000
C            0.83664230410000       -1.15278869220000        2.55502690230000
H            0.45108764160000       -1.59298174040000        3.45504409690000
N            1.81360642190000       -0.19513264530000        2.60693440930000
H            2.26391986910000        0.13335373210000        3.44367319890000
C            2.13579129460000        0.18181136900000        1.33250014600000
C            3.05299445600000        1.11733365940000        0.87025999960000
H            3.66528144390000        1.68290495160000        1.55725818280000
C            3.14902758930000        1.29434711400000       -0.49252623440000
H            3.84558151360000        2.01759590280000       -0.88744224350000
C            2.36055618910000        0.55710570290000       -1.38038639980000
H            2.46423543530000        0.73072190970000       -2.43977939910000
C            1.44968543670000       -0.36908866730000       -0.92884047530000
H            0.84452750770000       -0.93177675700000       -1.62404180530000
C            1.32166182580000       -0.56278466930000        0.44738083880000
