34
frame_0043
O      -2.015598120100000      2.664005801600000      0.006397973700000
C      -3.254210465800000      2.360441456800000     -0.329012929800000
O      -3.970638518300000      3.103023621600000     -0.939452434800000
H      -1.561282568100000      1.906392548900000      0.479564562400000
C      -3.734244942300000      0.970858275700000      0.145815851100000
H      -4.768925063700000      0.835672670200000     -0.165475715900000
H      -3.676226840100000      0.960263682200000      1.242379947700000
N      -2.927817725000000     -0.108272918700000     -0.393128256200000
H      -3.367965459800000     -0.817879714200000     -0.961033364100000
C      -1.684993064400000     -0.368492587700000      0.034056480000000
O      -1.091311247500000      0.361454494900000      0.822225007000000
C      -1.034165163700000     -1.598703432300000     -0.577730429200000
H      -0.608227294200000     -2.173861205800000      0.249760842600000
N      -2.022295637800000     -2.408901651500000     -1.281274216400000
H      -1.752277513900000     -3.384862992600000     -1.279830985400000
H      -2.082508170700000     -2.117425894400000     -2.252825052500000
C       0.122338198400000     -1.129004650600000     -1.501027297900000
H      -0.299637590100000     -0.502072220100000     -2.291973188100000
H       0.564398416500000     -2.017982910800000     -1.960454977500000
C       1.167821289900000     -0.370154594100000     -0.760800623700000
C       1.319747563300000      0.985288796000000     -0.709370464100000
H       0.752595187300000      1.750046153800000     -1.205043208500000
N       2.362676941500000      1.309879422400000      0.109838800300000
H       2.650574032300000      2.245775575400000      0.337939355100000
C       2.900089678800000      0.166050885800000      0.622230693500000
C       3.962106077500000     -0.021763379700000      1.497367495400000
H       4.509673530300000      0.819064785600000      1.897401012100000
C       4.288893548300000     -1.316628015600000      1.837281306300000
H       5.108040434600000     -1.499204857800000      2.517027982400000
C       3.580679591400000     -2.404115413600000      1.318524795600000
H       3.870902939400000     -3.403188959200000      1.609885407000000
C       2.528063361400000     -2.225006269500000      0.449969149500000
H       1.991075112700000     -3.074876950800000      0.053308647900000
C       2.171609555500000     -0.925559862400000      0.090025482000000
