34
frame_0034
O      -0.577902518000000      1.040567596700000     -2.417581532300000
C      -0.575191256700000      1.935944651900000     -1.451347293100000
O       0.222637166900000      2.827073005500000     -1.376892253600000
H      -1.261900379300000      0.330630748800000     -2.264611628300000
C      -1.728947242900000      1.791354381000000     -0.433741240300000
H      -2.668937357000000      1.834876436000000     -0.998186661600000
H      -1.684606418600000      2.628826724300000      0.261261530300000
N      -1.703429326200000      0.552855252200000      0.322973133400000
H      -1.402421718400000      0.594940267200000      1.283319005600000
C      -1.985785113000000     -0.643530013700000     -0.216178007200000
O      -2.194807813100000     -0.790982311200000     -1.414520006900000
C      -2.005857383300000     -1.807191411800000      0.760883706500000
H      -2.312971562200000     -1.449595997400000      1.752684739300000
N      -2.981027099900000     -2.772875084500000      0.304983958200000
H      -2.803068865500000     -3.688077194300000      0.701977496600000
H      -2.938602000200000     -2.842881759700000     -0.707439995800000
C      -0.556559183400000     -2.365100490700000      0.868784280700000
H      -0.262601296900000     -2.759286972900000     -0.106065888500000
H      -0.569868984500000     -3.188885986100000      1.587481646900000
C       0.410437721100000     -1.315638977200000      1.299096501100000
C       0.597017904700000     -0.829757335600000      2.562528313400000
H       0.141179572200000     -1.140151323400000      3.484146071000000
N       1.518708349300000      0.183207998100000      2.545488642100000
H       1.859564678700000      0.675786066100000      3.352848225500000
C       1.954081780200000      0.367132425000000      1.262387516900000
C       2.872150280300000      1.269392871600000      0.740583582800000
H       3.379001295300000      1.979083201500000      1.377469785500000
C       3.105133005200000      1.225981874200000     -0.615991540100000
H       3.805372732900000      1.917841380100000     -1.057645716700000
C       2.448483443900000      0.306598754500000     -1.438201123100000
H       2.655511850400000      0.310543298300000     -2.496970681500000
C       1.535925027700000     -0.586856255200000     -0.928117693600000
H       1.027858520600000     -1.286391217900000     -1.575149697200000
C       1.272703411700000     -0.560965503000000      0.441734507900000
