      -----------------------------------------------------------      
     |                   =====================                   |     
     |                           x T B                           |     
     |                   =====================                   |     
     |                         S. Grimme                         |     
     |          Mulliken Center for Theoretical Chemistry        |     
     |                    University of Bonn                     |     
      -----------------------------------------------------------      

   * xtb version 6.7.1-6.fc44.fc44 compiled by Fedora project on Sun Jan 18 23:32:34 UTC 2026

   xtb is free software: you can redistribute it and/or modify it under
   the terms of the GNU Lesser General Public License as published by
   the Free Software Foundation, either version 3 of the License, or
   (at your option) any later version.
   
   xtb is distributed in the hope that it will be useful,
   but WITHOUT ANY WARRANTY; without even the implied warranty of
   MERCHANTABILITY or FITNESS FOR A PARTICULAR PURPOSE.  See the
   GNU Lesser General Public License for more details.
   
   Cite this work as:
   * C. Bannwarth, E. Caldeweyher, S. Ehlert, A. Hansen, P. Pracht,
     J. Seibert, S. Spicher, S. Grimme, WIREs Comput. Mol. Sci., 2020, 11,
     e01493. DOI: 10.1002/wcms.1493
   
   for GFN2-xTB:
   * C. Bannwarth, S. Ehlert and S. Grimme., J. Chem. Theory Comput., 2019,
     15, 1652-1671. DOI: 10.1021/acs.jctc.8b01176
   for GFN1-xTB:
   * S. Grimme, C. Bannwarth, P. Shushkov, J. Chem. Theory Comput., 2017,
     13, 1989-2009. DOI: 10.1021/acs.jctc.7b00118
   for GFN0-xTB:
   * P. Pracht, E. Caldeweyher, S. Ehlert, S. Grimme, ChemRxiv, 2019, preprint.
     DOI: 10.26434/chemrxiv.8326202.v1
   for GFN-FF:
   * S. Spicher and S. Grimme, Angew. Chem. Int. Ed., 2020, 59, 15665-15673.
     DOI: 10.1002/anie.202004239
   
   for ALPB and GBSA implicit solvation:
   * S. Ehlert, M. Stahn, S. Spicher, S. Grimme, J. Chem. Theory Comput.,
     2021, 17, 4250-4261. DOI: 10.1021/acs.jctc.1c00471
   
   for ddCOSMO and CPCM-X implicit solvation:
   * M. Stahn, S. Ehlert, S. Grimme, J. Phys. Chem. A,
     2023, XX, XXXX-XXXX. DOI: 10.1021/acs.jpca.3c04382
   
   for DFT-D4:
   * E. Caldeweyher, C. Bannwarth and S. Grimme, J. Chem. Phys., 2017,
     147, 034112. DOI: 10.1063/1.4993215
   * E. Caldeweyher, S. Ehlert, A. Hansen, H. Neugebauer, S. Spicher,
     C. Bannwarth and S. Grimme, J. Chem. Phys., 2019, 150, 154122.
     DOI: 10.1063/1.5090222
   * E. Caldeweyher, J.-M. Mewes, S. Ehlert and S. Grimme, Phys. Chem. Chem. Phys.
     2020, 22, 8499-8512. DOI: 10.1039/D0CP00502A
   
   for sTDA-xTB:
   * S. Grimme and C. Bannwarth, J. Chem. Phys., 2016, 145, 054103.
     DOI: 10.1063/1.4959605
   
   in the mass-spec context:
   * V. Asgeirsson, C. Bauer and S. Grimme, Chem. Sci., 2017, 8, 4879.
     DOI: 10.1039/c7sc00601b
   * J. Koopman and S. Grimme, ACS Omega 2019, 4, 12, 15120-15133.
     DOI: 10.1021/acsomega.9b02011
   
   for metadynamics refer to:
   * S. Grimme, J. Chem. Theory Comput., 2019, 155, 2847-2862
     DOI: 10.1021/acs.jctc.9b00143
   
   for SPH calculations refer to:
   * S. Spicher and S. Grimme, J. Chem. Theory Comput., 2021, 17, 1701-1714
     DOI: 10.1021/acs.jctc.0c01306
   
   for ONIOM refer to:
   * C. Plett, A. Katbashev, S. Ehlert, S. Grimme, M. Bursch,
     Phys. Chem. Chem. Phys., 2023, 25, 17860-17868. DOI: 10.1039/D3CP02178E
   
   for DIPRO refer to:
   * J. Kohn, N. Gildemeister, S. Grimme, D. Fazzi, A. Hansen,
     J. Chem. Phys., 2023, just accepted.
   
   for PTB refer to:
   * S. Grimme, M. Mueller, A. Hansen, J. Chem. Phys., 2023, 158, 124111.
     DOI: 10.1063/5.0137838
   
   with help from (in alphabetical order)
   P. Atkinson, C. Bannwarth, F. Bohle, G. Brandenburg, E. Caldeweyher
   M. Checinski, S. Dohm, S. Ehlert, S. Ehrlich, I. Gerasimov, C. Hölzer
   A. Katbashev, J. Kohn, J. Koopman, C. Lavigne, S. Lehtola, F. März, M. Müller,
   F. Musil, H. Neugebauer, J. Pisarek, C. Plett, P. Pracht, F. Pultar,
   J. Seibert, P. Shushkov, S. Spicher, M. Stahn, M. Steiner, T. Strunk,
   J. Stückrath, T. Rose, and J. Unsleber
   
 * started run on 2026/10/01 at 18:03:27.400     
   ID    Z sym.   atoms
    1    8 O      1, 3, 11
    2    6 C      2, 5, 10, 12, 17, 20, 21, 25, 26, 28, 30, 32, 34
    3    1 H      4, 6, 7, 9, 13, 15, 16, 18, 19, 22, 24, 27, 29, 31, 33
    4    7 N      8, 14, 23

           -------------------------------------------------
          |                Calculation Setup                |
           -------------------------------------------------

          program call               : /usr/bin/xtb input.xyz --opt --gfn 2 --chrg 0 --uhf 0
          hostname                   : fedora
          coordinate file            : input.xyz
          omp threads                :                    16


           -------------------------------------------------
          |                 G F N 2 - x T B                 |
           -------------------------------------------------

        Reference                      10.1021/acs.jctc.8b01176
      * Hamiltonian:
        H0-scaling (s, p, d)           1.850000    2.230000    2.230000
        zeta-weighting                 0.500000
      * Dispersion:
        s8                             2.700000
        a1                             0.520000
        a2                             5.000000
        s9                             5.000000
      * Repulsion:
        kExp                           1.500000    1.000000
        rExp                           1.000000
      * Coulomb:
        alpha                          2.000000
        third order                    shell-resolved
        anisotropic                    true
        a3                             3.000000
        a5                             4.000000
        cn-shift                       1.200000
        cn-exp                         4.000000
        max-rad                        5.000000


          ...................................................
          :                      SETUP                      :
          :.................................................:
          :  # basis functions                  91          :
          :  # atomic orbitals                  91          :
          :  # shells                           53          :
          :  # electrons                       100          :
          :  max. iterations                   250          :
          :  Hamiltonian                  GFN2-xTB          :
          :  restarted?                      false          :
          :  GBSA solvation                  false          :
          :  PC potential                    false          :
          :  electronic temp.          300.0000000     K    :
          :  accuracy                    1.0000000          :
          :  -> integral cutoff          0.2500000E+02      :
          :  -> integral neglect         0.1000000E-07      :
          :  -> SCF convergence          0.1000000E-05 Eh   :
          :  -> wf. convergence          0.1000000E-03 e    :
          :  Broyden damping             0.4000000          :
          :  net charge                          0          :
          :  unpaired electrons                  0          :
          ...................................................

 iter      E             dE          RMSdq      gap      omega  full diag
   1    -57.0917730 -0.570918E+02  0.413E+00    3.00       0.0  T
   2    -57.2224414 -0.130668E+00  0.243E+00    3.55       1.0  T
   3    -57.2295249 -0.708348E-02  0.132E+00    3.59       1.0  T
   4    -57.2293428  0.182059E-03  0.521E-01    3.45       1.0  T
   5    -57.2374779 -0.813510E-02  0.116E-01    3.41       1.0  T
   6    -57.2376459 -0.167959E-03  0.586E-02    3.43       1.0  T
   7    -57.2376835 -0.376174E-04  0.253E-02    3.43       1.0  T
   8    -57.2376838 -0.322495E-06  0.115E-02    3.43       1.5  T
   9    -57.2376863 -0.246421E-05  0.344E-03    3.43       5.0  T
  10    -57.2376864 -0.544445E-07  0.151E-03    3.43      11.3  T
  11    -57.2376864 -0.133874E-07  0.639E-04    3.43      26.8  T
  12    -57.2376864 -0.399952E-08  0.217E-04    3.43      79.0  T

   *** convergence criteria satisfied after 12 iterations ***

         #    Occupation            Energy/Eh            Energy/eV
      -------------------------------------------------------------
         1        2.0000           -0.7348220             -19.9955
       ...           ...                  ...                  ...
        44        2.0000           -0.4218597             -11.4794
        45        2.0000           -0.4181493             -11.3784
        46        2.0000           -0.4144102             -11.2767
        47        2.0000           -0.4036672             -10.9843
        48        2.0000           -0.3828669             -10.4183
        49        2.0000           -0.3815536             -10.3826
        50        2.0000           -0.3645652              -9.9203 (HOMO)
        51                         -0.2386450              -6.4939 (LUMO)
        52                         -0.2324413              -6.3250
        53                         -0.2307898              -6.2801
        54                         -0.1964462              -5.3456
        55                         -0.1654647              -4.5025
       ...                                ...                  ...
        91                          0.7163097              19.4918
      -------------------------------------------------------------
                  HL-Gap            0.1259202 Eh            3.4265 eV
             Fermi-level           -0.3016051 Eh           -8.2071 eV

 SCC (total)                   0 d,  0 h,  0 min,  0.458 sec
 SCC setup                      ...        0 min,  0.000 sec (  0.017%)
 Dispersion                     ...        0 min,  0.000 sec (  0.046%)
 classical contributions        ...        0 min,  0.000 sec (  0.011%)
 integral evaluation            ...        0 min,  0.011 sec (  2.393%)
 iterations                     ...        0 min,  0.445 sec ( 97.099%)
 molecular gradient             ...        0 min,  0.002 sec (  0.362%)
 printout                       ...        0 min,  0.000 sec (  0.070%)

         :::::::::::::::::::::::::::::::::::::::::::::::::::::
         ::                     SUMMARY                     ::
         :::::::::::::::::::::::::::::::::::::::::::::::::::::
         :: total energy             -56.478734146023 Eh    ::
         :: gradient norm              0.000140523741 Eh/a0 ::
         :: HOMO-LUMO gap              3.426462729320 eV    ::
         ::.................................................::
         :: SCC energy               -57.236694789945 Eh    ::
         :: -> isotropic ES            0.096997735584 Eh    ::
         :: -> anisotropic ES          0.006258153475 Eh    ::
         :: -> anisotropic XC          0.019417334102 Eh    ::
         :: -> dispersion             -0.039841991942 Eh    ::
         :: repulsion energy           0.757960643922 Eh    ::
         :: add. restraining           0.000000000000 Eh    ::
         :: total charge               0.000000000000 e     ::
         :::::::::::::::::::::::::::::::::::::::::::::::::::::

      ----------------------------------------------------------- 
     |                   =====================                   |
     |                        A N C O P T                        |
     |                   =====================                   |
     |               Approximate Normal Coordinate               |
     |                Rational Function Optimizer                |
      ----------------------------------------------------------- 
      ----------------------------------------------------------- 
     |                   =====================                   |
     |                        A N C O P T                        |
     |                   =====================                   |
     |               Approximate Normal Coordinate               |
     |                Rational Function Optimizer                |
      ----------------------------------------------------------- 

          ...................................................
          :                      SETUP                      :
          :.................................................:
          :   optimization level            normal          :
          :   max. optcycles                   200          :
          :   ANC micro-cycles                  20          :
          :   degrees of freedom                96          :
          :.................................................:
          :   RF solver                   davidson          :
          :   write xtbopt.log                true          :
          :   linear?                        false          :
          :   energy convergence         0.5000000E-05 Eh   :
          :   grad. convergence          0.1000000E-02 Eh/α :
          :   maxmium RF displ.          1.0000000          :
          :   Hlow (freq-cutoff)         0.1000000E-01      :
          :   Hmax (freq-cutoff)         5.0000000          :
          :   S6 in model hess.         20.0000000          :
          ...................................................

generating ANC from exact Hessian ...
Using Lindh-Hessian (1995)
 Shifting diagonal of input Hessian by    9.4769860870725624E-003
 Lowest  eigenvalues of input Hessian
    0.000000    0.000000    0.000000    0.000000    0.000000    0.000000
    0.010000    0.010663    0.011157    0.011965    0.012499    0.014981
    0.016589    0.019179    0.019542    0.020711    0.023420    0.026243
 Highest eigenvalues
    2.000798    2.008920    2.093244    2.200704    2.301330    2.370028


........................................................................
.............................. CYCLE    1 ..............................
........................................................................

 iter      E             dE          RMSdq      gap      omega  full diag
   1    -57.2376864 -0.572377E+02  0.937E-05    3.43       0.0  T
   2    -57.2376864 -0.415099E-10  0.538E-05    3.43     318.7  T
   3    -57.2376864 -0.237321E-11  0.340E-05    3.43     504.3  T
     SCC iter.                  ...        0 min,  0.051 sec
     gradient                   ...        0 min,  0.001 sec
 * total energy  :   -56.4787341 Eh     change       -0.6821210E-09 Eh
   gradient norm :     0.0001414 Eh/α   predicted     0.0000000E+00 (-100.00%)
   displ. norm   :     0.0002121 α      lambda        0.0000000E+00
   maximum displ.:     0.0001079 α      in ANC's #91, #93, #87, ...

   *** GEOMETRY OPTIMIZATION CONVERGED AFTER 1 ITERATIONS ***

------------------------------------------------------------------------
 total energy gain   :        -0.0000000 Eh       -0.0000 kcal/mol
 total RMSD          :         0.0000000 a0        0.0000 Å
 total power (kW/mol):        -0.0000018 (step)   -0.0000 (real)
------------------------------------------------------------------------

 ANCopt (total)                0 d,  0 h,  0 min,  0.068 sec
 optimizer setup                ...        0 min,  0.000 sec (  0.200%)
 model hessian                  ...        0 min,  0.009 sec ( 12.960%)
 ANC generation                 ...        0 min,  0.005 sec (  8.065%)
 coordinate transformation      ...        0 min,  0.000 sec (  0.022%)
 single point calculation       ...        0 min,  0.053 sec ( 77.983%)
 optimization log               ...        0 min,  0.000 sec (  0.157%)
 hessian update                 ...        0 min,  0.000 sec (  0.001%)
 rational function              ...        0 min,  0.000 sec (  0.117%)

================
 final structure:
================
34
 xtb: 6.7.1-6.fc44.fc44
O           -0.57790251800000        1.04056759670000       -2.41758153230000
C           -0.57519125670000        1.93594465190000       -1.45134729310000
O            0.22263716690000        2.82707300550000       -1.37689225360000
H           -1.26190037930000        0.33063074880000       -2.26461162830000
C           -1.72894724290000        1.79135438100000       -0.43374124030000
H           -2.66893735700000        1.83487643600000       -0.99818666160000
H           -1.68460641860000        2.62882672430000        0.26126153030000
N           -1.70342932620000        0.55285525220000        0.32297313340000
H           -1.40242171840000        0.59494026720000        1.28331900560000
C           -1.98578511300000       -0.64353001370000       -0.21617800720000
O           -2.19480781310000       -0.79098231120000       -1.41452000690000
C           -2.00585738330000       -1.80719141180000        0.76088370650000
H           -2.31297156220000       -1.44959599740000        1.75268473930000
N           -2.98102709990000       -2.77287508450000        0.30498395820000
H           -2.80306886550000       -3.68807719430000        0.70197749660000
H           -2.93860200020000       -2.84288175970000       -0.70743999580000
C           -0.55655918340000       -2.36510049070000        0.86878428070000
H           -0.26260129690000       -2.75928697290000       -0.10606588850000
H           -0.56986898450000       -3.18888598610000        1.58748164690000
C            0.41043772110000       -1.31563897720000        1.29909650110000
C            0.59701790470000       -0.82975733560000        2.56252831340000
H            0.14117957220000       -1.14015132340000        3.48414607100000
N            1.51870834930000        0.18320799810000        2.54548864210000
H            1.85956467870000        0.67578606610000        3.35284822550000
C            1.95408178020000        0.36713242500000        1.26238751690000
C            2.87215028030000        1.26939287160000        0.74058358280000
H            3.37900129530000        1.97908320150000        1.37746978550000
C            3.10513300520000        1.22598187420000       -0.61599154010000
H            3.80537273290000        1.91784138010000       -1.05764571670000
C            2.44848344390000        0.30659875450000       -1.43820112310000
H            2.65551185040000        0.31054329830000       -2.49697068150000
C            1.53592502770000       -0.58685625520000       -0.92811769360000
H            1.02785852060000       -1.28639121790000       -1.57514969720000
C            1.27270341170000       -0.56096550300000        0.44173450790000

 Bond Distances (Angstroems)
 ---------------------------
O1-C2=1.3173         O1-H4=0.9976         C2-O1=1.3173         C2-O3=1.1984         C2-C5=1.5452         O3-C2=1.1984         
H4-O1=0.9976         C5-C2=1.5452         C5-H6=1.0973         C5-H7=1.0892         C5-N8=1.4516         H6-C5=1.0973         
H7-C5=1.0892         N8-C5=1.4516         N8-H9=1.0073         N8-C10=1.3423        H9-N8=1.0073         C10-N8=1.3423        
C10-O11=1.2253       C10-C12=1.5196       O11-C10=1.2253       C12-C10=1.5196       C12-H13=1.0981       C12-N14=1.4461       
C12-C17=1.5567       H13-C12=1.0981       N14-C12=1.4461       N14-H15=1.0133       N14-H16=1.0157       H15-N14=1.0133       
H16-N14=1.0157       C17-C12=1.5567       C17-H18=1.0918       C17-H19=1.0933       C17-C20=1.4905       H18-C17=1.0918       
H19-C17=1.0933       C20-C17=1.4905       C20-C21=1.3664       C20-C34=1.4311       C21-C20=1.3664       C21-H22=1.0740       
C21-N23=1.3696       H22-C21=1.0740       N23-C21=1.3696       N23-H24=1.0053       N23-C25=1.3674       H24-N23=1.0053       
C25-N23=1.3674       C25-C26=1.3890       C25-C34=1.4139       C26-C25=1.3890       C26-H27=1.0799       C26-C28=1.3771       
H27-C26=1.0799       C28-C26=1.3771       C28-H29=1.0789       C28-C30=1.3973       H29-C28=1.0789       C30-C28=1.3973       
C30-H31=1.0788       C30-C32=1.3752       H31-C30=1.0788       C32-C30=1.3752       C32-H33=1.0799       C32-C34=1.3952       
H33-C32=1.0799       C34-C20=1.4311       C34-C25=1.4139       C34-C32=1.3952       
 C  H  Rav=1.0861 sigma=0.0083  Rmin=1.0740  Rmax=1.0981    10
 C  C  Rav=1.4381 sigma=0.0673  Rmin=1.3664  Rmax=1.5567    12
 N  H  Rav=1.0104 sigma=0.0043  Rmin=1.0053  Rmax=1.0157     4
 N  C  Rav=1.3954 sigma=0.0447  Rmin=1.3423  Rmax=1.4516     5
 O  H  Rav=0.9976 sigma=0.0000  Rmin=0.9976  Rmax=0.9976     1
 O  C  Rav=1.2470 sigma=0.0509  Rmin=1.1984  Rmax=1.3173     3

 selected bond angles (degree)
 --------------------
H4-O1-C2=111.88                O3-C2-O1=123.53                C5-C2-O1=114.70                C5-C2-O3=121.72                
H6-C5-C2=107.29                H7-C5-C2=108.53                H7-C5-H6=109.43                N8-C5-C2=114.21                
N8-C5-H6=108.48                N8-C5-H7=108.82                H9-N8-C5=117.81                C10-N8-C5=123.19               
C10-N8-H9=118.88               O11-C10-N8=122.41              C12-C10-N8=115.28              C12-C10-O11=122.30             

 selected dihedral angles (degree)
 ---------------------------------
O3-C2-O1-H4=174.69            C5-C2-O1-H4=352.19            H6-C5-C2-O1=303.30            H6-C5-C2-O3=120.85            
H7-C5-C2-O1=185.16            H7-C5-C2-O3=  2.71            N8-C5-C2-O1= 63.57            N8-C5-C2-O3=241.12            
H9-N8-C5-C2=105.05            H9-N8-C5-H6=224.64            H9-N8-C5-H7=343.62            C10-N8-C5-C2=289.00           
C10-N8-C5-H6= 48.59           C10-N8-C5-H7=167.57           O11-C10-N8-C5=  5.32          O11-C10-N8-H9=189.30          
C12-C10-N8-C5=184.36          C12-C10-N8-H9=  8.35          
           -------------------------------------------------
          |                Final Singlepoint                |
           -------------------------------------------------

          ...................................................
          :                      SETUP                      :
          :.................................................:
          :  # basis functions                  91          :
          :  # atomic orbitals                  91          :
          :  # shells                           53          :
          :  # electrons                       100          :
          :  max. iterations                   250          :
          :  Hamiltonian                  GFN2-xTB          :
          :  restarted?                      false          :
          :  GBSA solvation                  false          :
          :  PC potential                    false          :
          :  electronic temp.          300.0000000     K    :
          :  accuracy                    1.0000000          :
          :  -> integral cutoff          0.2500000E+02      :
          :  -> integral neglect         0.1000000E-07      :
          :  -> SCF convergence          0.1000000E-05 Eh   :
          :  -> wf. convergence          0.1000000E-03 e    :
          :  Broyden damping             0.4000000          :
          :  net charge                          0          :
          :  unpaired electrons                  0          :
          ...................................................

 iter      E             dE          RMSdq      gap      omega  full diag
   1    -57.2376864 -0.572377E+02  0.115E-05    3.43       0.0  T
   2    -57.2376864 -0.653699E-12  0.850E-06    3.43    2016.7  T
   3    -57.2376864 -0.157740E-11  0.465E-06    3.43    3684.3  T

   *** convergence criteria satisfied after 3 iterations ***

         #    Occupation            Energy/Eh            Energy/eV
      -------------------------------------------------------------
         1        2.0000           -0.7348242             -19.9956
       ...           ...                  ...                  ...
        44        2.0000           -0.4218594             -11.4794
        45        2.0000           -0.4181489             -11.3784
        46        2.0000           -0.4144095             -11.2767
        47        2.0000           -0.4036675             -10.9844
        48        2.0000           -0.3828658             -10.4183
        49        2.0000           -0.3815539             -10.3826
        50        2.0000           -0.3645647              -9.9203 (HOMO)
        51                         -0.2386452              -6.4939 (LUMO)
        52                         -0.2324415              -6.3251
        53                         -0.2307905              -6.2801
        54                         -0.1964448              -5.3455
        55                         -0.1654641              -4.5025
       ...                                ...                  ...
        91                          0.7163103              19.4918
      -------------------------------------------------------------
                  HL-Gap            0.1259195 Eh            3.4264 eV
             Fermi-level           -0.3016050 Eh           -8.2071 eV

 SCC (total)                   0 d,  0 h,  0 min,  0.076 sec
 SCC setup                      ...        0 min,  0.005 sec (  6.438%)
 Dispersion                     ...        0 min,  0.011 sec ( 13.860%)
 classical contributions        ...        0 min,  0.006 sec (  8.042%)
 integral evaluation            ...        0 min,  0.014 sec ( 18.655%)
 iterations                     ...        0 min,  0.038 sec ( 50.028%)
 molecular gradient             ...        0 min,  0.002 sec (  2.425%)
 printout                       ...        0 min,  0.000 sec (  0.528%)

         :::::::::::::::::::::::::::::::::::::::::::::::::::::
         ::                     SUMMARY                     ::
         :::::::::::::::::::::::::::::::::::::::::::::::::::::
         :: total energy             -56.478734146724 Eh    ::
         :: gradient norm              0.000141038151 Eh/a0 ::
         :: HOMO-LUMO gap              3.426443907595 eV    ::
         ::.................................................::
         :: SCC energy               -57.236694790646 Eh    ::
         :: -> isotropic ES            0.096996003161 Eh    ::
         :: -> anisotropic ES          0.006258229771 Eh    ::
         :: -> anisotropic XC          0.019417167121 Eh    ::
         :: -> dispersion             -0.039842022181 Eh    ::
         :: repulsion energy           0.757960643922 Eh    ::
         :: add. restraining           0.000000000000 Eh    ::
         :: total charge              -0.000000000000 e     ::
         :::::::::::::::::::::::::::::::::::::::::::::::::::::

           -------------------------------------------------
          |                Property Printout                |
           -------------------------------------------------

    * Orbital Energies and Occupations

         #    Occupation            Energy/Eh            Energy/eV
      -------------------------------------------------------------
         1        2.0000           -0.7348242             -19.9956
       ...           ...                  ...                  ...
        38        2.0000           -0.4641062             -12.6290
        39        2.0000           -0.4633818             -12.6093
        40        2.0000           -0.4539677             -12.3531
        41        2.0000           -0.4531642             -12.3312
        42        2.0000           -0.4490101             -12.2182
        43        2.0000           -0.4250656             -11.5666
        44        2.0000           -0.4218594             -11.4794
        45        2.0000           -0.4181489             -11.3784
        46        2.0000           -0.4144095             -11.2767
        47        2.0000           -0.4036675             -10.9844
        48        2.0000           -0.3828658             -10.4183
        49        2.0000           -0.3815539             -10.3826
        50        2.0000           -0.3645647              -9.9203 (HOMO)
        51                         -0.2386452              -6.4939 (LUMO)
        52                         -0.2324415              -6.3251
        53                         -0.2307905              -6.2801
        54                         -0.1964448              -5.3455
        55                         -0.1654641              -4.5025
        56                         -0.0711765              -1.9368
        57                         -0.0214695              -0.5842
        58                          0.0118514               0.3225
        59                          0.0472846               1.2867
        60                          0.0598590               1.6288
        61                          0.0796874               2.1684
       ...                                ...                  ...
        91                          0.7163103              19.4918
      -------------------------------------------------------------
                  HL-Gap            0.1259195 Eh            3.4264 eV
             Fermi-level           -0.3016050 Eh           -8.2071 eV

     #   Z          covCN         q      C6AA      α(0)
     1   8 O        1.655    -0.373    20.334     6.087
     2   6 C        2.684     0.358    20.922     7.485
     3   8 O        0.856    -0.378    21.245     6.180
     4   1 H        0.800     0.366     0.554     1.169
     5   6 C        3.737    -0.039    21.348     6.593
     6   1 H        0.924     0.079     1.991     2.207
     7   1 H        0.925     0.075     2.031     2.229
     8   7 N        2.686    -0.168    24.627     7.370
     9   1 H        0.860     0.182     1.200     1.716
    10   6 C        2.759     0.273    22.386     7.748
    11   8 O        0.859    -0.447    22.649     6.381
    12   6 C        3.786     0.032    20.053     6.378
    13   1 H        0.923     0.035     2.523     2.484
    14   7 N        2.634    -0.341    28.781     7.968
    15   1 H        0.860     0.146     1.429     1.872
    16   1 H        0.860     0.166     1.299     1.785
    17   6 C        3.805    -0.066    21.770     6.642
    18   1 H        0.924     0.048     2.343     2.394
    19   1 H        0.924     0.039     2.458     2.452
    20   6 C        3.055    -0.044    29.039     8.838
    21   6 C        3.027    -0.017    28.397     8.741
    22   1 H        0.926     0.025     2.652     2.547
    23   7 N        2.777    -0.110    23.409     7.186
    24   1 H        0.860     0.157     1.351     1.821
    25   6 C        3.084     0.043    26.952     8.511
    26   6 C        2.909    -0.051    29.259     8.870
    27   1 H        0.926     0.026     2.647     2.544
    28   6 C        2.926    -0.027    28.675     8.782
    29   1 H        0.926     0.037     2.485     2.465
    30   6 C        2.920    -0.032    28.800     8.800
    31   1 H        0.926     0.038     2.469     2.457
    32   6 C        2.912    -0.037    28.915     8.817
    33   1 H        0.926     0.030     2.593     2.518
    34   6 C        3.115    -0.026    28.478     8.741

 Mol. C6AA /au·bohr⁶  :      13335.164908
 Mol. C8AA /au·bohr⁸  :     312412.864748
 Mol. α(0) /au        :        178.778580


Wiberg/Mayer (AO) data.
largest (>0.10) Wiberg bond orders for each atom

 ---------------------------------------------------------------------------
     #   Z sym  total        # sym  WBO       # sym  WBO       # sym  WBO
 ---------------------------------------------------------------------------
     1   8 O    2.233 --     2 C    1.200     4 H    0.770     3 O    0.182
     2   6 C    3.932 --     3 O    1.774     1 O    1.200     5 C    0.924
     3   8 O    2.066 --     2 C    1.774     1 O    0.182
     4   1 H    0.866 --     1 O    0.770
     5   6 C    3.962 --     8 N    0.988     7 H    0.975     6 H    0.954
                             2 C    0.924
     6   1 H    0.994 --     5 C    0.954
     7   1 H    0.994 --     5 C    0.975
     8   7 N    3.462 --    10 C    1.286     5 C    0.988     9 H    0.934
                            11 O    0.187
     9   1 H    0.967 --     8 N    0.934
    10   6 C    3.944 --    11 O    1.619     8 N    1.286    12 C    0.957
    11   8 O    2.024 --    10 C    1.619     8 N    0.187
    12   6 C    3.987 --    14 N    1.030    13 H    0.958    10 C    0.957
                            17 C    0.935
    13   1 H    0.999 --    12 C    0.958
    14   7 N    3.016 --    12 C    1.030    15 H    0.962    16 H    0.952
    15   1 H    0.978 --    14 N    0.962
    16   1 H    0.972 --    14 N    0.952
    17   6 C    3.994 --    20 C    1.020    18 H    0.973    19 H    0.968
                            12 C    0.935
    18   1 H    0.997 --    17 C    0.973
    19   1 H    0.997 --    17 C    0.968
    20   6 C    3.975 --    21 C    1.574    34 C    1.199    17 C    1.020
    21   6 C    3.948 --    20 C    1.574    23 N    1.193    22 H    0.970
    22   1 H    0.999 --    21 C    0.970
    23   7 N    3.535 --    21 C    1.193    25 C    1.169    24 H    0.947
    24   1 H    0.974 --    23 N    0.947
    25   6 C    3.957 --    26 C    1.336    34 C    1.256    23 N    1.169
    26   6 C    3.989 --    28 C    1.497    25 C    1.336    27 H    0.968
                            32 C    0.116
    27   1 H    0.999 --    26 C    0.968
    28   6 C    3.991 --    26 C    1.497    30 C    1.370    29 H    0.971
    29   1 H    0.998 --    28 C    0.971
    30   6 C    3.990 --    32 C    1.509    28 C    1.370    31 H    0.971
    31   1 H    0.998 --    30 C    0.971
    32   6 C    3.993 --    30 C    1.509    34 C    1.328    33 H    0.968
                            26 C    0.116
    33   1 H    0.999 --    32 C    0.968
    34   6 C    3.984 --    32 C    1.328    25 C    1.256    20 C    1.199
 ---------------------------------------------------------------------------

Topologies differ in total number of bonds
Writing topology from bond orders to xtbtopo.mol

molecular dipole:
                 x           y           z       tot (Debye)
 q only:       -0.396      -0.526       1.781
   full:       -0.275      -0.735       2.333       6.257
molecular quadrupole (traceless):
                xx          xy          yy          xz          yz          zz
 q only:       -0.056      -4.593      -2.956       0.751       5.944       3.012
  q+dip:       -5.435      -4.150      -3.182       2.090       8.900       8.617
   full:       -4.030      -6.344      -2.406       2.925       8.020       6.436

           -------------------------------------------------
          |                Geometry Summary                 |
           -------------------------------------------------

      molecular mass/u    :      261.2770023
   center of mass at/Å    :        0.0000000      -0.0000000      -0.0000000
  moments of inertia/u·Å² :        0.9538730E+03   0.1275371E+04   0.1760030E+04
rotational constants/cm⁻¹ :        0.1767283E-01   0.1321783E-01   0.9578035E-02

 * 32 selected distances

     #   Z          #   Z                                           value/Å
     1   8 O        2   6 C                                       1.3173141
     2   6 C        3   8 O                                       1.1984088
     1   8 O        4   1 H                                       0.9976289 (min)
     5   6 C        6   1 H                                       1.0973033
     5   6 C        7   1 H                                       1.0891993
     5   6 C        8   7 N                                       1.4516020
     8   7 N        9   1 H                                       1.0072940
     8   7 N       10   6 C                                       1.3422916
    10   6 C       11   8 O                                       1.2253393
    12   6 C       13   1 H                                       1.0981180
    12   6 C       14   7 N                                       1.4461486
    14   7 N       15   1 H                                       1.0133450
    14   7 N       16   1 H                                       1.0157280
    17   6 C       18   1 H                                       1.0918458
    17   6 C       19   1 H                                       1.0933096
    17   6 C       20   6 C                                       1.4905105 (max)
    20   6 C       21   6 C                                       1.3664382
    21   6 C       22   1 H                                       1.0740170
    21   6 C       23   7 N                                       1.3696360
    23   7 N       24   1 H                                       1.0053088
    23   7 N       25   6 C                                       1.3673796
    25   6 C       26   6 C                                       1.3889577
    26   6 C       27   1 H                                       1.0798993
    26   6 C       28   6 C                                       1.3771209
    28   6 C       29   1 H                                       1.0789179
    28   6 C       30   6 C                                       1.3973128
    30   6 C       31   1 H                                       1.0788278
    30   6 C       32   6 C                                       1.3752128
    32   6 C       33   1 H                                       1.0798756
    20   6 C       34   6 C                                       1.4311199
    25   6 C       34   6 C                                       1.4139003
    32   6 C       34   6 C                                       1.3951528

 * 6 distinct bonds (by element types)

   Z      Z             #   av. dist./Å        max./Å        min./Å
   1 H    6 C          10     1.0861314     1.0981180     1.0740170
   6 C    6 C           9     1.4039695     1.4905105     1.3664382
   1 H    7 N           4     1.0104189     1.0157280     1.0053088
   6 C    7 N           5     1.3954116     1.4516020     1.3422916
   1 H    8 O           1     0.9976289     0.9976289     0.9976289
   6 C    8 O           3     1.2470207     1.3173141     1.1984088


optimized geometry written to: xtbopt.xyz


           -------------------------------------------------
          | TOTAL ENERGY              -56.478734146724 Eh   |
          | GRADIENT NORM               0.000141038151 Eh/α |
          | HOMO-LUMO GAP               3.426443907595 eV   |
           -------------------------------------------------

------------------------------------------------------------------------
 * finished run on 2026/10/01 at 18:03:28.017     
------------------------------------------------------------------------
 total:
 * wall-time:     0 d,  0 h,  0 min,  0.617 sec
 *  cpu-time:     0 d,  0 h,  0 min,  8.535 sec
 * ratio c/w:    13.837 speedup
 SCF:
 * wall-time:     0 d,  0 h,  0 min,  0.458 sec
 *  cpu-time:     0 d,  0 h,  0 min,  6.368 sec
 * ratio c/w:    13.897 speedup
 ANC optimizer:
 * wall-time:     0 d,  0 h,  0 min,  0.145 sec
 *  cpu-time:     0 d,  0 h,  0 min,  1.979 sec
 * ratio c/w:    13.623 speedup


--- STDERR ---
normal termination of xtb
Note: The following floating-point exceptions are signalling: IEEE_UNDERFLOW_FLAG IEEE_DENORMAL
