34
 energy: -56.478734146724 gnorm: 0.000141038151 xtb: 6.7.1-6.fc44.fc44
O           -0.57790251800000        1.04056759670000       -2.41758153230000
C           -0.57519125670000        1.93594465190000       -1.45134729310000
O            0.22263716690000        2.82707300550000       -1.37689225360000
H           -1.26190037930000        0.33063074880000       -2.26461162830000
C           -1.72894724290000        1.79135438100000       -0.43374124030000
H           -2.66893735700000        1.83487643600000       -0.99818666160000
H           -1.68460641860000        2.62882672430000        0.26126153030000
N           -1.70342932620000        0.55285525220000        0.32297313340000
H           -1.40242171840000        0.59494026720000        1.28331900560000
C           -1.98578511300000       -0.64353001370000       -0.21617800720000
O           -2.19480781310000       -0.79098231120000       -1.41452000690000
C           -2.00585738330000       -1.80719141180000        0.76088370650000
H           -2.31297156220000       -1.44959599740000        1.75268473930000
N           -2.98102709990000       -2.77287508450000        0.30498395820000
H           -2.80306886550000       -3.68807719430000        0.70197749660000
H           -2.93860200020000       -2.84288175970000       -0.70743999580000
C           -0.55655918340000       -2.36510049070000        0.86878428070000
H           -0.26260129690000       -2.75928697290000       -0.10606588850000
H           -0.56986898450000       -3.18888598610000        1.58748164690000
C            0.41043772110000       -1.31563897720000        1.29909650110000
C            0.59701790470000       -0.82975733560000        2.56252831340000
H            0.14117957220000       -1.14015132340000        3.48414607100000
N            1.51870834930000        0.18320799810000        2.54548864210000
H            1.85956467870000        0.67578606610000        3.35284822550000
C            1.95408178020000        0.36713242500000        1.26238751690000
C            2.87215028030000        1.26939287160000        0.74058358280000
H            3.37900129530000        1.97908320150000        1.37746978550000
C            3.10513300520000        1.22598187420000       -0.61599154010000
H            3.80537273290000        1.91784138010000       -1.05764571670000
C            2.44848344390000        0.30659875450000       -1.43820112310000
H            2.65551185040000        0.31054329830000       -2.49697068150000
C            1.53592502770000       -0.58685625520000       -0.92811769360000
H            1.02785852060000       -1.28639121790000       -1.57514969720000
C            1.27270341170000       -0.56096550300000        0.44173450790000
