34
frame_0003
O      -2.208011549300000      2.298485867800000      0.592396502500000
C      -1.657593262300000      2.430238302600000     -0.598171440100000
O      -0.854541648400000      3.283319207700000     -0.856369740700000
H      -2.720526351200000      1.439350401400000      0.668856359000000
C      -2.135037066200000      1.403012200700000     -1.647042230000000
H      -1.734332750000000      1.682532997000000     -2.620211297700000
H      -3.231890199000000      1.433197426000000     -1.676755588800000
N      -1.690309080700000      0.062056698200000     -1.320871024100000
H      -1.073311031300000     -0.426215172200000     -1.954336580300000
C      -2.146267000800000     -0.640112992900000     -0.279580787700000
O      -2.956646766900000     -0.193447352100000      0.528015573300000
C      -1.534920544700000     -2.027857598200000     -0.128271005500000
H      -2.362409485000000     -2.737545266600000     -0.026381532600000
N      -0.754480867700000     -2.371728347000000     -1.307009514100000
H       0.189864426200000     -2.006871998300000     -1.209767038800000
H      -0.677423524100000     -3.377404745200000     -1.400399921500000
C      -0.712933563000000     -2.011798141800000      1.190457349500000
H      -0.222473117100000     -2.979772779800000      1.314143401700000
H      -1.401118055100000     -1.855292675900000      2.021326902200000
C       0.292017040000000     -0.906319251400000      1.149189667400000
C       0.092187137700000      0.377923486400000      1.571759991000000
H      -0.750530641300000      0.792551580800000      2.089661048600000
N       1.172178796700000      1.152236654300000      1.261974562400000
H       1.234159700800000      2.144020013700000      1.418035891300000
C       2.100302805200000      0.385930070600000      0.623758692600000
C       3.349871848100000      0.717043580900000      0.114586072900000
H       3.723653911100000      1.727832475300000      0.178594661100000
C       4.090966511200000     -0.287479616900000     -0.467837735100000
H       5.066805578300000     -0.065189162600000     -0.872897054700000
C       3.610731895100000     -1.598876796400000     -0.533543556800000
H       4.230557167600000     -2.361492486100000     -0.981916030100000
C       2.373126826600000     -1.934521921100000     -0.034643304500000
H       2.026889814000000     -2.958368471700000     -0.074959141700000
C       1.586930457500000     -0.933865588200000      0.542922765000000
