34
 energy: -56.483402848961 gnorm: 0.000316453726 xtb: 6.7.1-6.fc44.fc44
O           -2.20801154930000        2.29848586780000        0.59239650250000
C           -1.65759326230000        2.43023830260000       -0.59817144010000
O           -0.85454164840000        3.28331920770000       -0.85636974070000
H           -2.72052635120000        1.43935040140000        0.66885635900000
C           -2.13503706620000        1.40301220070000       -1.64704223000000
H           -1.73433275000000        1.68253299700000       -2.62021129770000
H           -3.23189019900000        1.43319742600000       -1.67675558880000
N           -1.69030908070000        0.06205669820000       -1.32087102410000
H           -1.07331103130000       -0.42621517220000       -1.95433658030000
C           -2.14626700080000       -0.64011299290000       -0.27958078770000
O           -2.95664676690000       -0.19344735210000        0.52801557330000
C           -1.53492054470000       -2.02785759820000       -0.12827100550000
H           -2.36240948500000       -2.73754526660000       -0.02638153260000
N           -0.75448086770000       -2.37172834700000       -1.30700951410000
H            0.18986442620000       -2.00687199830000       -1.20976703880000
H           -0.67742352410000       -3.37740474520000       -1.40039992150000
C           -0.71293356300000       -2.01179814180000        1.19045734950000
H           -0.22247311710000       -2.97977277980000        1.31414340170000
H           -1.40111805510000       -1.85529267590000        2.02132690220000
C            0.29201704000000       -0.90631925140000        1.14918966740000
C            0.09218713770000        0.37792348640000        1.57175999100000
H           -0.75053064130000        0.79255158080000        2.08966104860000
N            1.17217879670000        1.15223665430000        1.26197456240000
H            1.23415970080000        2.14402001370000        1.41803589130000
C            2.10030280520000        0.38593007060000        0.62375869260000
C            3.34987184810000        0.71704358090000        0.11458607290000
H            3.72365391110000        1.72783247530000        0.17859466110000
C            4.09096651120000       -0.28747961690000       -0.46783773510000
H            5.06680557830000       -0.06518916260000       -0.87289705470000
C            3.61073189510000       -1.59887679640000       -0.53354355680000
H            4.23055716760000       -2.36149248610000       -0.98191603010000
C            2.37312682660000       -1.93452192110000       -0.03464330450000
H            2.02688981400000       -2.95836847170000       -0.07495914170000
C            1.58693045750000       -0.93386558820000        0.54292276500000
