37
frame_0002
O      -2.471351798900000      2.534485761900000      1.715393618000000
C      -2.628688137600000      1.763748366700000      0.810020279800000
O      -2.613889817600000      2.131024244900000     -0.455917492900000
H      -2.656970478900000      1.350482248100000     -1.077175716100000
C      -2.917602434700000      0.268897203000000      1.060264322200000
H      -3.899735181000000      0.054203650500000      0.617660122400000
H      -2.962784447400000      0.105161408900000      2.136041375900000
N      -1.931772883100000     -0.637445230700000      0.501008733900000
H      -1.389646075200000     -1.225951546700000      1.137798219300000
C      -1.767149786000000     -0.828727121400000     -0.807362208500000
O      -2.334319983800000     -0.173261914400000     -1.675228406000000
C      -0.838245253300000     -1.992850404900000     -1.162467558400000
H      -0.797276087800000     -2.072300545300000     -2.248739265400000
H      -1.285138780300000     -2.904726278400000     -0.747040147000000
N       0.506799978100000     -1.862667718100000     -0.650481229800000
H       1.257226363500000     -1.612726405500000     -1.279807910200000
C       0.843930765300000     -2.051836701200000      0.632490634300000
O       0.032990202000000     -2.263843130700000      1.522482557500000
C       2.341157158800000     -1.960250334200000      0.894561514400000
N       3.074091065900000     -2.372184498300000     -0.294931822600000
H       2.908604998000000     -3.354794573800000     -0.487638973500000
H       4.070758444000000     -2.252624450400000     -0.146902899100000
H       2.554656104700000     -2.588821104600000      1.776185857400000
C       2.680713985000000     -0.499313115000000      1.264872374100000
H       2.294482426100000     -0.305903602300000      2.266491528600000
H       3.769405566400000     -0.402165345000000      1.292722476500000
C       2.101025059400000      0.501426953200000      0.302755773600000
C       2.557293429800000      0.576202270200000     -1.009064538200000
H       3.349405976500000     -0.081455949200000     -1.334788225100000
C       2.002153885600000      1.481451876400000     -1.896319422100000
H       2.360419600900000      1.521997462100000     -2.914903788100000
C       1.000823956500000      2.341377511300000     -1.478403135800000
H       0.571996446000000      3.053496357300000     -2.166598333000000
C       0.554977552800000      2.288864417800000     -0.169431172500000
H      -0.210561833700000      2.968705692800000      0.169199841300000
C       1.091338647900000      1.363738209000000      0.709603062000000
H       0.726406244200000      1.322442581000000      1.726154311100000
