37
 energy: -61.564432084262 gnorm: 0.000086690851 xtb: 6.7.1-6.fc44.fc44
O           -2.47135179890000        2.53448576190000        1.71539361800000
C           -2.62868813760000        1.76374836670000        0.81002027980000
O           -2.61388981760000        2.13102424490000       -0.45591749290000
H           -2.65697047890000        1.35048224810000       -1.07717571610000
C           -2.91760243470000        0.26889720300000        1.06026432220000
H           -3.89973518100000        0.05420365050000        0.61766012240000
H           -2.96278444740000        0.10516140890000        2.13604137590000
N           -1.93177288310000       -0.63744523070000        0.50100873390000
H           -1.38964607520000       -1.22595154670000        1.13779821930000
C           -1.76714978600000       -0.82872712140000       -0.80736220850000
O           -2.33431998380000       -0.17326191440000       -1.67522840600000
C           -0.83824525330000       -1.99285040490000       -1.16246755840000
H           -0.79727608780000       -2.07230054530000       -2.24873926540000
H           -1.28513878030000       -2.90472627840000       -0.74704014700000
N            0.50679997810000       -1.86266771810000       -0.65048122980000
H            1.25722636350000       -1.61272640550000       -1.27980791020000
C            0.84393076530000       -2.05183670120000        0.63249063430000
O            0.03299020200000       -2.26384313070000        1.52248255750000
C            2.34115715880000       -1.96025033420000        0.89456151440000
N            3.07409106590000       -2.37218449830000       -0.29493182260000
H            2.90860499800000       -3.35479457380000       -0.48763897350000
H            4.07075844400000       -2.25262445040000       -0.14690289910000
H            2.55465610470000       -2.58882110460000        1.77618585740000
C            2.68071398500000       -0.49931311500000        1.26487237410000
H            2.29448242610000       -0.30590360230000        2.26649152860000
H            3.76940556640000       -0.40216534500000        1.29272247650000
C            2.10102505940000        0.50142695320000        0.30275577360000
C            2.55729342980000        0.57620227020000       -1.00906453820000
H            3.34940597650000       -0.08145594920000       -1.33478822510000
C            2.00215388560000        1.48145187640000       -1.89631942210000
H            2.36041960090000        1.52199746210000       -2.91490378810000
C            1.00082395650000        2.34137751130000       -1.47840313580000
H            0.57199644600000        3.05349635730000       -2.16659833300000
C            0.55497755280000        2.28886441780000       -0.16943117250000
H           -0.21056183370000        2.96870569280000        0.16919984130000
C            1.09133864790000        1.36373820900000        0.70960306200000
H            0.72640624420000        1.32244258100000        1.72615431110000
