      -----------------------------------------------------------      
     |                   =====================                   |     
     |                           x T B                           |     
     |                   =====================                   |     
     |                         S. Grimme                         |     
     |          Mulliken Center for Theoretical Chemistry        |     
     |                    University of Bonn                     |     
      -----------------------------------------------------------      

   * xtb version 6.7.1-6.fc44.fc44 compiled by Fedora project on Sun Jan 18 23:32:34 UTC 2026

   xtb is free software: you can redistribute it and/or modify it under
   the terms of the GNU Lesser General Public License as published by
   the Free Software Foundation, either version 3 of the License, or
   (at your option) any later version.
   
   xtb is distributed in the hope that it will be useful,
   but WITHOUT ANY WARRANTY; without even the implied warranty of
   MERCHANTABILITY or FITNESS FOR A PARTICULAR PURPOSE.  See the
   GNU Lesser General Public License for more details.
   
   Cite this work as:
   * C. Bannwarth, E. Caldeweyher, S. Ehlert, A. Hansen, P. Pracht,
     J. Seibert, S. Spicher, S. Grimme, WIREs Comput. Mol. Sci., 2020, 11,
     e01493. DOI: 10.1002/wcms.1493
   
   for GFN2-xTB:
   * C. Bannwarth, S. Ehlert and S. Grimme., J. Chem. Theory Comput., 2019,
     15, 1652-1671. DOI: 10.1021/acs.jctc.8b01176
   for GFN1-xTB:
   * S. Grimme, C. Bannwarth, P. Shushkov, J. Chem. Theory Comput., 2017,
     13, 1989-2009. DOI: 10.1021/acs.jctc.7b00118
   for GFN0-xTB:
   * P. Pracht, E. Caldeweyher, S. Ehlert, S. Grimme, ChemRxiv, 2019, preprint.
     DOI: 10.26434/chemrxiv.8326202.v1
   for GFN-FF:
   * S. Spicher and S. Grimme, Angew. Chem. Int. Ed., 2020, 59, 15665-15673.
     DOI: 10.1002/anie.202004239
   
   for ALPB and GBSA implicit solvation:
   * S. Ehlert, M. Stahn, S. Spicher, S. Grimme, J. Chem. Theory Comput.,
     2021, 17, 4250-4261. DOI: 10.1021/acs.jctc.1c00471
   
   for ddCOSMO and CPCM-X implicit solvation:
   * M. Stahn, S. Ehlert, S. Grimme, J. Phys. Chem. A,
     2023, XX, XXXX-XXXX. DOI: 10.1021/acs.jpca.3c04382
   
   for DFT-D4:
   * E. Caldeweyher, C. Bannwarth and S. Grimme, J. Chem. Phys., 2017,
     147, 034112. DOI: 10.1063/1.4993215
   * E. Caldeweyher, S. Ehlert, A. Hansen, H. Neugebauer, S. Spicher,
     C. Bannwarth and S. Grimme, J. Chem. Phys., 2019, 150, 154122.
     DOI: 10.1063/1.5090222
   * E. Caldeweyher, J.-M. Mewes, S. Ehlert and S. Grimme, Phys. Chem. Chem. Phys.
     2020, 22, 8499-8512. DOI: 10.1039/D0CP00502A
   
   for sTDA-xTB:
   * S. Grimme and C. Bannwarth, J. Chem. Phys., 2016, 145, 054103.
     DOI: 10.1063/1.4959605
   
   in the mass-spec context:
   * V. Asgeirsson, C. Bauer and S. Grimme, Chem. Sci., 2017, 8, 4879.
     DOI: 10.1039/c7sc00601b
   * J. Koopman and S. Grimme, ACS Omega 2019, 4, 12, 15120-15133.
     DOI: 10.1021/acsomega.9b02011
   
   for metadynamics refer to:
   * S. Grimme, J. Chem. Theory Comput., 2019, 155, 2847-2862
     DOI: 10.1021/acs.jctc.9b00143
   
   for SPH calculations refer to:
   * S. Spicher and S. Grimme, J. Chem. Theory Comput., 2021, 17, 1701-1714
     DOI: 10.1021/acs.jctc.0c01306
   
   for ONIOM refer to:
   * C. Plett, A. Katbashev, S. Ehlert, S. Grimme, M. Bursch,
     Phys. Chem. Chem. Phys., 2023, 25, 17860-17868. DOI: 10.1039/D3CP02178E
   
   for DIPRO refer to:
   * J. Kohn, N. Gildemeister, S. Grimme, D. Fazzi, A. Hansen,
     J. Chem. Phys., 2023, just accepted.
   
   for PTB refer to:
   * S. Grimme, M. Mueller, A. Hansen, J. Chem. Phys., 2023, 158, 124111.
     DOI: 10.1063/5.0137838
   
   with help from (in alphabetical order)
   P. Atkinson, C. Bannwarth, F. Bohle, G. Brandenburg, E. Caldeweyher
   M. Checinski, S. Dohm, S. Ehlert, S. Ehrlich, I. Gerasimov, C. Hölzer
   A. Katbashev, J. Kohn, J. Koopman, C. Lavigne, S. Lehtola, F. März, M. Müller,
   F. Musil, H. Neugebauer, J. Pisarek, C. Plett, P. Pracht, F. Pultar,
   J. Seibert, P. Shushkov, S. Spicher, M. Stahn, M. Steiner, T. Strunk,
   J. Stückrath, T. Rose, and J. Unsleber
   
 * started run on 2026/10/01 at 13:34:20.548     
   ID    Z sym.   atoms
    1    8 O      1, 3, 11, 18
    2    6 C      2, 5, 10, 12, 17, 19, 24, 27, 28, 30, 32, 34, 36
    3    1 H      4, 6, 7, 9, 13, 14, 16, 21-23, 25, 26, 29, 31, 33, 35, 37
    4    7 N      8, 15, 20

           -------------------------------------------------
          |                Calculation Setup                |
           -------------------------------------------------

          program call               : /usr/bin/xtb input.xyz --opt --gfn 2 --chrg 0 --uhf 0
          hostname                   : fedora
          coordinate file            : input.xyz
          omp threads                :                    16


molecular fragmentation (1/2 indicates fragments):
1111111111111111111112111111111111111
# atoms in fragment 1/2:    36     1
 fragment masses (1/2) :      278.28        1.01
CMA distance (Bohr)    :   5.339
constraining FC (au)   :  0.0500

           -------------------------------------------------
          |                 G F N 2 - x T B                 |
           -------------------------------------------------

        Reference                      10.1021/acs.jctc.8b01176
      * Hamiltonian:
        H0-scaling (s, p, d)           1.850000    2.230000    2.230000
        zeta-weighting                 0.500000
      * Dispersion:
        s8                             2.700000
        a1                             0.520000
        a2                             5.000000
        s9                             5.000000
      * Repulsion:
        kExp                           1.500000    1.000000
        rExp                           1.000000
      * Coulomb:
        alpha                          2.000000
        third order                    shell-resolved
        anisotropic                    true
        a3                             3.000000
        a5                             4.000000
        cn-shift                       1.200000
        cn-exp                         4.000000
        max-rad                        5.000000


          ...................................................
          :                      SETUP                      :
          :.................................................:
          :  # basis functions                  97          :
          :  # atomic orbitals                  97          :
          :  # shells                           57          :
          :  # electrons                       108          :
          :  max. iterations                   250          :
          :  Hamiltonian                  GFN2-xTB          :
          :  restarted?                      false          :
          :  GBSA solvation                  false          :
          :  PC potential                    false          :
          :  electronic temp.          300.0000000     K    :
          :  accuracy                    1.0000000          :
          :  -> integral cutoff          0.2500000E+02      :
          :  -> integral neglect         0.1000000E-07      :
          :  -> SCF convergence          0.1000000E-05 Eh   :
          :  -> wf. convergence          0.1000000E-03 e    :
          :  Broyden damping             0.4000000          :
          :  net charge                          0          :
          :  unpaired electrons                  0          :
          ...................................................

 iter      E             dE          RMSdq      gap      omega  full diag
   1    -61.8844573 -0.618845E+02  0.457E+00    1.85       0.0  T
   2    -62.0448468 -0.160389E+00  0.265E+00    2.09       1.0  T
   3    -62.0632626 -0.184158E-01  0.147E+00    2.18       1.0  T
   4    -62.0642777 -0.101505E-02  0.460E-01    2.17       1.0  T
   5    -62.0706281 -0.635040E-02  0.186E-01    2.22       1.0  T
   6    -62.0714300 -0.801893E-03  0.964E-02    2.27       1.0  T
   7    -62.0716289 -0.198927E-03  0.358E-02    2.26       1.0  T
   8    -62.0716383 -0.945130E-05  0.164E-02    2.27       1.0  T
   9    -62.0716423 -0.395140E-05  0.643E-03    2.27       2.6  T
  10    -62.0716430 -0.758058E-06  0.264E-03    2.26       6.2  T
  11    -62.0716431 -0.568387E-07  0.114E-03    2.26      14.4  T
  12    -62.0716431 -0.154910E-07  0.484E-04    2.26      33.9  T
  13    -62.0716431 -0.324216E-08  0.185E-04    2.26      88.9  T

   *** convergence criteria satisfied after 13 iterations ***

         #    Occupation            Energy/Eh            Energy/eV
      -------------------------------------------------------------
         1        2.0000           -0.7530389             -20.4912
       ...           ...                  ...                  ...
        48        2.0000           -0.4179510             -11.3730
        49        2.0000           -0.4111458             -11.1878
        50        2.0000           -0.4032094             -10.9719
        51        2.0000           -0.4022061             -10.9446
        52        2.0000           -0.3931258             -10.6975
        53        2.0000           -0.3878225             -10.5532
        54        2.0000           -0.3673752              -9.9968 (HOMO)
        55                         -0.2841464              -7.7320 (LUMO)
        56                         -0.2707458              -7.3674
        57                         -0.2429813              -6.6119
        58                         -0.2365806              -6.4377
        59                         -0.2181939              -5.9374
       ...                                ...                  ...
        97                          1.0841085              29.5001
      -------------------------------------------------------------
                  HL-Gap            0.0832288 Eh            2.2648 eV
             Fermi-level           -0.3257608 Eh           -8.8644 eV

 SCC (total)                   0 d,  0 h,  0 min,  0.110 sec
 SCC setup                      ...        0 min,  0.005 sec (  4.916%)
 Dispersion                     ...        0 min,  0.009 sec (  7.954%)
 classical contributions        ...        0 min,  0.003 sec (  2.585%)
 integral evaluation            ...        0 min,  0.016 sec ( 14.530%)
 iterations                     ...        0 min,  0.075 sec ( 67.927%)
 molecular gradient             ...        0 min,  0.002 sec (  1.823%)
 printout                       ...        0 min,  0.000 sec (  0.258%)

         :::::::::::::::::::::::::::::::::::::::::::::::::::::
         ::                     SUMMARY                     ::
         :::::::::::::::::::::::::::::::::::::::::::::::::::::
         :: total energy             -61.012910570688 Eh    ::
         :: gradient norm              1.087341754575 Eh/a0 ::
         :: HOMO-LUMO gap              2.264769863018 eV    ::
         ::.................................................::
         :: SCC energy               -62.070380923943 Eh    ::
         :: -> isotropic ES            0.130200806622 Eh    ::
         :: -> anisotropic ES          0.000541427901 Eh    ::
         :: -> anisotropic XC          0.019918427016 Eh    ::
         :: -> dispersion             -0.038911688510 Eh    ::
         :: repulsion energy           1.057470353255 Eh    ::
         :: add. restraining           0.000000000000 Eh    ::
         :: total charge              -0.000000000000 e     ::
         :::::::::::::::::::::::::::::::::::::::::::::::::::::

      ----------------------------------------------------------- 
     |                   =====================                   |
     |                        A N C O P T                        |
     |                   =====================                   |
     |               Approximate Normal Coordinate               |
     |                Rational Function Optimizer                |
      ----------------------------------------------------------- 
      ----------------------------------------------------------- 
     |                   =====================                   |
     |                        A N C O P T                        |
     |                   =====================                   |
     |               Approximate Normal Coordinate               |
     |                Rational Function Optimizer                |
      ----------------------------------------------------------- 

          ...................................................
          :                      SETUP                      :
          :.................................................:
          :   optimization level            normal          :
          :   max. optcycles                   200          :
          :   ANC micro-cycles                  20          :
          :   degrees of freedom               105          :
          :.................................................:
          :   RF solver                   davidson          :
          :   write xtbopt.log                true          :
          :   linear?                        false          :
          :   energy convergence         0.5000000E-05 Eh   :
          :   grad. convergence          0.1000000E-02 Eh/α :
          :   maxmium RF displ.          1.0000000          :
          :   Hlow (freq-cutoff)         0.1000000E-01      :
          :   Hmax (freq-cutoff)         5.0000000          :
          :   S6 in model hess.         20.0000000          :
          ...................................................

generating ANC from exact Hessian ...
Using Lindh-Hessian (1995)
 Shifting diagonal of input Hessian by    9.7663390226340220E-003
 Lowest  eigenvalues of input Hessian
    0.000000    0.000000    0.000000    0.000000    0.000000    0.000000
    0.010000    0.010381    0.010883    0.010963    0.011237    0.012264
    0.012564    0.013865    0.016080    0.016792    0.018504    0.019881
 Highest eigenvalues
    2.026600    2.090043    2.164953    2.301000    2.509348    2.834810


........................................................................
.............................. CYCLE    1 ..............................
........................................................................

 iter      E             dE          RMSdq      gap      omega  full diag
   1    -62.0716431 -0.620716E+02  0.606E-05    2.26       0.0  T
   2    -62.0716431 -0.302762E-10  0.385E-05    2.26     427.1  T
   3    -62.0716431 -0.221902E-10  0.235E-05    2.26     700.9  T
     SCC iter.                  ...        0 min,  0.004 sec
     gradient                   ...        0 min,  0.002 sec
 * total energy  :   -61.0129106 Eh     change       -0.3241851E-09 Eh
   gradient norm :     1.0873418 Eh/α   predicted     0.0000000E+00 (-100.00%)
   displ. norm   :     0.5426135 α      lambda       -0.5477683E+00
   maximum displ.:     0.2829076 α      in ANC's #100, #96, #93, ...

........................................................................
.............................. CYCLE    2 ..............................
........................................................................

 iter      E             dE          RMSdq      gap      omega  full diag
   1    -62.1464188 -0.621464E+02  0.620E-01    3.46       0.0  T
   2    -62.1525060 -0.608712E-02  0.404E-01    3.49       1.0  T
   3    -62.1538069 -0.130097E-02  0.221E-01    3.44       1.0  T
   4    -62.1538242 -0.172280E-04  0.439E-02    3.40       1.0  T
   5    -62.1538684 -0.442093E-04  0.186E-02    3.42       1.0  T
   6    -62.1538722 -0.385946E-05  0.891E-03    3.43       1.8  T
   7    -62.1538741 -0.188582E-05  0.369E-03    3.43       4.5  T
   8    -62.1538743 -0.153011E-06  0.157E-03    3.43      10.5  T
   9    -62.1538743 -0.294173E-07  0.688E-04    3.43      23.9  T
  10    -62.1538743 -0.669366E-08  0.268E-04    3.43      61.4  T
     SCC iter.                  ...        0 min,  0.013 sec
     gradient                   ...        0 min,  0.002 sec
 * total energy  :   -61.3696204 Eh     change       -0.3567099E+00 Eh
   gradient norm :     0.4202839 Eh/α   predicted    -0.3545278E+00 (  -0.61%)
   displ. norm   :     0.5771307 α      lambda       -0.2052300E+00
   maximum displ.:     0.2245345 α      in ANC's #35, #76, #60, ...

........................................................................
.............................. CYCLE    3 ..............................
........................................................................

 iter      E             dE          RMSdq      gap      omega  full diag
   1    -62.2757524 -0.622758E+02  0.621E-01    3.87       0.0  T
   2    -62.2797548 -0.400238E-02  0.387E-01    3.88       1.0  T
   3    -62.2802520 -0.497204E-03  0.201E-01    3.84       1.0  T
   4    -62.2803375 -0.854718E-04  0.334E-02    3.86       1.0  T
   5    -62.2803533 -0.158460E-04  0.144E-02    3.85       1.1  T
   6    -62.2803550 -0.173478E-05  0.431E-03    3.85       3.8  T
   7    -62.2803552 -0.120387E-06  0.188E-03    3.85       8.8  T
   8    -62.2803552 -0.618702E-07  0.883E-04    3.85      18.6  T
   9    -62.2803552 -0.868750E-08  0.310E-04    3.85      53.0  T
     SCC iter.                  ...        0 min,  0.015 sec
     gradient                   ...        0 min,  0.002 sec
 * total energy  :   -61.5188234 Eh     change       -0.1492029E+00 Eh
   gradient norm :     0.1698039 Eh/α   predicted    -0.1367941E+00 (  -8.32%)
   displ. norm   :     0.6079210 α      lambda       -0.8827458E-01
   maximum displ.:     0.3629093 α      in ANC's #35, #69, #54, ...

........................................................................
.............................. CYCLE    4 ..............................
........................................................................

 iter      E             dE          RMSdq      gap      omega  full diag
   1    -62.3449367 -0.623449E+02  0.572E-01    4.00       0.0  T
   2    -62.3458122 -0.875494E-03  0.341E-01    3.93       1.0  T
   3    -62.3457783  0.339187E-04  0.115E-01    3.89       1.0  T
   4    -62.3459294 -0.151134E-03  0.207E-02    3.88       1.0  T
   5    -62.3459337 -0.432505E-05  0.112E-02    3.88       1.5  T
   6    -62.3459350 -0.132808E-05  0.438E-03    3.89       3.8  T
   7    -62.3459352 -0.109428E-06  0.173E-03    3.89       9.5  T
   8    -62.3459352 -0.600185E-07  0.490E-04    3.89      33.5  T
   9    -62.3459352 -0.104771E-08  0.237E-04    3.89      69.4  T
     SCC iter.                  ...        0 min,  0.014 sec
     gradient                   ...        0 min,  0.002 sec
 * total energy  :   -61.5190181 Eh     change       -0.1947035E-03 Eh
   gradient norm :     0.3961726 Eh/α   predicted    -0.6044901E-01 (*******%)
   displ. norm   :     0.3984646 α      lambda       -0.1375498E+00
   maximum displ.:     0.2752386 α      in ANC's #35, #33, #69, ...

........................................................................
.............................. CYCLE    5 ..............................
........................................................................

 iter      E             dE          RMSdq      gap      omega  full diag
   1    -62.3146653 -0.623147E+02  0.362E-01    3.95       0.0  T
   2    -62.3148819 -0.216681E-03  0.203E-01    3.99       1.0  T
   3    -62.3148648  0.171711E-04  0.543E-02    4.00       1.0  T
   4    -62.3148988 -0.340093E-04  0.157E-02    3.99       1.0  T
   5    -62.3149055 -0.673884E-05  0.558E-03    3.99       2.9  T
   6    -62.3149060 -0.496089E-06  0.258E-03    3.99       6.4  T
   7    -62.3149061 -0.329046E-07  0.636E-04    3.99      25.8  T
   8    -62.3149061 -0.670853E-08  0.274E-04    3.99      60.1  T
     SCC iter.                  ...        0 min,  0.009 sec
     gradient                   ...        0 min,  0.002 sec
 * total energy  :   -61.5566385 Eh     change       -0.3762049E-01 Eh
   gradient norm :     0.0740791 Eh/α   predicted    -0.7969465E-01 ( 111.84%)
   displ. norm   :     0.2894949 α      lambda       -0.7573783E-02
   maximum displ.:     0.0956082 α      in ANC's #19, #12, #11, ...

........................................................................
.............................. CYCLE    6 ..............................
........................................................................

 iter      E             dE          RMSdq      gap      omega  full diag
   1    -62.3163354 -0.623163E+02  0.153E-01    4.07       0.0  T
   2    -62.3163534 -0.179916E-04  0.893E-02    4.07       1.0  T
   3    -62.3163504  0.295273E-05  0.172E-02    4.07       1.0  T
   4    -62.3163569 -0.654369E-05  0.408E-03    4.07       4.0  T
   5    -62.3163571 -0.158638E-06  0.227E-03    4.07       7.2  T
   6    -62.3163571 -0.240263E-07  0.734E-04    4.07      22.4  T
   7    -62.3163571 -0.952164E-08  0.224E-04    4.07      73.5  T
     SCC iter.                  ...        0 min,  0.010 sec
     gradient                   ...        0 min,  0.002 sec
 * total energy  :   -61.5618203 Eh     change       -0.5181774E-02 Eh
   gradient norm :     0.0466685 Eh/α   predicted    -0.4104284E-02 ( -20.79%)
   displ. norm   :     0.3881968 α      lambda       -0.6748124E-02
   maximum displ.:     0.1711071 α      in ANC's #9, #13, #3, ...

........................................................................
.............................. CYCLE    7 ..............................
........................................................................

 iter      E             dE          RMSdq      gap      omega  full diag
   1    -62.3263842 -0.623264E+02  0.210E-01    4.15       0.0  T
   2    -62.3264557 -0.714838E-04  0.121E-01    4.13       1.0  T
   3    -62.3264408  0.148916E-04  0.350E-02    4.14       1.0  T
   4    -62.3264696 -0.288474E-04  0.865E-03    4.13       1.9  T
   5    -62.3264715 -0.187113E-05  0.412E-03    4.13       4.0  T
   6    -62.3264716 -0.721301E-07  0.130E-03    4.14      12.7  T
   7    -62.3264716 -0.221025E-07  0.340E-04    4.14      48.4  T
   8    -62.3264716 -0.961222E-09  0.160E-04    4.14     102.8  T
     SCC iter.                  ...        0 min,  0.010 sec
     gradient                   ...        0 min,  0.002 sec
 * total energy  :   -61.5627109 Eh     change       -0.8905477E-03 Eh
   gradient norm :     0.0276300 Eh/α   predicted    -0.3882524E-02 ( 335.97%)
   displ. norm   :     0.2552626 α      lambda       -0.3862434E-02
   maximum displ.:     0.1024378 α      in ANC's #3, #5, #8, ...

........................................................................
.............................. CYCLE    8 ..............................
........................................................................

 iter      E             dE          RMSdq      gap      omega  full diag
   1    -62.3357708 -0.623358E+02  0.148E-01    4.09       0.0  T
   2    -62.3357990 -0.282614E-04  0.841E-02    4.09       1.0  T
   3    -62.3357868  0.122233E-04  0.255E-02    4.08       1.0  T
   4    -62.3358075 -0.206781E-04  0.554E-03    4.09       3.0  T
   5    -62.3358081 -0.637297E-06  0.281E-03    4.09       5.9  T
   6    -62.3358081 -0.284417E-07  0.619E-04    4.09      26.5  T
   7    -62.3358081 -0.402355E-08  0.199E-04    4.09      82.4  T
     SCC iter.                  ...        0 min,  0.008 sec
     gradient                   ...        0 min,  0.002 sec
 * total energy  :   -61.5642645 Eh     change       -0.1553615E-02 Eh
   gradient norm :     0.0228536 Eh/α   predicted    -0.2057059E-02 (  32.40%)
   displ. norm   :     0.1055478 α      lambda       -0.1028836E-02
   maximum displ.:     0.0407647 α      in ANC's #23, #15, #8, ...

........................................................................
.............................. CYCLE    9 ..............................
........................................................................

 iter      E             dE          RMSdq      gap      omega  full diag
   1    -62.3301524 -0.623302E+02  0.683E-02    4.06       0.0  T
   2    -62.3301575 -0.504788E-05  0.398E-02    4.06       1.0  T
   3    -62.3301563  0.114214E-05  0.928E-03    4.06       1.8  T
   4    -62.3301581 -0.178596E-05  0.244E-03    4.06       6.7  T
   5    -62.3301583 -0.147365E-06  0.106E-03    4.06      15.6  T
   6    -62.3301583 -0.885233E-08  0.467E-04    4.06      35.2  T
   7    -62.3301583 -0.215103E-08  0.141E-04    4.06     116.7  T
     SCC iter.                  ...        0 min,  0.010 sec
     gradient                   ...        0 min,  0.002 sec
 * total energy  :   -61.5646423 Eh     change       -0.3778590E-03 Eh
   gradient norm :     0.0121706 Eh/α   predicted    -0.5201550E-03 (  37.66%)
   displ. norm   :     0.0697519 α      lambda       -0.3110198E-03
   maximum displ.:     0.0323349 α      in ANC's #8, #4, #9, ...

........................................................................
.............................. CYCLE   10 ..............................
........................................................................

 iter      E             dE          RMSdq      gap      omega  full diag
   1    -62.3318802 -0.623319E+02  0.359E-02    4.07       0.0  T
   2    -62.3318812 -0.105426E-05  0.211E-02    4.06       1.0  T
   3    -62.3318807  0.508381E-06  0.477E-03    4.06       3.4  T
   4    -62.3318815 -0.741262E-06  0.123E-03    4.06      13.4  T
   5    -62.3318815 -0.319271E-07  0.638E-04    4.06      25.8  T
   6    -62.3318815 -0.189410E-08  0.226E-04    4.06      72.6  T
     SCC iter.                  ...        0 min,  0.008 sec
     gradient                   ...        0 min,  0.002 sec
 * total energy  :   -61.5648422 Eh     change       -0.1998846E-03 Eh
   gradient norm :     0.0088619 Eh/α   predicted    -0.1562691E-03 ( -21.82%)
   displ. norm   :     0.1188194 α      lambda       -0.2614715E-03
   maximum displ.:     0.0709836 α      in ANC's #8, #4, #5, ...

........................................................................
.............................. CYCLE   11 ..............................
........................................................................

 iter      E             dE          RMSdq      gap      omega  full diag
   1    -62.3338713 -0.623339E+02  0.466E-02    4.07       0.0  T
   2    -62.3338736 -0.222987E-05  0.272E-02    4.06       1.0  T
   3    -62.3338725  0.108095E-05  0.730E-03    4.07       2.3  T
   4    -62.3338740 -0.152459E-05  0.154E-03    4.06      10.7  T
   5    -62.3338741 -0.688227E-07  0.715E-04    4.06      23.0  T
   6    -62.3338741 -0.371455E-08  0.268E-04    4.06      61.3  T
     SCC iter.                  ...        0 min,  0.007 sec
     gradient                   ...        0 min,  0.002 sec
 * total energy  :   -61.5649867 Eh     change       -0.1444579E-03 Eh
   gradient norm :     0.0075469 Eh/α   predicted    -0.1325830E-03 (  -8.22%)
   displ. norm   :     0.1031500 α      lambda       -0.1470962E-03
   maximum displ.:     0.0649328 α      in ANC's #8, #5, #4, ...

........................................................................
.............................. CYCLE   12 ..............................
........................................................................

 iter      E             dE          RMSdq      gap      omega  full diag
   1    -62.3343190 -0.623343E+02  0.349E-02    4.06       0.0  T
   2    -62.3343197 -0.695247E-06  0.203E-02    4.06       1.0  T
   3    -62.3343195  0.193864E-06  0.345E-03    4.05       4.8  T
   4    -62.3343198 -0.354633E-06  0.977E-04    4.05      16.8  T
   5    -62.3343199 -0.155453E-07  0.533E-04    4.05      30.8  T
     SCC iter.                  ...        0 min,  0.009 sec
     gradient                   ...        0 min,  0.002 sec
 * total energy  :   -61.5650743 Eh     change       -0.8764895E-04 Eh
   gradient norm :     0.0047351 Eh/α   predicted    -0.7433586E-04 ( -15.19%)
   displ. norm   :     0.0597364 α      lambda       -0.5694860E-04
   maximum displ.:     0.0429177 α      in ANC's #8, #5, #17, ...

........................................................................
.............................. CYCLE   13 ..............................
........................................................................

 iter      E             dE          RMSdq      gap      omega  full diag
   1    -62.3343114 -0.623343E+02  0.217E-02    4.06       0.0  T
   2    -62.3343116 -0.160933E-06  0.127E-02    4.06       1.3  T
   3    -62.3343114  0.188165E-06  0.254E-03    4.06       6.5  T
   4    -62.3343116 -0.251461E-06  0.533E-04    4.06      30.9  T
   5    -62.3343116 -0.240904E-08  0.266E-04    4.06      61.8  T
     SCC iter.                  ...        0 min,  0.015 sec
     gradient                   ...        0 min,  0.002 sec
 * total energy  :   -61.5651045 Eh     change       -0.3017538E-04 Eh
   gradient norm :     0.0028776 Eh/α   predicted    -0.2858342E-04 (  -5.28%)
   displ. norm   :     0.0379277 α      lambda       -0.2702008E-04
   maximum displ.:     0.0203457 α      in ANC's #8, #5, #18, ...

........................................................................
.............................. CYCLE   14 ..............................
........................................................................

 iter      E             dE          RMSdq      gap      omega  full diag
   1    -62.3341092 -0.623341E+02  0.155E-02    4.06       0.0  T
   2    -62.3341093 -0.139781E-06  0.914E-03    4.06       1.8  T
   3    -62.3341093  0.114748E-07  0.122E-03    4.06      13.5  T
   4    -62.3341093 -0.343614E-07  0.409E-04    4.06      40.2  T
   5    -62.3341093 -0.225874E-08  0.195E-04    4.06      84.1  T
     SCC iter.                  ...        0 min,  0.008 sec
     gradient                   ...        0 min,  0.002 sec
 * total energy  :   -61.5651182 Eh     change       -0.1366728E-04 Eh
   gradient norm :     0.0020562 Eh/α   predicted    -0.1353605E-04 (  -0.96%)
   displ. norm   :     0.0371474 α      lambda       -0.1852527E-04
   maximum displ.:     0.0182648 α      in ANC's #8, #6, #7, ...

........................................................................
.............................. CYCLE   15 ..............................
........................................................................

 iter      E             dE          RMSdq      gap      omega  full diag
   1    -62.3342837 -0.623343E+02  0.132E-02    4.06       0.0  T
   2    -62.3342838 -0.101051E-06  0.773E-03    4.07       2.1  T
   3    -62.3342837  0.640238E-07  0.157E-03    4.07      10.5  T
   4    -62.3342838 -0.860488E-07  0.421E-04    4.07      39.0  T
   5    -62.3342838 -0.450709E-08  0.192E-04    4.07      85.4  T
     SCC iter.                  ...        0 min,  0.005 sec
     gradient                   ...        0 min,  0.002 sec
 * total energy  :   -61.5651288 Eh     change       -0.1066540E-04 Eh
   gradient norm :     0.0018353 Eh/α   predicted    -0.9279867E-05 ( -12.99%)
   displ. norm   :     0.0758088 α      lambda       -0.1754573E-04
   maximum displ.:     0.0327097 α      in ANC's #7, #8, #4, ...

........................................................................
.............................. CYCLE   16 ..............................
........................................................................

 iter      E             dE          RMSdq      gap      omega  full diag
   1    -62.3345226 -0.623345E+02  0.274E-02    4.07       0.0  T
   2    -62.3345228 -0.253288E-06  0.161E-02    4.07       1.0  T
   3    -62.3345226  0.274152E-06  0.291E-03    4.07       5.6  T
   4    -62.3345229 -0.338450E-06  0.553E-04    4.07      29.7  T
   5    -62.3345229 -0.848831E-08  0.243E-04    4.07      67.7  T
     SCC iter.                  ...        0 min,  0.007 sec
     gradient                   ...        0 min,  0.002 sec
 * total energy  :   -61.5651390 Eh     change       -0.1011802E-04 Eh
   gradient norm :     0.0020507 Eh/α   predicted    -0.8798001E-05 ( -13.05%)
   displ. norm   :     0.0165084 α      lambda       -0.6744093E-05
   maximum displ.:     0.0084103 α      in ANC's #4, #8, #7, ...

........................................................................
.............................. CYCLE   17 ..............................
........................................................................

 iter      E             dE          RMSdq      gap      omega  full diag
   1    -62.3343328 -0.623343E+02  0.525E-03    4.07       0.0  T
   2    -62.3343329 -0.213447E-07  0.308E-03    4.07       5.3  T
   3    -62.3343329  0.431179E-09  0.447E-04    4.07      36.8  T
   4    -62.3343329 -0.331453E-08  0.145E-04    4.07     113.7  T
     SCC iter.                  ...        0 min,  0.004 sec
     gradient                   ...        0 min,  0.002 sec
 * total energy  :   -61.5651443 Eh     change       -0.5311641E-05 Eh
   gradient norm :     0.0015125 Eh/α   predicted    -0.3376968E-05 ( -36.42%)
   displ. norm   :     0.0676237 α      lambda       -0.1130776E-04
   maximum displ.:     0.0406964 α      in ANC's #4, #8, #7, ...

........................................................................
.............................. CYCLE   18 ..............................
........................................................................

 iter      E             dE          RMSdq      gap      omega  full diag
   1    -62.3340278 -0.623340E+02  0.173E-02    4.07       0.0  T
   2    -62.3340280 -0.154488E-06  0.102E-02    4.06       1.6  T
   3    -62.3340280  0.131262E-07  0.141E-03    4.06      11.7  T
   4    -62.3340280 -0.400366E-07  0.469E-04    4.06      35.1  T
   5    -62.3340280 -0.268502E-08  0.233E-04    4.06      70.5  T
     SCC iter.                  ...        0 min,  0.008 sec
     gradient                   ...        0 min,  0.002 sec
 * total energy  :   -61.5651510 Eh     change       -0.6726808E-05 Eh
   gradient norm :     0.0014941 Eh/α   predicted    -0.5668986E-05 ( -15.73%)
   displ. norm   :     0.0209689 α      lambda       -0.2972927E-05
   maximum displ.:     0.0109858 α      in ANC's #4, #6, #7, ...

........................................................................
.............................. CYCLE   19 ..............................
........................................................................

 iter      E             dE          RMSdq      gap      omega  full diag
   1    -62.3341242 -0.623341E+02  0.721E-03    4.07       0.0  T
   2    -62.3341242 -0.270639E-07  0.424E-03    4.07       3.9  T
   3    -62.3341242  0.948179E-08  0.657E-04    4.07      25.0  T
   4    -62.3341242 -0.133258E-07  0.187E-04    4.07      88.0  T
     SCC iter.                  ...        0 min,  0.005 sec
     gradient                   ...        0 min,  0.004 sec
 * total energy  :   -61.5651540 Eh     change       -0.3011855E-05 Eh
   gradient norm :     0.0008019 Eh/α   predicted    -0.1488420E-05 ( -50.58%)
   displ. norm   :     0.0295962 α      lambda       -0.2463835E-05
   maximum displ.:     0.0201133 α      in ANC's #4, #7, #6, ...

   *** GEOMETRY OPTIMIZATION CONVERGED AFTER 19 ITERATIONS ***

------------------------------------------------------------------------
 total energy gain   :        -0.5522434 Eh     -346.5380 kcal/mol
 total RMSD          :         0.2943373 a0        0.1558 Å
 total power (kW/mol):       -76.3113133 (step)-6006.7491 (real)
------------------------------------------------------------------------

 ANCopt (total)                0 d,  0 h,  0 min,  0.241 sec
 optimizer setup                ...        0 min,  0.000 sec (  0.055%)
 model hessian                  ...        0 min,  0.008 sec (  3.157%)
 ANC generation                 ...        0 min,  0.001 sec (  0.347%)
 coordinate transformation      ...        0 min,  0.000 sec (  0.044%)
 single point calculation       ...        0 min,  0.222 sec ( 91.840%)
 optimization log               ...        0 min,  0.001 sec (  0.510%)
 hessian update                 ...        0 min,  0.001 sec (  0.285%)
 rational function              ...        0 min,  0.006 sec (  2.452%)

================
 final structure:
================
37
 xtb: 6.7.1-6.fc44.fc44
O           -2.32864156090891        2.64759744157078        0.83490598662137
C           -2.64882697392562        1.62846775825099        0.28934820073983
O           -2.81442654302329        1.53508795435937       -1.01565339179365
H           -3.05107859136057        0.61100723683055       -1.30265409487469
C           -2.92823119951132        0.33573503073195        1.08172245144891
H           -3.97980869262768        0.07091438532473        0.90861235857435
H           -2.77541539232083        0.53679867970890        2.14122711526539
N           -2.08941640428015       -0.78281177468326        0.69517791545002
H           -1.35763570542440       -1.10387946758816        1.33304154239545
C           -2.22169177513334       -1.42381600675885       -0.46673071300075
O           -2.99280646157377       -1.07655827236326       -1.35485998667840
C           -1.33208842311235       -2.66224178726701       -0.59921749740179
H           -1.59055760514611       -3.17385186316346       -1.52598676666591
H           -1.53455385332000       -3.32063347763444        0.25359931385207
N            0.07723972969783       -2.33678941200792       -0.61549661066521
H            0.60751154336672       -2.41163208079997       -1.47386222016261
C            0.77872999243403       -2.01891089517934        0.48059437166886
O            0.27223923458048       -1.87493715766172        1.58421790669562
C            2.28279037492031       -1.89440548688311        0.23968656356403
N            2.55032744083631       -1.82233299406864       -1.18862236727312
H            3.53241747402924       -1.99779369024315       -1.37072959864804
H            2.34937591754457       -0.88172260953233       -1.52230111629009
H            2.71466986903361       -2.83209014688142        0.61448052278126
C            2.86299448227862       -0.72742336851380        1.07556405868890
H            2.47940911610154       -0.82651413012278        2.09141918145067
H            3.95137186309971       -0.81927872339367        1.09864838363385
C            2.47125332499975        0.60151240347823        0.49384246403405
C            1.28163251544830        1.21860516037742        0.86196058080436
H            0.65453407891682        0.75546287806364        1.60949650392770
C            0.90509369085127        2.42243434065623        0.29309570023827
H           -0.01739706897003        2.89476562308086        0.59328362023402
C            1.71141399818882        3.01975119046849       -0.66192665016489
H            1.41617728036108        3.95750429540956       -1.10727028100528
C            2.89878136004594        2.41571445969982       -1.03622177993629
H            3.53658344784922        2.87937082591084       -1.77496256573598
C            3.27644415005472        1.21476492081039       -0.45997826346394
H            4.21596764554017        0.75745984101621       -0.74412314333464

 Bond Distances (Angstroems)
 ---------------------------
O1-C2=1.1995         C2-O1=1.1995         C2-O3=1.3188         C2-C5=1.5418         O3-C2=1.3188         O3-H4=0.9961         
H4-O3=0.9961         C5-C2=1.5418         C5-H6=1.0981         C5-H7=1.0892         C5-N8=1.4506         H6-C5=1.0981         
H7-C5=1.0892         N8-C5=1.4506         N8-H9=1.0225         N8-C10=1.3336        H9-N8=1.0225         C10-N8=1.3336        
C10-O11=1.2264       C10-C12=1.5306       O11-C10=1.2264       C12-C10=1.5306       C12-H13=1.0897       C12-H14=1.0963       
C12-N15=1.4465       H13-C12=1.0897       H14-C12=1.0963       N15-C12=1.4465       N15-H16=1.0117       N15-C17=1.3396       
H16-N15=1.0117       C17-N15=1.3396       C17-O18=1.2228       C17-C19=1.5283       O18-C17=1.2228       C19-C17=1.5283       
C19-N20=1.4549       C19-H23=1.0983       C19-C24=1.5483       N20-C19=1.4549       N20-H21=1.0141       N20-H22=1.0181       
H21-N20=1.0141       H22-N20=1.0181       H23-C19=1.0983       C24-C19=1.5483       C24-H25=1.0904       C24-H26=1.0925       
C24-C27=1.5026       H25-C24=1.0904       H26-C24=1.0925       C27-C24=1.5026       C27-C28=1.3898       C27-C36=1.3907       
C28-C27=1.3898       C28-H29=1.0801       C28-C30=1.3837       H29-C28=1.0801       C30-C28=1.3837       C30-H31=1.0790       
C30-C32=1.3853       H31-C30=1.0790       C32-C30=1.3853       C32-H33=1.0793       C32-C34=1.3838       H33-C32=1.0793       
C34-C32=1.3838       C34-H35=1.0805       C34-C36=1.3845       H35-C34=1.0805       C36-C27=1.3907       C36-C34=1.3845       
C36-H37=1.0829       H37-C36=1.0829       
 C  H  Rav=1.0880 sigma=0.0071  Rmin=1.0790  Rmax=1.0983    12
 C  C  Rav=1.4518 sigma=0.0725  Rmin=1.3837  Rmax=1.5483    11
 N  H  Rav=1.0166 sigma=0.0041  Rmin=1.0117  Rmax=1.0225     4
 N  C  Rav=1.4050 sigma=0.0560  Rmin=1.3336  Rmax=1.4549     5
 O  H  Rav=0.9961 sigma=0.0000  Rmin=0.9961  Rmax=0.9961     1
 O  C  Rav=1.2419 sigma=0.0456  Rmin=1.1995  Rmax=1.3188     4

 selected bond angles (degree)
 --------------------
O3-C2-O1=122.94                C5-C2-O1=121.80                C5-C2-O3=115.24                H4-O3-C2=112.37                
H6-C5-C2=107.14                H7-C5-C2=108.65                H7-C5-H6=109.40                N8-C5-C2=113.88                
N8-C5-H6=109.01                N8-C5-H7=108.69                H9-N8-C5=119.32                C10-N8-C5=123.06               
C10-N8-H9=117.62               O11-C10-N8=123.86              C12-C10-N8=114.00              C12-C10-O11=122.13             

 selected dihedral angles (degree)
 ---------------------------------
H4-O3-C2-O1=178.13            H4-O3-C2-C5=356.77            H6-C5-C2-O1=117.65            H6-C5-C2-O3=299.00            
H7-C5-C2-O1=359.55            H7-C5-C2-O3=180.90            N8-C5-C2-O1=238.27            N8-C5-C2-O3= 59.62            
H9-N8-C5-C2=108.73            H9-N8-C5-H6=228.29            H9-N8-C5-H7=347.47            C10-N8-C5-C2=288.85           
C10-N8-C5-H6= 48.42           C10-N8-C5-H7=167.59           O11-C10-N8-C5=  5.35          O11-C10-N8-H9=185.47          
C12-C10-N8-C5=186.17          C12-C10-N8-H9=  6.29          

 CMA Distance (Angstroems)
 ---------------------------
R(CMA):  2.9336
           -------------------------------------------------
          |                Final Singlepoint                |
           -------------------------------------------------

          ...................................................
          :                      SETUP                      :
          :.................................................:
          :  # basis functions                  97          :
          :  # atomic orbitals                  97          :
          :  # shells                           57          :
          :  # electrons                       108          :
          :  max. iterations                   250          :
          :  Hamiltonian                  GFN2-xTB          :
          :  restarted?                      false          :
          :  GBSA solvation                  false          :
          :  PC potential                    false          :
          :  electronic temp.          300.0000000     K    :
          :  accuracy                    1.0000000          :
          :  -> integral cutoff          0.2500000E+02      :
          :  -> integral neglect         0.1000000E-07      :
          :  -> SCF convergence          0.1000000E-05 Eh   :
          :  -> wf. convergence          0.1000000E-03 e    :
          :  Broyden damping             0.4000000          :
          :  net charge                          0          :
          :  unpaired electrons                  0          :
          ...................................................

 iter      E             dE          RMSdq      gap      omega  full diag
   1    -62.3341242 -0.623341E+02  0.829E-05    4.07       0.0  T
   2    -62.3341242 -0.416875E-10  0.500E-05    4.07     328.6  T
   3    -62.3341242 -0.144951E-10  0.309E-05    4.07     532.7  T

   *** convergence criteria satisfied after 3 iterations ***

         #    Occupation            Energy/Eh            Energy/eV
      -------------------------------------------------------------
         1        2.0000           -0.7381835             -20.0870
       ...           ...                  ...                  ...
        48        2.0000           -0.4195967             -11.4178
        49        2.0000           -0.4179101             -11.3719
        50        2.0000           -0.4136280             -11.2554
        51        2.0000           -0.4066562             -11.0657
        52        2.0000           -0.4049533             -11.0193
        53        2.0000           -0.4032753             -10.9737
        54        2.0000           -0.3929162             -10.6918 (HOMO)
        55                         -0.2435034              -6.6261 (LUMO)
        56                         -0.2340521              -6.3689
        57                         -0.2335712              -6.3558
        58                         -0.2227621              -6.0617
        59                         -0.2221865              -6.0460
       ...                                ...                  ...
        97                          0.6656347              18.1128
      -------------------------------------------------------------
                  HL-Gap            0.1494127 Eh            4.0657 eV
             Fermi-level           -0.3182098 Eh           -8.6589 eV

 SCC (total)                   0 d,  0 h,  0 min,  0.021 sec
 SCC setup                      ...        0 min,  0.000 sec (  0.232%)
 Dispersion                     ...        0 min,  0.000 sec (  0.633%)
 classical contributions        ...        0 min,  0.000 sec (  0.057%)
 integral evaluation            ...        0 min,  0.001 sec (  2.956%)
 iterations                     ...        0 min,  0.018 sec ( 86.570%)
 molecular gradient             ...        0 min,  0.002 sec (  8.137%)
 printout                       ...        0 min,  0.000 sec (  1.381%)

         :::::::::::::::::::::::::::::::::::::::::::::::::::::
         ::                     SUMMARY                     ::
         :::::::::::::::::::::::::::::::::::::::::::::::::::::
         :: total energy             -61.565154011643 Eh    ::
         :: gradient norm              0.000802378918 Eh/a0 ::
         :: HOMO-LUMO gap              4.065727455412 eV    ::
         ::.................................................::
         :: SCC energy               -62.332899476714 Eh    ::
         :: -> isotropic ES            0.130421550005 Eh    ::
         :: -> anisotropic ES         -0.000032522972 Eh    ::
         :: -> anisotropic XC          0.019803527986 Eh    ::
         :: -> dispersion             -0.038277419889 Eh    ::
         :: repulsion energy           0.767745465071 Eh    ::
         :: add. restraining           0.000000000000 Eh    ::
         :: total charge               0.000000000000 e     ::
         :::::::::::::::::::::::::::::::::::::::::::::::::::::

           -------------------------------------------------
          |                Property Printout                |
           -------------------------------------------------

    * Orbital Energies and Occupations

         #    Occupation            Energy/Eh            Energy/eV
      -------------------------------------------------------------
         1        2.0000           -0.7381835             -20.0870
       ...           ...                  ...                  ...
        42        2.0000           -0.4678856             -12.7318
        43        2.0000           -0.4656869             -12.6720
        44        2.0000           -0.4628009             -12.5935
        45        2.0000           -0.4507048             -12.2643
        46        2.0000           -0.4460097             -12.1365
        47        2.0000           -0.4276232             -11.6362
        48        2.0000           -0.4195967             -11.4178
        49        2.0000           -0.4179101             -11.3719
        50        2.0000           -0.4136280             -11.2554
        51        2.0000           -0.4066562             -11.0657
        52        2.0000           -0.4049533             -11.0193
        53        2.0000           -0.4032753             -10.9737
        54        2.0000           -0.3929162             -10.6918 (HOMO)
        55                         -0.2435034              -6.6261 (LUMO)
        56                         -0.2340521              -6.3689
        57                         -0.2335712              -6.3558
        58                         -0.2227621              -6.0617
        59                         -0.2221865              -6.0460
        60                         -0.0946963              -2.5768
        61                         -0.0209032              -0.5688
        62                         -0.0129096              -0.3513
        63                          0.0193699               0.5271
        64                          0.0642385               1.7480
        65                          0.0738818               2.0104
       ...                                ...                  ...
        97                          0.6656347              18.1128
      -------------------------------------------------------------
                  HL-Gap            0.1494127 Eh            4.0657 eV
             Fermi-level           -0.3182098 Eh           -8.6589 eV

     #   Z          covCN         q      C6AA      α(0)
     1   8 O        0.856    -0.380    21.288     6.186
     2   6 C        2.685     0.359    20.909     7.483
     3   8 O        1.655    -0.376    20.383     6.095
     4   1 H        0.800     0.364     0.558     1.174
     5   6 C        3.738    -0.038    21.334     6.591
     6   1 H        0.923     0.075     2.032     2.229
     7   1 H        0.925     0.082     1.959     2.189
     8   7 N        2.686    -0.174    24.773     7.392
     9   1 H        0.859     0.233     0.954     1.530
    10   6 C        2.750     0.268    22.475     7.763
    11   8 O        0.858    -0.454    22.794     6.401
    12   6 C        3.744    -0.025    21.088     6.551
    13   1 H        0.925     0.081     1.967     2.193
    14   1 H        0.924     0.076     2.021     2.223
    15   7 N        2.688    -0.170    24.679     7.378
    16   1 H        0.860     0.206     1.077     1.626
    17   6 C        2.754     0.263    22.558     7.777
    18   8 O        0.858    -0.454    22.779     6.399
    19   6 C        3.787     0.029    20.105     6.386
    20   7 N        2.631    -0.358    29.220     8.028
    21   1 H        0.860     0.152     1.388     1.845
    22   1 H        0.860     0.154     1.377     1.838
    23   1 H        0.923     0.054     2.266     2.354
    24   6 C        3.808    -0.071    21.855     6.655
    25   1 H        0.924     0.062     2.175     2.306
    26   1 H        0.924     0.037     2.488     2.467
    27   6 C        2.969     0.006    27.879     8.661
    28   6 C        2.924    -0.040    28.997     8.831
    29   1 H        0.926     0.035     2.513     2.479
    30   6 C        2.918    -0.032    28.794     8.799
    31   1 H        0.926     0.058     2.224     2.332
    32   6 C        2.921    -0.030    28.749     8.793
    33   1 H        0.926     0.036     2.509     2.477
    34   6 C        2.918    -0.033    28.828     8.805
    35   1 H        0.926     0.028     2.618     2.530
    36   6 C        2.925    -0.043    29.075     8.843
    37   1 H        0.925     0.021     2.715     2.577

 Mol. C6AA /au·bohr⁶  :      14774.856779
 Mol. C8AA /au·bohr⁸  :     339613.102493
 Mol. α(0) /au        :        186.187159


Wiberg/Mayer (AO) data.
largest (>0.10) Wiberg bond orders for each atom

 ---------------------------------------------------------------------------
     #   Z sym  total        # sym  WBO       # sym  WBO       # sym  WBO
 ---------------------------------------------------------------------------
     1   8 O    2.062 --     2 C    1.766     3 O    0.181
     2   6 C    3.930 --     1 O    1.766     3 O    1.199     5 C    0.929
     3   8 O    2.233 --     2 C    1.199     4 H    0.774     1 O    0.181
     4   1 H    0.868 --     3 O    0.774
     5   6 C    3.965 --     8 N    0.991     7 H    0.973     6 H    0.952
                             2 C    0.929
     6   1 H    0.994 --     5 C    0.952
     7   1 H    0.993 --     5 C    0.973
     8   7 N    3.488 --    10 C    1.333     5 C    0.991     9 H    0.874
                            11 O    0.205
     9   1 H    0.946 --     8 N    0.874
    10   6 C    3.956 --    11 O    1.607     8 N    1.333    12 C    0.943
    11   8 O    2.016 --    10 C    1.607     8 N    0.205
    12   6 C    3.967 --    15 N    0.993    13 H    0.972    14 H    0.955
                            10 C    0.943
    13   1 H    0.993 --    12 C    0.972
    14   1 H    0.994 --    12 C    0.955
    15   7 N    3.468 --    17 C    1.294    12 C    0.993    16 H    0.913
                            18 O    0.191
    16   1 H    0.958 --    15 N    0.913
    17   6 C    3.948 --    18 O    1.627    15 N    1.294    19 C    0.948
    18   8 O    2.002 --    17 C    1.627    15 N    0.191
    19   6 C    3.983 --    20 N    1.022    24 C    0.956    17 C    0.948
                            23 H    0.944
    20   7 N    3.033 --    19 C    1.022    21 H    0.961    22 H    0.952
    21   1 H    0.977 --    20 N    0.961
    22   1 H    0.976 --    20 N    0.952
    23   1 H    0.996 --    19 C    0.944
    24   6 C    3.993 --    27 C    1.014    26 H    0.973    25 H    0.967
                            19 C    0.956
    25   1 H    0.996 --    24 C    0.967
    26   1 H    0.998 --    24 C    0.973
    27   6 C    3.989 --    36 C    1.410    28 C    1.410    24 C    1.014
                            32 C    0.109
    28   6 C    3.992 --    30 C    1.448    27 C    1.410    29 H    0.968
                            34 C    0.112
    29   1 H    0.999 --    28 C    0.968
    30   6 C    3.990 --    28 C    1.448    32 C    1.435    31 H    0.965
                            36 C    0.110
    31   1 H    0.996 --    30 C    0.965
    32   6 C    3.992 --    34 C    1.443    30 C    1.435    33 H    0.971
                            27 C    0.109
    33   1 H    0.998 --    32 C    0.971
    34   6 C    3.992 --    32 C    1.443    36 C    1.439    35 H    0.971
                            28 C    0.112
    35   1 H    0.999 --    34 C    0.971
    36   6 C    3.992 --    34 C    1.439    27 C    1.410    37 H    0.969
                            30 C    0.110
    37   1 H    1.000 --    36 C    0.969
 ---------------------------------------------------------------------------

Topologies differ in total number of bonds
Writing topology from bond orders to xtbtopo.mol

molecular dipole:
                 x           y           z       tot (Debye)
 q only:        0.873      -1.734      -0.315
   full:        1.355      -2.056      -0.307       6.307
molecular quadrupole (traceless):
                xx          xy          yy          xz          yz          zz
 q only:        4.607       4.554      -3.306      -8.554       2.344      -1.301
  q+dip:       10.205       4.891      -5.972     -12.349      -1.075      -4.233
   full:       10.161       5.632      -5.958     -11.404       0.100      -4.204

           -------------------------------------------------
          |                Geometry Summary                 |
           -------------------------------------------------

      molecular mass/u    :      279.2922888
   center of mass at/Å    :        0.0183469      -0.0173953       0.0149793
  moments of inertia/u·Å² :        0.1197536E+04   0.1669083E+04   0.2399392E+04
rotational constants/cm⁻¹ :        0.1407694E-01   0.1009994E-01   0.7025794E-02

 * 32 selected distances

     #   Z          #   Z                                           value/Å
     1   8 O        2   6 C                                       1.1994905
     2   6 C        3   8 O                                       1.3187769
     3   8 O        4   1 H                                       0.9961420 (min)
     5   6 C        6   1 H                                       1.0981405
     5   6 C        7   1 H                                       1.0891876
     5   6 C        8   7 N                                       1.4505772
     8   7 N        9   1 H                                       1.0224762
     8   7 N       10   6 C                                       1.3335723
    10   6 C       11   8 O                                       1.2263685
    12   6 C       13   1 H                                       1.0897030
    12   6 C       14   1 H                                       1.0962521
    12   6 C       15   7 N                                       1.4465098
    15   7 N       16   1 H                                       1.0117220
    15   7 N       17   6 C                                       1.3396086
    17   6 C       18   8 O                                       1.2228027
    19   6 C       20   7 N                                       1.4549355 (max)
    20   7 N       21   1 H                                       1.0141255
    20   7 N       22   1 H                                       1.0180723
    19   6 C       23   1 H                                       1.0982910
    24   6 C       25   1 H                                       1.0903754
    24   6 C       26   1 H                                       1.0924907
    27   6 C       28   6 C                                       1.3897886
    28   6 C       29   1 H                                       1.0800756
    28   6 C       30   6 C                                       1.3836885
    30   6 C       31   1 H                                       1.0789806
    30   6 C       32   6 C                                       1.3852826
    32   6 C       33   1 H                                       1.0792946
    32   6 C       34   6 C                                       1.3837626
    34   6 C       35   1 H                                       1.0805123
    27   6 C       36   6 C                                       1.3907499
    34   6 C       36   6 C                                       1.3845454
    36   6 C       37   1 H                                       1.0828531

 * 6 distinct bonds (by element types)

   Z      Z             #   av. dist./Å        max./Å        min./Å
   1 H    6 C          12     1.0880130     1.0982910     1.0789806
   6 C    6 C           6     1.3863029     1.3907499     1.3836885
   1 H    7 N           4     1.0165990     1.0224762     1.0117220
   6 C    7 N           5     1.4050407     1.4549355     1.3335723
   1 H    8 O           1     0.9961420     0.9961420     0.9961420
   6 C    8 O           4     1.2418597     1.3187769     1.1994905


optimized geometry written to: xtbopt.xyz


           -------------------------------------------------
          | TOTAL ENERGY              -61.565154011643 Eh   |
          | GRADIENT NORM               0.000802378918 Eh/α |
          | HOMO-LUMO GAP               4.065727455412 eV   |
           -------------------------------------------------

------------------------------------------------------------------------
 * finished run on 2026/10/01 at 13:34:20.950     
------------------------------------------------------------------------
 total:
 * wall-time:     0 d,  0 h,  0 min,  0.402 sec
 *  cpu-time:     0 d,  0 h,  0 min,  6.118 sec
 * ratio c/w:    15.235 speedup
 SCF:
 * wall-time:     0 d,  0 h,  0 min,  0.110 sec
 *  cpu-time:     0 d,  0 h,  0 min,  1.635 sec
 * ratio c/w:    14.851 speedup
 ANC optimizer:
 * wall-time:     0 d,  0 h,  0 min,  0.263 sec
 *  cpu-time:     0 d,  0 h,  0 min,  4.072 sec
 * ratio c/w:    15.463 speedup


--- STDERR ---
normal termination of xtb
Note: The following floating-point exceptions are signalling: IEEE_UNDERFLOW_FLAG IEEE_DENORMAL
