34
frame_0015
O      -2.657109207376335      2.863051692685672     -0.395937160372483
C      -2.129828593137782      2.501541895982533     -1.561091053058737
O      -2.398308613958570      3.301494988721178     -2.638637135216867
H      -2.337957192250544      2.157037551021354      0.341191395511415
C      -0.898917361864796      1.539641822227582     -1.401370048136558
H      -0.221001042922146      1.919218717246924     -0.584480227683943
H      -0.297884679207338      1.426440288637991     -2.530703906218669
N      -1.252166611300816      0.307313266342370     -1.002763482167239
H      -1.212472111386520     -0.578572425011357     -1.629188668564388
C      -1.500679182782047     -0.018415560993715      0.231222099077077
O      -1.949444080862493      0.930998068449337      1.151772211448393
C      -1.992488180082532     -1.466894629532130      0.433991507696484
H      -2.819701777553690     -1.437694428025156      0.975602215713204
N      -1.562099522887849     -2.415535492520455     -0.794780012353214
H      -2.354259262340718     -3.176081872779670     -0.662297529549146
H      -0.715523833475911     -2.532610212914540     -0.703367859063983
C      -0.887512671742704     -1.800988639259699      1.741896886074603
H      -1.070469581025158     -3.033671243663788      2.101516954097883
H      -0.914796793769486     -1.182583507554642      2.346489327769183
C       0.441768849492995     -1.653867949645249      1.225304598743579
C       1.251407291273535     -2.823900521127460      0.452331303987951
H       0.958981178655606     -3.828748206776079      0.388454970931808
N       2.418488507752433     -2.511484135989718     -0.131189286978125
H       3.127341884867460     -3.077057941218321     -0.464770866925282
C       2.422428017197212     -1.010077207549342      0.126320241676010
C       3.513944978531645     -0.047633259019970     -0.096871585108666
H       4.764797798013333     -0.562860127360933     -0.648374082196244
C       3.584550493097697      0.988486843434023      0.298082028416476
H       4.263447193048557      1.718082694574369      0.171375738040865
C       2.384620981000450      1.302995794093050      1.074094807700338
H       2.165689655091416      2.634077814413974      1.389529261930949
C       1.393285209537332      0.653959688007973      1.392312174809698
H       0.400684280751821      1.056478780010034      1.873646472236054
C       1.498821326526412     -0.701509844552398      1.084498232819917
