      -----------------------------------------------------------      
     |                   =====================                   |     
     |                           x T B                           |     
     |                   =====================                   |     
     |                         S. Grimme                         |     
     |          Mulliken Center for Theoretical Chemistry        |     
     |                    University of Bonn                     |     
      -----------------------------------------------------------      

   * xtb version 6.7.1-6.fc44.fc44 compiled by Fedora project on Sun Jan 18 23:32:34 UTC 2026

   xtb is free software: you can redistribute it and/or modify it under
   the terms of the GNU Lesser General Public License as published by
   the Free Software Foundation, either version 3 of the License, or
   (at your option) any later version.
   
   xtb is distributed in the hope that it will be useful,
   but WITHOUT ANY WARRANTY; without even the implied warranty of
   MERCHANTABILITY or FITNESS FOR A PARTICULAR PURPOSE.  See the
   GNU Lesser General Public License for more details.
   
   Cite this work as:
   * C. Bannwarth, E. Caldeweyher, S. Ehlert, A. Hansen, P. Pracht,
     J. Seibert, S. Spicher, S. Grimme, WIREs Comput. Mol. Sci., 2020, 11,
     e01493. DOI: 10.1002/wcms.1493
   
   for GFN2-xTB:
   * C. Bannwarth, S. Ehlert and S. Grimme., J. Chem. Theory Comput., 2019,
     15, 1652-1671. DOI: 10.1021/acs.jctc.8b01176
   for GFN1-xTB:
   * S. Grimme, C. Bannwarth, P. Shushkov, J. Chem. Theory Comput., 2017,
     13, 1989-2009. DOI: 10.1021/acs.jctc.7b00118
   for GFN0-xTB:
   * P. Pracht, E. Caldeweyher, S. Ehlert, S. Grimme, ChemRxiv, 2019, preprint.
     DOI: 10.26434/chemrxiv.8326202.v1
   for GFN-FF:
   * S. Spicher and S. Grimme, Angew. Chem. Int. Ed., 2020, 59, 15665-15673.
     DOI: 10.1002/anie.202004239
   
   for ALPB and GBSA implicit solvation:
   * S. Ehlert, M. Stahn, S. Spicher, S. Grimme, J. Chem. Theory Comput.,
     2021, 17, 4250-4261. DOI: 10.1021/acs.jctc.1c00471
   
   for ddCOSMO and CPCM-X implicit solvation:
   * M. Stahn, S. Ehlert, S. Grimme, J. Phys. Chem. A,
     2023, XX, XXXX-XXXX. DOI: 10.1021/acs.jpca.3c04382
   
   for DFT-D4:
   * E. Caldeweyher, C. Bannwarth and S. Grimme, J. Chem. Phys., 2017,
     147, 034112. DOI: 10.1063/1.4993215
   * E. Caldeweyher, S. Ehlert, A. Hansen, H. Neugebauer, S. Spicher,
     C. Bannwarth and S. Grimme, J. Chem. Phys., 2019, 150, 154122.
     DOI: 10.1063/1.5090222
   * E. Caldeweyher, J.-M. Mewes, S. Ehlert and S. Grimme, Phys. Chem. Chem. Phys.
     2020, 22, 8499-8512. DOI: 10.1039/D0CP00502A
   
   for sTDA-xTB:
   * S. Grimme and C. Bannwarth, J. Chem. Phys., 2016, 145, 054103.
     DOI: 10.1063/1.4959605
   
   in the mass-spec context:
   * V. Asgeirsson, C. Bauer and S. Grimme, Chem. Sci., 2017, 8, 4879.
     DOI: 10.1039/c7sc00601b
   * J. Koopman and S. Grimme, ACS Omega 2019, 4, 12, 15120-15133.
     DOI: 10.1021/acsomega.9b02011
   
   for metadynamics refer to:
   * S. Grimme, J. Chem. Theory Comput., 2019, 155, 2847-2862
     DOI: 10.1021/acs.jctc.9b00143
   
   for SPH calculations refer to:
   * S. Spicher and S. Grimme, J. Chem. Theory Comput., 2021, 17, 1701-1714
     DOI: 10.1021/acs.jctc.0c01306
   
   for ONIOM refer to:
   * C. Plett, A. Katbashev, S. Ehlert, S. Grimme, M. Bursch,
     Phys. Chem. Chem. Phys., 2023, 25, 17860-17868. DOI: 10.1039/D3CP02178E
   
   for DIPRO refer to:
   * J. Kohn, N. Gildemeister, S. Grimme, D. Fazzi, A. Hansen,
     J. Chem. Phys., 2023, just accepted.
   
   for PTB refer to:
   * S. Grimme, M. Mueller, A. Hansen, J. Chem. Phys., 2023, 158, 124111.
     DOI: 10.1063/5.0137838
   
   with help from (in alphabetical order)
   P. Atkinson, C. Bannwarth, F. Bohle, G. Brandenburg, E. Caldeweyher
   M. Checinski, S. Dohm, S. Ehlert, S. Ehrlich, I. Gerasimov, C. Hölzer
   A. Katbashev, J. Kohn, J. Koopman, C. Lavigne, S. Lehtola, F. März, M. Müller,
   F. Musil, H. Neugebauer, J. Pisarek, C. Plett, P. Pracht, F. Pultar,
   J. Seibert, P. Shushkov, S. Spicher, M. Stahn, M. Steiner, T. Strunk,
   J. Stückrath, T. Rose, and J. Unsleber
   
 * started run on 2026/10/01 at 18:05:27.990     
   ID    Z sym.   atoms
    1    8 O      1, 3, 11
    2    6 C      2, 5, 10, 12, 17, 20, 21, 25, 26, 28, 30, 32, 34
    3    1 H      4, 6, 7, 9, 13, 15, 16, 18, 19, 22, 24, 27, 29, 31, 33
    4    7 N      8, 14, 23

           -------------------------------------------------
          |                Calculation Setup                |
           -------------------------------------------------

          program call               : /usr/bin/xtb input.xyz --opt --gfn 2 --chrg 0 --uhf 0
          hostname                   : fedora
          coordinate file            : input.xyz
          omp threads                :                    16


molecular fragmentation (1/2 indicates fragments):
1111111111111111111111111121111111
# atoms in fragment 1/2:    33     1
 fragment masses (1/2) :      260.27        1.01
CMA distance (Bohr)    :   9.232
constraining FC (au)   :  0.0500

           -------------------------------------------------
          |                 G F N 2 - x T B                 |
           -------------------------------------------------

        Reference                      10.1021/acs.jctc.8b01176
      * Hamiltonian:
        H0-scaling (s, p, d)           1.850000    2.230000    2.230000
        zeta-weighting                 0.500000
      * Dispersion:
        s8                             2.700000
        a1                             0.520000
        a2                             5.000000
        s9                             5.000000
      * Repulsion:
        kExp                           1.500000    1.000000
        rExp                           1.000000
      * Coulomb:
        alpha                          2.000000
        third order                    shell-resolved
        anisotropic                    true
        a3                             3.000000
        a5                             4.000000
        cn-shift                       1.200000
        cn-exp                         4.000000
        max-rad                        5.000000


          ...................................................
          :                      SETUP                      :
          :.................................................:
          :  # basis functions                  91          :
          :  # atomic orbitals                  91          :
          :  # shells                           53          :
          :  # electrons                       100          :
          :  max. iterations                   250          :
          :  Hamiltonian                  GFN2-xTB          :
          :  restarted?                      false          :
          :  GBSA solvation                  false          :
          :  PC potential                    false          :
          :  electronic temp.          300.0000000     K    :
          :  accuracy                    1.0000000          :
          :  -> integral cutoff          0.2500000E+02      :
          :  -> integral neglect         0.1000000E-07      :
          :  -> SCF convergence          0.1000000E-05 Eh   :
          :  -> wf. convergence          0.1000000E-03 e    :
          :  Broyden damping             0.4000000          :
          :  net charge                          0          :
          :  unpaired electrons                  0          :
          ...................................................

 iter      E             dE          RMSdq      gap      omega  full diag
   1    -56.5674326 -0.565674E+02  0.467E+00    2.66       0.0  T
   2    -56.7813745 -0.213942E+00  0.291E+00    2.00       1.0  T
   3    -56.8340537 -0.526792E-01  0.184E+00    2.43       1.0  T
   4    -56.8115475  0.225061E-01  0.133E+00    2.48       1.0  T
   5    -56.8613276 -0.497800E-01  0.349E-01    2.24       1.0  T
   6    -56.8652006 -0.387305E-02  0.108E-01    2.29       1.0  T
   7    -56.8653788 -0.178206E-03  0.437E-02    2.28       1.0  T
   8    -56.8653823 -0.350025E-05  0.220E-02    2.28       1.0  T
   9    -56.8653877 -0.535086E-05  0.696E-03    2.29       2.5  T
  10    -56.8653882 -0.528316E-06  0.313E-03    2.28       5.5  T
  11    -56.8653883 -0.629777E-07  0.147E-03    2.28      11.7  T
  12    -56.8653883 -0.106065E-07  0.633E-04    2.28      27.1  T
  13    -56.8653883 -0.939028E-08  0.239E-04    2.28      71.6  T

   *** convergence criteria satisfied after 13 iterations ***

         #    Occupation            Energy/Eh            Energy/eV
      -------------------------------------------------------------
         1        2.0000           -0.7266956             -19.7744
       ...           ...                  ...                  ...
        44        2.0000           -0.4294919             -11.6871
        45        2.0000           -0.4247043             -11.5568
        46        2.0000           -0.4164940             -11.3334
        47        2.0000           -0.4083581             -11.1120
        48        2.0000           -0.4056094             -11.0372
        49        2.0000           -0.3976212             -10.8198
        50        2.0000           -0.3701524             -10.0724 (HOMO)
        51                         -0.2862103              -7.7882 (LUMO)
        52                         -0.2705346              -7.3616
        53                         -0.2605651              -7.0903
        54                         -0.2310198              -6.2864
        55                         -0.1941507              -5.2831
       ...                                ...                  ...
        91                          1.6769578              45.6323
      -------------------------------------------------------------
                  HL-Gap            0.0839421 Eh            2.2842 eV
             Fermi-level           -0.3281814 Eh           -8.9303 eV

 SCC (total)                   0 d,  0 h,  0 min,  0.094 sec
 SCC setup                      ...        0 min,  0.005 sec (  5.733%)
 Dispersion                     ...        0 min,  0.009 sec ( 10.105%)
 classical contributions        ...        0 min,  0.005 sec (  5.850%)
 integral evaluation            ...        0 min,  0.012 sec ( 12.554%)
 iterations                     ...        0 min,  0.059 sec ( 63.005%)
 molecular gradient             ...        0 min,  0.002 sec (  2.131%)
 printout                       ...        0 min,  0.001 sec (  0.602%)

         :::::::::::::::::::::::::::::::::::::::::::::::::::::
         ::                     SUMMARY                     ::
         :::::::::::::::::::::::::::::::::::::::::::::::::::::
         :: total energy             -55.927798764147 Eh    ::
         :: gradient norm              1.082799719958 Eh/a0 ::
         :: HOMO-LUMO gap              2.284181203175 eV    ::
         ::.................................................::
         :: SCC energy               -56.864565708033 Eh    ::
         :: -> isotropic ES            0.115278222156 Eh    ::
         :: -> anisotropic ES          0.001379717626 Eh    ::
         :: -> anisotropic XC          0.025985280583 Eh    ::
         :: -> dispersion             -0.037978308852 Eh    ::
         :: repulsion energy           0.936766943886 Eh    ::
         :: add. restraining           0.000000000000 Eh    ::
         :: total charge              -0.000000000000 e     ::
         :::::::::::::::::::::::::::::::::::::::::::::::::::::

      ----------------------------------------------------------- 
     |                   =====================                   |
     |                        A N C O P T                        |
     |                   =====================                   |
     |               Approximate Normal Coordinate               |
     |                Rational Function Optimizer                |
      ----------------------------------------------------------- 
      ----------------------------------------------------------- 
     |                   =====================                   |
     |                        A N C O P T                        |
     |                   =====================                   |
     |               Approximate Normal Coordinate               |
     |                Rational Function Optimizer                |
      ----------------------------------------------------------- 

          ...................................................
          :                      SETUP                      :
          :.................................................:
          :   optimization level            normal          :
          :   max. optcycles                   200          :
          :   ANC micro-cycles                  20          :
          :   degrees of freedom                96          :
          :.................................................:
          :   RF solver                   davidson          :
          :   write xtbopt.log                true          :
          :   linear?                        false          :
          :   energy convergence         0.5000000E-05 Eh   :
          :   grad. convergence          0.1000000E-02 Eh/α :
          :   maxmium RF displ.          1.0000000          :
          :   Hlow (freq-cutoff)         0.1000000E-01      :
          :   Hmax (freq-cutoff)         5.0000000          :
          :   S6 in model hess.         20.0000000          :
          ...................................................

generating ANC from exact Hessian ...
Using Lindh-Hessian (1995)
 Shifting diagonal of input Hessian by    9.7211367059619504E-003
 Lowest  eigenvalues of input Hessian
    0.000000    0.000000    0.000000    0.000000    0.000000    0.000000
    0.010000    0.010209    0.010405    0.011504    0.011865    0.012780
    0.013779    0.015931    0.016596    0.016860    0.019097    0.019826
 Highest eigenvalues
    1.869731    1.952787    2.018834    2.169245    2.418423    2.913126


........................................................................
.............................. CYCLE    1 ..............................
........................................................................

 iter      E             dE          RMSdq      gap      omega  full diag
   1    -56.8653883 -0.568654E+02  0.105E-04    2.28       0.0  T
   2    -56.8653883 -0.905871E-10  0.631E-05    2.28     272.0  T
   3    -56.8653883 -0.530562E-10  0.387E-05    2.28     442.7  T
     SCC iter.                  ...        0 min,  0.004 sec
     gradient                   ...        0 min,  0.001 sec
 * total energy  :   -55.9277988 Eh     change       -0.6348913E-09 Eh
   gradient norm :     1.0827993 Eh/α   predicted     0.0000000E+00 (-100.00%)
   displ. norm   :     0.5457365 α      lambda       -0.5300742E+00
   maximum displ.:     0.1881789 α      in ANC's #96, #87, #72, ...

........................................................................
.............................. CYCLE    2 ..............................
........................................................................

 iter      E             dE          RMSdq      gap      omega  full diag
   1    -56.9745726 -0.569746E+02  0.712E-01    3.01       0.0  T
   2    -56.9798369 -0.526436E-02  0.429E-01    2.93       1.0  T
   3    -56.9806917 -0.854733E-03  0.240E-01    2.90       1.0  T
   4    -56.9807903 -0.986655E-04  0.824E-02    2.88       1.0  T
   5    -56.9809534 -0.163051E-03  0.278E-02    2.89       1.0  T
   6    -56.9809650 -0.116102E-04  0.132E-02    2.89       1.3  T
   7    -56.9809684 -0.342699E-05  0.592E-03    2.89       2.9  T
   8    -56.9809690 -0.570420E-06  0.189E-03    2.89       9.1  T
   9    -56.9809690 -0.254624E-07  0.813E-04    2.89      21.1  T
  10    -56.9809690 -0.606830E-08  0.370E-04    2.89      46.3  T
     SCC iter.                  ...        0 min,  0.015 sec
     gradient                   ...        0 min,  0.002 sec
 * total energy  :   -56.2842601 Eh     change       -0.3564613E+00 Eh
   gradient norm :     0.4337007 Eh/α   predicted    -0.3440034E+00 (  -3.49%)
   displ. norm   :     0.6143204 α      lambda       -0.2261019E+00
   maximum displ.:     0.2042887 α      in ANC's #62, #43, #72, ...

........................................................................
.............................. CYCLE    3 ..............................
........................................................................

 iter      E             dE          RMSdq      gap      omega  full diag
   1    -57.1499759 -0.571500E+02  0.761E-01    3.64       0.0  T
   2    -57.1551197 -0.514373E-02  0.430E-01    3.69       1.0  T
   3    -57.1555521 -0.432412E-03  0.246E-01    3.67       1.0  T
   4    -57.1556493 -0.971885E-04  0.662E-02    3.66       1.0  T
   5    -57.1557634 -0.114181E-03  0.226E-02    3.66       1.0  T
   6    -57.1557717 -0.828685E-05  0.864E-03    3.66       2.0  T
   7    -57.1557723 -0.571773E-06  0.413E-03    3.66       4.2  T
   8    -57.1557726 -0.299893E-06  0.146E-03    3.66      11.8  T
   9    -57.1557726 -0.195236E-07  0.690E-04    3.66      24.9  T
  10    -57.1557726 -0.370029E-08  0.260E-04    3.66      66.0  T
     SCC iter.                  ...        0 min,  0.016 sec
     gradient                   ...        0 min,  0.002 sec
 * total energy  :   -56.4420864 Eh     change       -0.1578263E+00 Eh
   gradient norm :     0.1577773 Eh/α   predicted    -0.1557153E+00 (  -1.34%)
   displ. norm   :     0.5039158 α      lambda       -0.6004031E-01
   maximum displ.:     0.1687330 α      in ANC's #41, #26, #27, ...

........................................................................
.............................. CYCLE    4 ..............................
........................................................................

 iter      E             dE          RMSdq      gap      omega  full diag
   1    -57.2228642 -0.572229E+02  0.530E-01    3.67       0.0  T
   2    -57.2234284 -0.564175E-03  0.301E-01    3.70       1.0  T
   3    -57.2232302  0.198146E-03  0.160E-01    3.68       1.0  T
   4    -57.2235466 -0.316404E-03  0.316E-02    3.69       1.0  T
   5    -57.2235790 -0.323652E-04  0.105E-02    3.69       1.6  T
   6    -57.2235800 -0.104792E-05  0.522E-03    3.69       3.3  T
   7    -57.2235802 -0.205097E-06  0.163E-03    3.69      10.5  T
   8    -57.2235803 -0.318701E-07  0.725E-04    3.69      23.6  T
   9    -57.2235803 -0.432271E-08  0.320E-04    3.69      53.5  T
     SCC iter.                  ...        0 min,  0.013 sec
     gradient                   ...        0 min,  0.005 sec
 * total energy  :   -56.4712944 Eh     change       -0.2920795E-01 Eh
   gradient norm :     0.0836953 Eh/α   predicted    -0.3764449E-01 (  28.88%)
   displ. norm   :     0.3812998 α      lambda       -0.1743023E-01
   maximum displ.:     0.1539434 α      in ANC's #27, #41, #34, ...

........................................................................
.............................. CYCLE    5 ..............................
........................................................................

 iter      E             dE          RMSdq      gap      omega  full diag
   1    -57.2160323 -0.572160E+02  0.328E-01    3.61       0.0  T
   2    -57.2161436 -0.111337E-03  0.196E-01    3.61       1.0  T
   3    -57.2160748  0.688254E-04  0.616E-02    3.61       1.0  T
   4    -57.2161644 -0.895855E-04  0.166E-02    3.61       1.0  T
   5    -57.2161693 -0.493689E-05  0.661E-03    3.61       2.6  T
   6    -57.2161699 -0.580362E-06  0.283E-03    3.61       6.1  T
   7    -57.2161699 -0.617623E-07  0.108E-03    3.61      15.9  T
   8    -57.2161700 -0.196763E-07  0.443E-04    3.61      38.7  T
   9    -57.2161700 -0.249585E-08  0.178E-04    3.61      96.4  T
     SCC iter.                  ...        0 min,  0.010 sec
     gradient                   ...        0 min,  0.004 sec
 * total energy  :   -56.4751486 Eh     change       -0.3854188E-02 Eh
   gradient norm :     0.0616089 Eh/α   predicted    -0.9982231E-02 ( 159.00%)
   displ. norm   :     0.3001901 α      lambda       -0.7915007E-02
   maximum displ.:     0.1991359 α      in ANC's #8, #6, #27, ...

........................................................................
.............................. CYCLE    6 ..............................
........................................................................

 iter      E             dE          RMSdq      gap      omega  full diag
   1    -57.2260975 -0.572261E+02  0.229E-01    3.59       0.0  T
   2    -57.2261224 -0.248609E-04  0.135E-01    3.59       1.0  T
   3    -57.2261130  0.938512E-05  0.240E-02    3.59       1.0  T
   4    -57.2261267 -0.137406E-04  0.505E-03    3.59       3.4  T
   5    -57.2261271 -0.343759E-06  0.292E-03    3.59       5.9  T
   6    -57.2261271 -0.573159E-07  0.111E-03    3.59      15.5  T
   7    -57.2261272 -0.180645E-07  0.391E-04    3.59      43.9  T
   8    -57.2261272 -0.217074E-08  0.186E-04    3.59      92.4  T
     SCC iter.                  ...        0 min,  0.009 sec
     gradient                   ...        0 min,  0.002 sec
 * total energy  :   -56.4789834 Eh     change       -0.3834892E-02 Eh
   gradient norm :     0.0306547 Eh/α   predicted    -0.4314129E-02 (  12.50%)
   displ. norm   :     0.2203629 α      lambda       -0.2764096E-02
   maximum displ.:     0.1071818 α      in ANC's #8, #18, #7, ...

........................................................................
.............................. CYCLE    7 ..............................
........................................................................

 iter      E             dE          RMSdq      gap      omega  full diag
   1    -57.2322317 -0.572322E+02  0.170E-01    3.60       0.0  T
   2    -57.2322714 -0.396932E-04  0.100E-01    3.60       1.0  T
   3    -57.2322572  0.142580E-04  0.320E-02    3.61       1.0  T
   4    -57.2322763 -0.190862E-04  0.761E-03    3.60       2.3  T
   5    -57.2322778 -0.149183E-05  0.259E-03    3.61       6.6  T
   6    -57.2322779 -0.102817E-06  0.131E-03    3.60      13.1  T
   7    -57.2322779 -0.124314E-07  0.483E-04    3.60      35.5  T
   8    -57.2322779 -0.335358E-08  0.200E-04    3.60      85.7  T
     SCC iter.                  ...        0 min,  0.009 sec
     gradient                   ...        0 min,  0.002 sec
 * total energy  :   -56.4796411 Eh     change       -0.6576094E-03 Eh
   gradient norm :     0.0247834 Eh/α   predicted    -0.1449176E-02 ( 120.37%)
   displ. norm   :     0.1173388 α      lambda       -0.1229755E-02
   maximum displ.:     0.0472887 α      in ANC's #8, #7, #16, ...

........................................................................
.............................. CYCLE    8 ..............................
........................................................................

 iter      E             dE          RMSdq      gap      omega  full diag
   1    -57.2362516 -0.572363E+02  0.918E-02    3.61       0.0  T
   2    -57.2362668 -0.151855E-04  0.543E-02    3.61       1.0  T
   3    -57.2362642  0.259164E-05  0.172E-02    3.61       1.0  T
   4    -57.2362687 -0.446895E-05  0.291E-03    3.61       5.9  T
   5    -57.2362688 -0.132895E-06  0.147E-03    3.61      11.6  T
   6    -57.2362688 -0.353489E-07  0.715E-04    3.61      24.0  T
   7    -57.2362688 -0.448340E-08  0.253E-04    3.61      67.8  T
     SCC iter.                  ...        0 min,  0.008 sec
     gradient                   ...        0 min,  0.002 sec
 * total energy  :   -56.4802426 Eh     change       -0.6015088E-03 Eh
   gradient norm :     0.0148710 Eh/α   predicted    -0.6233429E-03 (   3.63%)
   displ. norm   :     0.0957689 α      lambda       -0.6047307E-03
   maximum displ.:     0.0386530 α      in ANC's #8, #7, #19, ...

........................................................................
.............................. CYCLE    9 ..............................
........................................................................

 iter      E             dE          RMSdq      gap      omega  full diag
   1    -57.2336276 -0.572336E+02  0.691E-02    3.61       0.0  T
   2    -57.2336315 -0.391363E-05  0.408E-02    3.61       1.0  T
   3    -57.2336300  0.148492E-05  0.105E-02    3.61       1.6  T
   4    -57.2336323 -0.231204E-05  0.182E-03    3.61       9.4  T
   5    -57.2336323 -0.172698E-07  0.107E-03    3.61      16.0  T
   6    -57.2336323 -0.142532E-07  0.414E-04    3.61      41.4  T
   7    -57.2336323 -0.117762E-08  0.146E-04    3.61     117.5  T
     SCC iter.                  ...        0 min,  0.013 sec
     gradient                   ...        0 min,  0.001 sec
 * total energy  :   -56.4803881 Eh     change       -0.1455293E-03 Eh
   gradient norm :     0.0117426 Eh/α   predicted    -0.3051392E-03 ( 109.68%)
   displ. norm   :     0.0654748 α      lambda       -0.3074036E-03
   maximum displ.:     0.0317445 α      in ANC's #7, #2, #3, ...

........................................................................
.............................. CYCLE   10 ..............................
........................................................................

 iter      E             dE          RMSdq      gap      omega  full diag
   1    -57.2359300 -0.572359E+02  0.432E-02    3.61       0.0  T
   2    -57.2359329 -0.290734E-05  0.255E-02    3.61       1.0  T
   3    -57.2359325  0.462518E-06  0.822E-03    3.61       2.1  T
   4    -57.2359333 -0.867058E-06  0.136E-03    3.61      12.6  T
   5    -57.2359334 -0.329168E-07  0.704E-04    3.61      24.4  T
   6    -57.2359334 -0.579901E-08  0.310E-04    3.61      55.3  T
     SCC iter.                  ...        0 min,  0.007 sec
     gradient                   ...        0 min,  0.002 sec
 * total energy  :   -56.4805721 Eh     change       -0.1839951E-03 Eh
   gradient norm :     0.0067982 Eh/α   predicted    -0.1543703E-03 ( -16.10%)
   displ. norm   :     0.0800316 α      lambda       -0.1568423E-03
   maximum displ.:     0.0420370 α      in ANC's #7, #2, #14, ...

........................................................................
.............................. CYCLE   11 ..............................
........................................................................

 iter      E             dE          RMSdq      gap      omega  full diag
   1    -57.2363413 -0.572363E+02  0.375E-02    3.61       0.0  T
   2    -57.2363421 -0.785167E-06  0.221E-02    3.61       1.0  T
   3    -57.2363413  0.847761E-06  0.613E-03    3.62       2.8  T
   4    -57.2363423 -0.104479E-05  0.148E-03    3.61      11.6  T
   5    -57.2363424 -0.397440E-07  0.629E-04    3.62      27.3  T
   6    -57.2363424 -0.260605E-08  0.292E-04    3.61      58.8  T
     SCC iter.                  ...        0 min,  0.007 sec
     gradient                   ...        0 min,  0.006 sec
 * total energy  :   -56.4806301 Eh     change       -0.5797879E-04 Eh
   gradient norm :     0.0061178 Eh/α   predicted    -0.7892571E-04 (  36.13%)
   displ. norm   :     0.0621976 α      lambda       -0.9055959E-04
   maximum displ.:     0.0318810 α      in ANC's #7, #2, #3, ...

........................................................................
.............................. CYCLE   12 ..............................
........................................................................

 iter      E             dE          RMSdq      gap      omega  full diag
   1    -57.2379853 -0.572380E+02  0.300E-02    3.62       0.0  T
   2    -57.2379857 -0.417434E-06  0.176E-02    3.62       1.0  T
   3    -57.2379853  0.394857E-06  0.407E-03    3.62       4.2  T
   4    -57.2379858 -0.487205E-06  0.114E-03    3.62      15.0  T
   5    -57.2379858 -0.288930E-07  0.478E-04    3.62      35.9  T
   6    -57.2379858 -0.904606E-09  0.175E-04    3.62      97.7  T
     SCC iter.                  ...        0 min,  0.007 sec
     gradient                   ...        0 min,  0.001 sec
 * total energy  :   -56.4806787 Eh     change       -0.4863011E-04 Eh
   gradient norm :     0.0038670 Eh/α   predicted    -0.4545536E-04 (  -6.53%)
   displ. norm   :     0.0393843 α      lambda       -0.3468569E-04
   maximum displ.:     0.0200380 α      in ANC's #2, #7, #3, ...

........................................................................
.............................. CYCLE   13 ..............................
........................................................................

 iter      E             dE          RMSdq      gap      omega  full diag
   1    -57.2377855 -0.572378E+02  0.184E-02    3.62       0.0  T
   2    -57.2377861 -0.541904E-06  0.107E-02    3.62       1.6  T
   3    -57.2377860  0.521660E-07  0.313E-03    3.62       5.5  T
   4    -57.2377861 -0.110257E-06  0.587E-04    3.62      29.2  T
   5    -57.2377861 -0.848058E-08  0.252E-04    3.62      68.0  T
     SCC iter.                  ...        0 min,  0.009 sec
     gradient                   ...        0 min,  0.002 sec
 * total energy  :   -56.4806987 Eh     change       -0.1999490E-04 Eh
   gradient norm :     0.0024925 Eh/α   predicted    -0.1737269E-04 ( -13.11%)
   displ. norm   :     0.0422731 α      lambda       -0.2040940E-04
   maximum displ.:     0.0245617 α      in ANC's #2, #6, #3, ...

........................................................................
.............................. CYCLE   14 ..............................
........................................................................

 iter      E             dE          RMSdq      gap      omega  full diag
   1    -57.2373491 -0.572373E+02  0.168E-02    3.62       0.0  T
   2    -57.2373495 -0.420967E-06  0.998E-03    3.62       1.7  T
   3    -57.2373495  0.676693E-07  0.289E-03    3.62       5.9  T
   4    -57.2373496 -0.130950E-06  0.423E-04    3.62      40.5  T
   5    -57.2373496 -0.220334E-08  0.232E-04    3.62      74.1  T
     SCC iter.                  ...        0 min,  0.012 sec
     gradient                   ...        0 min,  0.002 sec
 * total energy  :   -56.4807111 Eh     change       -0.1243824E-04 Eh
   gradient norm :     0.0020936 Eh/α   predicted    -0.1022492E-04 ( -17.79%)
   displ. norm   :     0.0370024 α      lambda       -0.1314931E-04
   maximum displ.:     0.0199393 α      in ANC's #2, #6, #3, ...

........................................................................
.............................. CYCLE   15 ..............................
........................................................................

 iter      E             dE          RMSdq      gap      omega  full diag
   1    -57.2377075 -0.572377E+02  0.148E-02    3.62       0.0  T
   2    -57.2377078 -0.333262E-06  0.854E-03    3.62       2.0  T
   3    -57.2377078  0.150121E-07  0.231E-03    3.62       7.4  T
   4    -57.2377079 -0.414220E-07  0.462E-04    3.62      37.1  T
   5    -57.2377079 -0.464022E-08  0.210E-04    3.62      81.8  T
     SCC iter.                  ...        0 min,  0.006 sec
     gradient                   ...        0 min,  0.004 sec
 * total energy  :   -56.4807177 Eh     change       -0.6600035E-05 Eh
   gradient norm :     0.0015969 Eh/α   predicted    -0.6585847E-05 (  -0.21%)
   displ. norm   :     0.0310141 α      lambda       -0.5545461E-05
   maximum displ.:     0.0202313 α      in ANC's #2, #14, #6, ...

........................................................................
.............................. CYCLE   16 ..............................
........................................................................

 iter      E             dE          RMSdq      gap      omega  full diag
   1    -57.2374933 -0.572375E+02  0.127E-02    3.62       0.0  T
   2    -57.2374933 -0.586400E-07  0.744E-03    3.62       2.3  T
   3    -57.2374933  0.319787E-07  0.124E-03    3.62      13.8  T
   4    -57.2374933 -0.443939E-07  0.279E-04    3.62      61.4  T
   5    -57.2374933 -0.144128E-08  0.144E-04    3.62     119.0  T
     SCC iter.                  ...        0 min,  0.006 sec
     gradient                   ...        0 min,  0.002 sec
 * total energy  :   -56.4807213 Eh     change       -0.3599608E-05 Eh
   gradient norm :     0.0012990 Eh/α   predicted    -0.2778003E-05 ( -22.82%)
   displ. norm   :     0.0193688 α      lambda       -0.3605114E-05
   maximum displ.:     0.0085479 α      in ANC's #4, #1, #2, ...

........................................................................
.............................. CYCLE   17 ..............................
........................................................................

 iter      E             dE          RMSdq      gap      omega  full diag
   1    -57.2375600 -0.572376E+02  0.795E-03    3.62       0.0  T
   2    -57.2375601 -0.504823E-07  0.469E-03    3.62       3.7  T
   3    -57.2375601  0.261016E-07  0.122E-03    3.62      14.1  T
   4    -57.2375601 -0.374571E-07  0.213E-04    3.62      80.5  T
   5    -57.2375601 -0.903874E-09  0.111E-04    3.62     154.2  T
     SCC iter.                  ...        0 min,  0.009 sec
     gradient                   ...        0 min,  0.002 sec
 * total energy  :   -56.4807227 Eh     change       -0.1389815E-05 Eh
   gradient norm :     0.0013149 Eh/α   predicted    -0.1807613E-05 (  30.06%)
   displ. norm   :     0.0138105 α      lambda       -0.3086531E-05
   maximum displ.:     0.0080690 α      in ANC's #2, #1, #3, ...

........................................................................
.............................. CYCLE   18 ..............................
........................................................................

 iter      E             dE          RMSdq      gap      omega  full diag
   1    -57.2378350 -0.572378E+02  0.660E-03    3.62       0.0  T
   2    -57.2378352 -0.200372E-06  0.392E-03    3.62       4.4  T
   3    -57.2378352 -0.678764E-08  0.179E-03    3.62       9.6  T
   4    -57.2378352 -0.139149E-07  0.324E-04    3.62      52.9  T
   5    -57.2378352 -0.250544E-08  0.154E-04    3.62     111.2  T
     SCC iter.                  ...        0 min,  0.006 sec
     gradient                   ...        0 min,  0.003 sec
 * total energy  :   -56.4807246 Eh     change       -0.1912553E-05 Eh
   gradient norm :     0.0009433 Eh/α   predicted    -0.1548319E-05 ( -19.04%)
   displ. norm   :     0.0116586 α      lambda       -0.1336091E-05
   maximum displ.:     0.0071084 α      in ANC's #2, #4, #3, ...

   *** GEOMETRY OPTIMIZATION CONVERGED AFTER 18 ITERATIONS ***

------------------------------------------------------------------------
 total energy gain   :        -0.5529259 Eh     -346.9662 kcal/mol
 total RMSD          :         0.3042420 a0        0.1610 Å
 total power (kW/mol):       -80.6503700 (step)-5633.5441 (real)
------------------------------------------------------------------------

 ANCopt (total)                0 d,  0 h,  0 min,  0.258 sec
 optimizer setup                ...        0 min,  0.000 sec (  0.104%)
 model hessian                  ...        0 min,  0.009 sec (  3.447%)
 ANC generation                 ...        0 min,  0.001 sec (  0.406%)
 coordinate transformation      ...        0 min,  0.000 sec (  0.045%)
 single point calculation       ...        0 min,  0.237 sec ( 92.155%)
 optimization log               ...        0 min,  0.001 sec (  0.553%)
 hessian update                 ...        0 min,  0.005 sec (  1.778%)
 rational function              ...        0 min,  0.002 sec (  0.929%)

================
 final structure:
================
34
 xtb: 6.7.1-6.fc44.fc44
O           -2.67852178041905        2.82231795135977       -0.43103496756942
C           -2.02371138746607        2.61144650240267       -1.55382403831469
O           -2.26422600391980        3.18927004020621       -2.57656159223279
H           -2.36774697484198        2.22258422430089        0.30670070581158
C           -0.87652048536348        1.58075758016885       -1.45672928877718
H           -0.14156028130845        1.97288288859555       -0.74123301084339
H           -0.40843516328868        1.48960499716784       -2.43611761215536
N           -1.29940801099030        0.26781332859613       -1.01285970994484
H           -1.31430600100694       -0.50173897231256       -1.66700298458370
C           -1.67265262189476       -0.01045364052015        0.23847715872732
O           -1.84859500078167        0.85021527978156        1.09604049547778
C           -1.85155529440972       -1.49093175286917        0.54862908553948
H           -2.85305471927194       -1.60207875946521        0.97653599716166
N           -1.76012011496753       -2.28700993229655       -0.66472502842635
H           -2.26274859982641       -3.15972136449409       -0.55620988439243
H           -0.78416474107302       -2.51916787593210       -0.83993301880926
C           -0.80617247296144       -1.87790318383966        1.63267053088529
H           -1.02997251245539       -2.88555155063120        1.99057160117081
H           -0.90326831976960       -1.17878429556741        2.46334488927688
C            0.57379469043047       -1.83276875824266        1.06894969975071
C            1.24442541301757       -2.86793020382593        0.47930435437777
H            0.95923855424019       -3.90041588638521        0.39074080068551
N            2.44988638003057       -2.43695521726319       -0.00570715659580
H            3.13962897267974       -3.01501582357330       -0.45386165371927
C            2.58231737428897       -1.10430724488891        0.26076471490553
C            3.61736011552693       -0.22656730929408       -0.03649801012961
H            4.50213754824399       -0.56479891436925       -0.55618924037105
C            3.47421144464805        1.08445458334017        0.36119238836730
H            4.25785116513147        1.79522111216258        0.14590793391098
C            2.33499392232275        1.51338644231332        1.04876080207376
H            2.26808838435961        2.54726253147349        1.35362240777717
C            1.30744149757677        0.64801169029869        1.34980591471477
H            0.43794563995021        0.98948171569597        1.88952495224506
C            1.41505672848029       -0.68197748173861        0.94075228909475

 Bond Distances (Angstroems)
 ---------------------------
O1-C2=1.3168         O1-H4=1.0003         C2-O1=1.3168         C2-O3=1.1990         C2-C5=1.5452         O3-C2=1.1990         
H4-O1=1.0003         C5-C2=1.5452         C5-H6=1.0981         C5-H7=1.0893         C5-N8=1.4490         H6-C5=1.0981         
H7-C5=1.0893         N8-C5=1.4490         N8-H9=1.0101         N8-C10=1.3351        H9-N8=1.0101         C10-N8=1.3351        
C10-O11=1.2276       C10-C12=1.5232       O11-C10=1.2276       C12-C10=1.5232       C12-H13=1.0947       C12-N14=1.4541       
C12-C17=1.5549       H13-C12=1.0947       N14-C12=1.4541       N14-H15=1.0129       N14-H16=1.0184       H15-N14=1.0129       
H16-N14=1.0184       C17-C12=1.5549       C17-H18=1.0925       C17-H19=1.0901       C17-C20=1.4914       H18-C17=1.0925       
H19-C17=1.0901       C20-C17=1.4914       C20-C21=1.3671       C20-C34=1.4313       C21-C20=1.3671       C21-H22=1.0748       
C21-N23=1.3690       H22-C21=1.0748       N23-C21=1.3690       N23-H24=1.0054       N23-C25=1.3655       H24-N23=1.0054       
C25-N23=1.3655       C25-C26=1.3893       C25-C34=1.4154       C26-C25=1.3893       C26-H27=1.0804       C26-C28=1.3775       
H27-C26=1.0804       C28-C26=1.3775       C28-H29=1.0796       C28-C30=1.3981       H29-C28=1.0796       C30-C28=1.3981       
C30-H31=1.0800       C30-C32=1.3767       H31-C30=1.0800       C32-C30=1.3767       C32-H33=1.0789       C32-C34=1.3956       
H33-C32=1.0789       C34-C20=1.4313       C34-C25=1.4154       C34-C32=1.3956       
 C  H  Rav=1.0858 sigma=0.0076  Rmin=1.0748  Rmax=1.0981    10
 C  C  Rav=1.4388 sigma=0.0671  Rmin=1.3671  Rmax=1.5549    12
 N  H  Rav=1.0117 sigma=0.0047  Rmin=1.0054  Rmax=1.0184     4
 N  C  Rav=1.3945 sigma=0.0480  Rmin=1.3351  Rmax=1.4541     5
 O  H  Rav=1.0003 sigma=0.0000  Rmin=1.0003  Rmax=1.0003     1
 O  C  Rav=1.2478 sigma=0.0501  Rmin=1.1990  Rmax=1.3168     3

 selected bond angles (degree)
 --------------------
H4-O1-C2=112.23                O3-C2-O1=123.39                C5-C2-O1=114.99                C5-C2-O3=121.60                
H6-C5-C2=107.44                H7-C5-C2=108.56                H7-C5-H6=109.15                N8-C5-C2=114.01                
N8-C5-H6=108.62                N8-C5-H7=108.97                H9-N8-C5=119.75                C10-N8-C5=123.89               
C10-N8-H9=116.36               O11-C10-N8=123.27              C12-C10-N8=115.23              C12-C10-O11=121.49             

 selected dihedral angles (degree)
 ---------------------------------
O3-C2-O1-H4=177.50            C5-C2-O1-H4=355.80            H6-C5-C2-O1=298.04            H6-C5-C2-O3=116.37            
H7-C5-C2-O1=180.12            H7-C5-C2-O3=358.45            N8-C5-C2-O1= 58.46            N8-C5-C2-O3=236.79            
H9-N8-C5-C2=108.72            H9-N8-C5-H6=228.48            H9-N8-C5-H7=347.28            C10-N8-C5-C2=288.17           
C10-N8-C5-H6= 47.93           C10-N8-C5-H7=166.73           O11-C10-N8-C5=  9.10          O11-C10-N8-H9=188.57          
C12-C10-N8-C5=189.94          C12-C10-N8-H9=  9.40          

 CMA Distance (Angstroems)
 ---------------------------
R(CMA):  4.6024
           -------------------------------------------------
          |                Final Singlepoint                |
           -------------------------------------------------

          ...................................................
          :                      SETUP                      :
          :.................................................:
          :  # basis functions                  91          :
          :  # atomic orbitals                  91          :
          :  # shells                           53          :
          :  # electrons                       100          :
          :  max. iterations                   250          :
          :  Hamiltonian                  GFN2-xTB          :
          :  restarted?                      false          :
          :  GBSA solvation                  false          :
          :  PC potential                    false          :
          :  electronic temp.          300.0000000     K    :
          :  accuracy                    1.0000000          :
          :  -> integral cutoff          0.2500000E+02      :
          :  -> integral neglect         0.1000000E-07      :
          :  -> SCF convergence          0.1000000E-05 Eh   :
          :  -> wf. convergence          0.1000000E-03 e    :
          :  Broyden damping             0.4000000          :
          :  net charge                          0          :
          :  unpaired electrons                  0          :
          ...................................................

 iter      E             dE          RMSdq      gap      omega  full diag
   1    -57.2378352 -0.572378E+02  0.625E-05    3.62       0.0  T
   2    -57.2378352 -0.197247E-10  0.394E-05    3.62     435.6  T
   3    -57.2378352 -0.173372E-10  0.247E-05    3.62     693.3  T

   *** convergence criteria satisfied after 3 iterations ***

         #    Occupation            Energy/Eh            Energy/eV
      -------------------------------------------------------------
         1        2.0000           -0.7307935             -19.8859
       ...           ...                  ...                  ...
        44        2.0000           -0.4280998             -11.6492
        45        2.0000           -0.4241033             -11.5404
        46        2.0000           -0.4222095             -11.4889
        47        2.0000           -0.3985397             -10.8448
        48        2.0000           -0.3959356             -10.7740
        49        2.0000           -0.3925061             -10.6806
        50        2.0000           -0.3753385             -10.2135 (HOMO)
        51                         -0.2424083              -6.5963 (LUMO)
        52                         -0.2312313              -6.2921
        53                         -0.2263461              -6.1592
        54                         -0.2072491              -5.6395
        55                         -0.1723581              -4.6901
       ...                                ...                  ...
        91                          0.7065526              19.2263
      -------------------------------------------------------------
                  HL-Gap            0.1329302 Eh            3.6172 eV
             Fermi-level           -0.3088734 Eh           -8.4049 eV

 SCC (total)                   0 d,  0 h,  0 min,  0.007 sec
 SCC setup                      ...        0 min,  0.000 sec (  2.364%)
 Dispersion                     ...        0 min,  0.000 sec (  1.384%)
 classical contributions        ...        0 min,  0.000 sec (  0.171%)
 integral evaluation            ...        0 min,  0.001 sec (  8.730%)
 iterations                     ...        0 min,  0.004 sec ( 55.888%)
 molecular gradient             ...        0 min,  0.002 sec ( 27.673%)
 printout                       ...        0 min,  0.000 sec (  3.712%)

         :::::::::::::::::::::::::::::::::::::::::::::::::::::
         ::                     SUMMARY                     ::
         :::::::::::::::::::::::::::::::::::::::::::::::::::::
         :: total energy             -56.480724630088 Eh    ::
         :: gradient norm              0.000941898229 Eh/a0 ::
         :: HOMO-LUMO gap              3.617215461704 eV    ::
         ::.................................................::
         :: SCC energy               -57.237009421758 Eh    ::
         :: -> isotropic ES            0.098730218524 Eh    ::
         :: -> anisotropic ES          0.003881679941 Eh    ::
         :: -> anisotropic XC          0.019094004275 Eh    ::
         :: -> dispersion             -0.037374807643 Eh    ::
         :: repulsion energy           0.756284791670 Eh    ::
         :: add. restraining           0.000000000000 Eh    ::
         :: total charge               0.000000000000 e     ::
         :::::::::::::::::::::::::::::::::::::::::::::::::::::

           -------------------------------------------------
          |                Property Printout                |
           -------------------------------------------------

    * Orbital Energies and Occupations

         #    Occupation            Energy/Eh            Energy/eV
      -------------------------------------------------------------
         1        2.0000           -0.7307935             -19.8859
       ...           ...                  ...                  ...
        38        2.0000           -0.4645599             -12.6413
        39        2.0000           -0.4614470             -12.5566
        40        2.0000           -0.4610083             -12.5447
        41        2.0000           -0.4593438             -12.4994
        42        2.0000           -0.4438149             -12.0768
        43        2.0000           -0.4356168             -11.8537
        44        2.0000           -0.4280998             -11.6492
        45        2.0000           -0.4241033             -11.5404
        46        2.0000           -0.4222095             -11.4889
        47        2.0000           -0.3985397             -10.8448
        48        2.0000           -0.3959356             -10.7740
        49        2.0000           -0.3925061             -10.6806
        50        2.0000           -0.3753385             -10.2135 (HOMO)
        51                         -0.2424083              -6.5963 (LUMO)
        52                         -0.2312313              -6.2921
        53                         -0.2263461              -6.1592
        54                         -0.2072491              -5.6395
        55                         -0.1723581              -4.6901
        56                         -0.0817663              -2.2250
        57                         -0.0185953              -0.5060
        58                          0.0081905               0.2229
        59                          0.0208858               0.5683
        60                          0.0702135               1.9106
        61                          0.0827903               2.2528
       ...                                ...                  ...
        91                          0.7065526              19.2263
      -------------------------------------------------------------
                  HL-Gap            0.1329302 Eh            3.6172 eV
             Fermi-level           -0.3088734 Eh           -8.4049 eV

     #   Z          covCN         q      C6AA      α(0)
     1   8 O        1.654    -0.376    20.391     6.096
     2   6 C        2.684     0.358    20.919     7.485
     3   8 O        0.856    -0.380    21.291     6.186
     4   1 H        0.800     0.366     0.554     1.170
     5   6 C        3.737    -0.040    21.378     6.598
     6   1 H        0.923     0.078     1.996     2.209
     7   1 H        0.925     0.076     2.026     2.226
     8   7 N        2.686    -0.161    24.482     7.349
     9   1 H        0.860     0.202     1.096     1.640
    10   6 C        2.756     0.267    22.487     7.765
    11   8 O        0.859    -0.460    22.912     6.418
    12   6 C        3.787     0.028    20.116     6.388
    13   1 H        0.924     0.056     2.245     2.343
    14   7 N        2.631    -0.358    29.238     8.031
    15   1 H        0.860     0.149     1.405     1.857
    16   1 H        0.860     0.151     1.395     1.850
    17   6 C        3.806    -0.065    21.736     6.637
    18   1 H        0.924     0.037     2.489     2.467
    19   1 H        0.925     0.062     2.176     2.307
    20   6 C        3.054    -0.034    28.783     8.799
    21   6 C        3.032    -0.012    28.277     8.722
    22   1 H        0.926     0.026     2.642     2.542
    23   7 N        2.775    -0.110    23.391     7.183
    24   1 H        0.860     0.158     1.349     1.819
    25   6 C        3.087     0.044    26.920     8.505
    26   6 C        2.908    -0.054    29.335     8.881
    27   1 H        0.926     0.024     2.675     2.557
    28   6 C        2.924    -0.035    28.881     8.813
    29   1 H        0.926     0.031     2.578     2.511
    30   6 C        2.920    -0.042    29.053     8.839
    31   1 H        0.926     0.030     2.589     2.516
    32   6 C        2.911    -0.039    28.981     8.828
    33   1 H        0.926     0.045     2.386     2.415
    34   6 C        3.115    -0.021    28.374     8.726

 Mol. C6AA /au·bohr⁶  :      13321.859985
 Mol. C8AA /au·bohr⁸  :     312321.052021
 Mol. α(0) /au        :        178.677149


Wiberg/Mayer (AO) data.
largest (>0.10) Wiberg bond orders for each atom

 ---------------------------------------------------------------------------
     #   Z sym  total        # sym  WBO       # sym  WBO       # sym  WBO
 ---------------------------------------------------------------------------
     1   8 O    2.233 --     2 C    1.204     4 H    0.764     3 O    0.183
     2   6 C    3.932 --     3 O    1.770     1 O    1.204     5 C    0.925
     3   8 O    2.063 --     2 C    1.770     1 O    0.183
     4   1 H    0.866 --     1 O    0.764
     5   6 C    3.962 --     8 N    0.991     7 H    0.974     6 H    0.949
                             2 C    0.925
     6   1 H    0.994 --     5 C    0.949
     7   1 H    0.994 --     5 C    0.974
     8   7 N    3.480 --    10 C    1.311     5 C    0.991     9 H    0.917
                            11 O    0.190
     9   1 H    0.959 --     8 N    0.917
    10   6 C    3.948 --    11 O    1.598     8 N    1.311    12 C    0.953
    11   8 O    2.009 --    10 C    1.598     8 N    0.190
    12   6 C    3.983 --    14 N    1.024    13 H    0.953    10 C    0.953
                            17 C    0.943
    13   1 H    0.996 --    12 C    0.953
    14   7 N    3.027 --    12 C    1.024    15 H    0.963    16 H    0.948
    15   1 H    0.977 --    14 N    0.963
    16   1 H    0.977 --    14 N    0.948
    17   6 C    3.993 --    20 C    1.023    18 H    0.972    19 H    0.968
                            12 C    0.943
    18   1 H    0.998 --    17 C    0.972
    19   1 H    0.996 --    17 C    0.968
    20   6 C    3.977 --    21 C    1.572    34 C    1.200    17 C    1.023
    21   6 C    3.949 --    20 C    1.572    23 N    1.192    22 H    0.969
    22   1 H    0.999 --    21 C    0.969
    23   7 N    3.538 --    21 C    1.192    25 C    1.173    24 H    0.947
    24   1 H    0.974 --    23 N    0.947
    25   6 C    3.958 --    26 C    1.336    34 C    1.253    23 N    1.173
    26   6 C    3.989 --    28 C    1.495    25 C    1.336    27 H    0.968
                            32 C    0.115
    27   1 H    0.999 --    26 C    0.968
    28   6 C    3.991 --    26 C    1.495    30 C    1.371    29 H    0.972
    29   1 H    0.999 --    28 C    0.972
    30   6 C    3.991 --    32 C    1.505    28 C    1.371    31 H    0.972
    31   1 H    0.999 --    30 C    0.972
    32   6 C    3.992 --    30 C    1.505    34 C    1.329    33 H    0.965
                            26 C    0.115
    33   1 H    0.997 --    32 C    0.965
    34   6 C    3.984 --    32 C    1.329    25 C    1.253    20 C    1.200
 ---------------------------------------------------------------------------

Topologies differ in total number of bonds
Writing topology from bond orders to xtbtopo.mol

molecular dipole:
                 x           y           z       tot (Debye)
 q only:        1.315      -2.432       0.029
   full:        1.812      -3.339       0.180       9.667
molecular quadrupole (traceless):
                xx          xy          yy          xz          yz          zz
 q only:        0.125      11.458       1.435      -8.097      10.396      -1.561
  q+dip:        1.313      14.459       5.980     -13.558      13.934      -7.293
   full:        1.263      14.656       4.618     -11.711      13.228      -5.881

           -------------------------------------------------
          |                Geometry Summary                 |
           -------------------------------------------------

      molecular mass/u    :      261.2770023
   center of mass at/Å    :       -0.0066641       0.0271997       0.0258835
  moments of inertia/u·Å² :        0.9147033E+03   0.1693543E+04   0.2174080E+04
rotational constants/cm⁻¹ :        0.1842962E-01   0.9954060E-02   0.7753914E-02

 * 32 selected distances

     #   Z          #   Z                                           value/Å
     1   8 O        2   6 C                                       1.3167760
     2   6 C        3   8 O                                       1.1990495
     1   8 O        4   1 H                                       1.0002578 (min)
     5   6 C        6   1 H                                       1.0981183
     5   6 C        7   1 H                                       1.0893183
     5   6 C        8   7 N                                       1.4490262
     8   7 N        9   1 H                                       1.0101170
     8   7 N       10   6 C                                       1.3351361
    10   6 C       11   8 O                                       1.2276489
    12   6 C       13   1 H                                       1.0947417
    12   6 C       14   7 N                                       1.4540734
    14   7 N       15   1 H                                       1.0129345
    14   7 N       16   1 H                                       1.0183733
    17   6 C       18   1 H                                       1.0924903
    17   6 C       19   1 H                                       1.0900527
    17   6 C       20   6 C                                       1.4913511 (max)
    20   6 C       21   6 C                                       1.3671089
    21   6 C       22   1 H                                       1.0748032
    21   6 C       23   7 N                                       1.3689821
    23   7 N       24   1 H                                       1.0053564
    23   7 N       25   6 C                                       1.3654656
    25   6 C       26   6 C                                       1.3892827
    26   6 C       27   1 H                                       1.0804216
    26   6 C       28   6 C                                       1.3774716
    28   6 C       29   1 H                                       1.0796425
    28   6 C       30   6 C                                       1.3980521
    30   6 C       31   1 H                                       1.0799615
    30   6 C       32   6 C                                       1.3767229
    32   6 C       33   1 H                                       1.0788520
    20   6 C       34   6 C                                       1.4312503
    25   6 C       34   6 C                                       1.4153598
    32   6 C       34   6 C                                       1.3956280

 * 6 distinct bonds (by element types)

   Z      Z             #   av. dist./Å        max./Å        min./Å
   1 H    6 C          10     1.0858402     1.0981183     1.0748032
   6 C    6 C           9     1.4046919     1.4913511     1.3671089
   1 H    7 N           4     1.0116953     1.0183733     1.0053564
   6 C    7 N           5     1.3945367     1.4540734     1.3351361
   1 H    8 O           1     1.0002578     1.0002578     1.0002578
   6 C    8 O           3     1.2478248     1.3167760     1.1990495


optimized geometry written to: xtbopt.xyz


           -------------------------------------------------
          | TOTAL ENERGY              -56.480724630088 Eh   |
          | GRADIENT NORM               0.000941898229 Eh/α |
          | HOMO-LUMO GAP               3.617215461704 eV   |
           -------------------------------------------------

------------------------------------------------------------------------
 * finished run on 2026/10/01 at 18:05:28.392     
------------------------------------------------------------------------
 total:
 * wall-time:     0 d,  0 h,  0 min,  0.401 sec
 *  cpu-time:     0 d,  0 h,  0 min,  5.851 sec
 * ratio c/w:    14.574 speedup
 SCF:
 * wall-time:     0 d,  0 h,  0 min,  0.094 sec
 *  cpu-time:     0 d,  0 h,  0 min,  1.303 sec
 * ratio c/w:    13.794 speedup
 ANC optimizer:
 * wall-time:     0 d,  0 h,  0 min,  0.266 sec
 *  cpu-time:     0 d,  0 h,  0 min,  4.046 sec
 * ratio c/w:    15.188 speedup


--- STDERR ---
normal termination of xtb
Note: The following floating-point exceptions are signalling: IEEE_UNDERFLOW_FLAG IEEE_DENORMAL
