34
 energy: -56.480724630088 gnorm: 0.000941898229 xtb: 6.7.1-6.fc44.fc44
O           -2.67852178041905        2.82231795135977       -0.43103496756942
C           -2.02371138746607        2.61144650240267       -1.55382403831469
O           -2.26422600391980        3.18927004020621       -2.57656159223279
H           -2.36774697484198        2.22258422430089        0.30670070581158
C           -0.87652048536348        1.58075758016885       -1.45672928877718
H           -0.14156028130845        1.97288288859555       -0.74123301084339
H           -0.40843516328868        1.48960499716784       -2.43611761215536
N           -1.29940801099030        0.26781332859613       -1.01285970994484
H           -1.31430600100694       -0.50173897231256       -1.66700298458370
C           -1.67265262189476       -0.01045364052015        0.23847715872732
O           -1.84859500078167        0.85021527978156        1.09604049547778
C           -1.85155529440972       -1.49093175286917        0.54862908553948
H           -2.85305471927194       -1.60207875946521        0.97653599716166
N           -1.76012011496753       -2.28700993229655       -0.66472502842635
H           -2.26274859982641       -3.15972136449409       -0.55620988439243
H           -0.78416474107302       -2.51916787593210       -0.83993301880926
C           -0.80617247296144       -1.87790318383966        1.63267053088529
H           -1.02997251245539       -2.88555155063120        1.99057160117081
H           -0.90326831976960       -1.17878429556741        2.46334488927688
C            0.57379469043047       -1.83276875824266        1.06894969975071
C            1.24442541301757       -2.86793020382593        0.47930435437777
H            0.95923855424019       -3.90041588638521        0.39074080068551
N            2.44988638003057       -2.43695521726319       -0.00570715659580
H            3.13962897267974       -3.01501582357330       -0.45386165371927
C            2.58231737428897       -1.10430724488891        0.26076471490553
C            3.61736011552693       -0.22656730929408       -0.03649801012961
H            4.50213754824399       -0.56479891436925       -0.55618924037105
C            3.47421144464805        1.08445458334017        0.36119238836730
H            4.25785116513147        1.79522111216258        0.14590793391098
C            2.33499392232275        1.51338644231332        1.04876080207376
H            2.26808838435961        2.54726253147349        1.35362240777717
C            1.30744149757677        0.64801169029869        1.34980591471477
H            0.43794563995021        0.98948171569597        1.88952495224506
C            1.41505672848029       -0.68197748173861        0.94075228909475
