34
frame_0006
O      -2.683438847210760      2.588972698186661     -0.151170255322997
C      -1.775692663375004      2.346963843009136     -1.487506744224953
O      -1.819221183806385      3.147376905880361     -2.341133631626348
H      -2.301366045336060      2.149742252956101      0.346266224895998
C      -0.780784608235323      1.655475563094844     -1.112703781779998
H      -0.076580486416611      1.692024147374864     -0.120782396826711
H      -0.011280923330201      1.322245539169681     -2.122923037200007
N      -1.152335961295776      0.310849439055976     -0.758147829574097
H      -0.777402401384088     -0.603126772884604     -1.483531899077725
C      -1.624813712416440     -0.287208483000126      0.422592008565069
O      -2.073374125978650      0.618026740640211      1.189227385806106
C      -1.866099897109779     -1.762958532990608      0.479182254758010
H      -2.826526609712698     -1.648682451909117      1.152607945893664
N      -1.973995214262224     -2.409527682169690     -0.760562399532588
H      -2.743868878195044     -2.133537091470769     -1.232702742764405
H      -2.008629101958608     -3.411915774457415     -0.539287676615329
C      -0.694871481389020     -2.047571197081487      1.537186449856086
H      -0.925654055954410     -3.300334581255882      1.472279065549167
H      -0.732792833031921     -1.968044802703473      2.208294287075804
C       0.723441087482181     -1.883237390726685      0.593174599012811
C       1.147791723835151     -2.663595716965860     -0.389807279317806
H       0.763455823485884     -3.495256866807080     -0.595138172494545
N       2.368662111095993     -2.106930814847167     -0.646597191484284
H       2.917985975332816     -2.441964538370695     -1.411915568894077
C       2.638832657607800     -0.801125380996670     -0.176346563859726
C       3.574111672887927     -0.174162711723475     -0.114872219069218
H       4.220817961955410      0.209914638674329     -0.959017951420296
C       3.238584437291435      1.197248562973553      0.695882159128511
H       3.971806813726014      2.244137208699126      0.381190194738782
C       2.311144848988308      1.282812521885062      1.530459176297836
H       2.152398730809847      2.262151697566213      2.137838150005351
C       1.081572032281688      0.360150747040900      1.602707592947062
H       0.312369369692844      0.595889198954154      2.259131697500332
C       1.488946934494315     -0.875837597054904      0.826988049357945
