34
 energy: -56.481333461065 gnorm: 0.000327943986 xtb: 6.7.1-6.fc44.fc44
O           -2.58125402053358        2.67690476360704       -0.35483713042422
C           -1.74343807654448        2.49657772889502       -1.35488889021490
O           -1.80491152644252        3.11053831190791       -2.38339840402448
H           -2.41118389873666        2.04378383583955        0.40138182712259
C           -0.63378746093398        1.45359207567488       -1.10005515066033
H           -0.02720324330488        1.81570783096102       -0.25854053873452
H           -0.00718611328914        1.39117663404501       -1.98856865593222
N           -1.13972440676863        0.13154763692347       -0.78917851308354
H           -0.91016694105914       -0.64491372701228       -1.39512168626893
C           -1.72901806522109       -0.19460115081193        0.36472723472142
O           -2.08084029807567        0.62539822666844        1.20667262695116
C           -1.91708335212994       -1.69206046339577        0.55871184712071
H           -2.81648616567596       -1.83738740259505        1.18012617787620
N           -1.99160960122128       -2.34639915143100       -0.74040037380819
H           -2.86707667561591       -2.11969042487401       -1.20086244202979
H           -1.95376751296976       -3.35321651549464       -0.62641184696357
C           -0.69893383557012       -2.22628101804494        1.34764994548920
H           -0.81786122022939       -3.30505464927184        1.47284551124076
H           -0.70169753102771       -1.76038046716069        2.33365731274687
C            0.58490457211800       -1.92831871960126        0.64933669065234
C            1.20844400285790       -2.68334926003729       -0.30090161661672
H            0.93192010482694       -3.64272882638464       -0.69397377213068
N            2.33188867558440       -2.04388837437351       -0.74986384164006
H            2.97442465478823       -2.40501285663605       -1.43374100600180
C            2.45917859258538       -0.85435718605949       -0.09208496902992
C            3.42207484651265        0.14098596718606       -0.20198753995539
H            4.24852760982049        0.04398680105614       -0.89060225494411
C            3.28399176330054        1.25247999757882        0.60056926945047
H            4.01322650910034        2.04635424986014        0.54124596686119
C            2.21775454247768        1.37378494561691        1.49686459960149
H            2.14956459547121        2.26023307502009        2.11011657001515
C            1.26068652873950        0.39037274033423        1.61207095362550
H            0.43973838543348        0.49626792059536        2.30512034993128
C            1.37009771230223       -0.74308923084052        0.80518164936095
