68
frame_0002
O       1.030433981423790     -0.356254794132343      1.248685105762622
O       0.857773855454579     -0.701629811474061     -1.609025040568779
O      -3.033907909691123     -2.543301419748645      0.016855686068571
O      -3.446039037744238      3.258410947011753      0.340351484292982
O      -1.280076543095964      1.455079998550480     -1.510468469581240
O       2.318566810228570      2.766781447824199      1.218569783245454
N       0.514946324427668     -2.570899740255229     -0.471165670636523
N      -2.247428446412156     -0.964251908967169     -1.086823384996465
N      -3.719857575122754      1.134351566949153      0.256250786351052
N      -0.387176817216382      2.276726632553512      0.566220276705249
N       1.971413490579342      1.736163443275519     -0.694248977743858
N       3.304595709501884     -0.577592129053722      0.398733226467179
C       2.135376872168129     -0.976679464353161      0.699680120224591
C       1.658524470754154     -2.540094415493205      0.236419250533508
C       1.795697933479283     -3.489141657820302      1.331034936126389
C       0.314555548323194     -3.615328574691953      1.683574387387313
C      -0.466538389073398     -3.747791581461658      0.466725584070064
C       0.001446168534230     -1.775298712110646     -1.375909366608680
C      -1.371128807347875     -1.768006985354201     -1.933321182516761
C      -1.453956767905944     -1.223870925020708     -3.281414201255261
C      -3.133908349339342     -1.320357715594255     -0.091721581778378
C      -3.964305799784007     -0.426636619959072      0.784257134782815
C      -5.260769130175934     -0.794068848638596      0.915209237909984
C      -3.005615545867506      1.907974687127804      0.554661331298295
C      -1.768716617062021      1.838095835731685      1.171645198028565
C      -1.855695055058173      2.182796137423541      2.630190396044630
C      -0.447039279737792      2.116745079118391     -0.623737078654306
C       1.016005410551205      2.745515885869527     -1.227636744175908
C       0.993606797522166      2.658008279543299     -2.689085924156767
C       2.423842336000896      2.004224564210044      0.630363068365625
C       3.407689532081189      0.851553636135742      0.900093972441718
C       5.219102792055383      1.101333000391071      0.120157452785710
C       5.452627658855859     -0.231648757531721      0.298133898074687
C       4.316351847626056     -1.071161139857913     -0.218885236461237
H       2.482445022985526     -2.683191587651168     -0.690866366282994
H       2.291638770088755     -4.319501084859396      1.004547382870733
H       2.564751175955621     -3.204999291188145      2.107511199539230
H       0.147803380444698     -4.526891297538477      2.105319856129892
H       0.062547477451862     -2.843048648381757      2.203211787347472
H      -0.142249345944188     -4.411711789226676     -0.279456752490010
H      -1.350583509757211     -3.424165141394971      0.364634146129118
H      -2.127430656590989      0.051380721975038     -1.021422458990857
H      -1.806951321664477     -2.612502716026122     -1.730275057385346
H      -2.480912799208076     -1.278662582612227     -3.665897821927452
H      -0.467749082972712     -1.850269039076473     -3.924095000594842
H      -1.263927000568184     -0.080835312570597     -3.170636987916077
H      -4.514753669997431      1.209265258923616     -0.300150831482648
H      -3.735715955315099     -0.441677436310579      1.812963775040231
H      -6.018746936801329     -0.070724068654164      1.515261906037721
H      -5.405703111711029     -1.847508165058295      1.059240460347160
H      -5.904613144432750     -0.647949673872683     -0.164281067682962
H       0.148594447507167      2.841152458629831      1.257946939923654
H      -1.767151499056928      0.693441415080757      1.474775777444922
H      -2.766968880535376      1.848332351901813      3.324386046058120
H      -2.053707188806497      3.483110203142670      2.621057705006932
H      -1.025955762315784      2.298394391849881      3.071195459438328
H       1.891569853801146      0.869182589770412     -1.179797550541439
H       1.239010031983885      3.598175698448682     -0.910986511991541
H       0.053583203633654      3.112205786532676     -3.305157168248777
H       0.743689858527348      1.485903319524676     -2.947483223698724
H       2.018069354743735      3.021570950837166     -3.223812302813185
H       3.393815716510800      0.760650230350975      2.243800589022845
H       5.302392570737582      1.864488071230616      0.836441528514882
H       4.599367679125357      1.563196081393886     -0.846728382538021
H       5.893251327256012     -0.421594663320511      1.274153625891583
H       6.248577759159930     -0.275259624515942     -0.521373599901427
H       4.094061832593383     -1.167212051524875     -1.139899488247646
H       4.539360609537555     -2.038863732635197      0.085090605942329
