68
 energy: -106.565287536256 gnorm: 0.000549217895 xtb: 6.7.1-6.fc44.fc44
O            2.12242492537426       -1.51295460995421        1.32370283232762
O           -1.20564499331136       -4.15574964956503        1.53933387786215
O           -0.62146334179663        0.04924130870907       -0.71188502165101
O           -1.05508210622211        2.95508341982793       -2.63611352460921
O           -2.13895626410374        1.38777504290553        1.77379781620594
O            1.82290489924186        2.85644292788332        0.29231732667219
N            0.44538459782060       -3.42828155141914        0.21680209810342
N           -2.02379368584065       -1.28837622843502        0.43226862070451
N           -2.48677661723040        1.34043487441924       -2.05500774180165
N           -0.92162186004430        2.78457495087058        0.48522472616547
N            1.28104345424286        1.15125879166620        1.68807916794999
N            2.32076399455169       -0.35261716624278       -0.58319406178938
C            1.90399911248395       -1.41032594871090        0.11891823045989
C            1.13809481365969       -2.48800123395194       -0.65209660173045
C            2.09454612125819       -3.37116336081835       -1.47589879952001
C            1.44710958150639       -4.75199899969790       -1.43558985312315
C            0.88776807902233       -4.79496423117395       -0.02314534232530
C           -0.60412178675495       -3.22318060629338        1.03680203829252
C           -1.00350550903462       -1.77188434987818        1.34875261440775
C           -1.52186713526313       -1.69069026410991        2.77973314105508
C           -1.75533127052276       -0.30215111546172       -0.43201634216981
C           -2.96980905396822        0.36286157115603       -1.10533583712232
C           -3.85756338109121       -0.64465781563597       -1.83049454801445
C           -1.76923992592230        2.46405105660457       -1.78812035035525
C           -1.98865534825774        3.14172846997233       -0.42614717166009
C           -2.00078518393374        4.65595984560046       -0.61897519190360
C           -1.08225321125560        1.94071098878339        1.50503126201498
C            0.16001284245210        1.75197618001044        2.39852625597040
C            0.54658565643276        3.07822249301513        3.05684344803441
C            1.97399073157230        1.71350425437814        0.69182189848868
C            3.01191308034115        0.75972141148361        0.06507203250011
C            3.74284237571041        1.44024132584208       -1.08467562049024
C            2.74143768327451        1.28984320548999       -2.22752316854768
C            2.14945945682630       -0.10232856068472       -2.00398455804055
H            0.41075085688578       -1.98540554619281       -1.29914526429021
H            2.22199104658563       -3.00472740253602       -2.49182108152556
H            3.06957105490260       -3.40479994042126       -0.98648982737590
H            0.63785376640092       -4.81136038383270       -2.16484247692705
H            2.15609458799958       -5.55308659426444       -1.63076597594737
H            0.04408213244563       -5.47375943314250        0.10519426232985
H            1.66450755308975       -5.05747085310982        0.70293637501720
H           -2.97687565662033       -1.46337507361344        0.71010075373992
H           -0.14602311575833       -1.11465068214772        1.21645183553584
H           -2.28209107314160       -2.45256654882910        2.93724876150869
H           -1.94362448120531       -0.70420261384256        2.95805306793404
H           -0.70657152424605       -1.87272211558962        3.47473553444276
H           -2.23469681620441        0.94161987444419       -2.95315627958515
H           -3.53885555478537        0.86302307581424       -0.31484130549746
H           -4.30036777303112       -1.34995778000079       -1.13311159854637
H           -3.27859480882716       -1.20199861657393       -2.56503363893428
H           -4.65902762013095       -0.11994235001081       -2.34551101791243
H            0.01377314295959        3.12025862214291        0.26046194409747
H           -2.92582745993473        2.80633318165956        0.02683384763528
H           -2.07151459739687        5.15412576966323        0.34450733571488
H           -2.84772472333229        4.94639119650297       -1.23480340687760
H           -1.08686923590259        4.96341054545470       -1.12060316557855
H            1.52230153412406        0.19391268260953        1.92592865114521
H           -0.13016181246734        1.03843525474193        3.17547042118242
H            1.34207761699749        2.91041287625697        3.77953909339963
H           -0.31524842336638        3.49456277150852        3.57210658009349
H            0.89567872466848        3.78905425245985        2.31406540200715
H            3.66962282494271        0.37318423444625        0.85016395574065
H            4.67488754837753        0.91845679913908       -1.30463137824876
H            3.95209748001768        2.48252263411689       -0.85708428180200
H            3.20310296257130        1.38380110804781       -3.20800849546671
H            1.96314603197191        2.04548154044573       -2.13221115588778
H            1.09261941647943       -0.13347903579178       -2.27117204880840
H            2.69778027016360       -0.85454821934947       -2.57930302706843
