34
frame_0032
O      -3.650287640600000      1.785770505300000     -2.718717683300000
C      -4.359625657100000      2.003732049800000     -1.629664613800000
O      -5.177291750800000      2.875675705300000     -1.539447434400000
H      -2.985612297500000      1.049854817100000     -2.599406116900000
C      -4.086791452100000      1.022114313400000     -0.467775725900000
H      -4.337193303700000      0.015712732000000     -0.828132234600000
H      -4.738023977900000      1.281062138200000      0.365963977500000
N      -2.710330039300000      1.034489536700000     -0.015689915400000
H      -2.475384813300000      1.402225847900000      0.897639663800000
C      -1.689378879800000      0.534062663900000     -0.718677664700000
O      -1.800354682000000      0.111607124100000     -1.865424122900000
C      -0.375477177300000      0.492893235700000      0.044803757500000
H       0.439418157400000      0.653249023600000     -0.678095565400000
N      -0.400651573300000      1.471018584000000      1.125117683400000
H      -0.227110116500000      2.403532585000000      0.764457378900000
H       0.336523200400000      1.255646482800000      1.789474008200000
C      -0.221310720400000     -0.925632073800000      0.635550171900000
H      -0.348293397000000     -1.648698784500000     -0.171936173600000
H      -1.005686351800000     -1.079873951600000      1.378945024500000
C       1.119717923300000     -1.091873161900000      1.265889739100000
C       1.418845137700000     -1.060609777100000      2.597535745500000
H       0.758577478600000     -0.956483465700000      3.438053857100000
N       2.767632471700000     -1.206410691300000      2.781900949400000
H       3.234170519900000     -1.243343143600000      3.671737065900000
C       3.370768071600000     -1.333609351600000      1.563182932100000
C       4.708914412300000     -1.501300126700000      1.229878951200000
H       5.471087248600000     -1.555988597400000      1.993332879900000
C       5.024297349200000     -1.596967856800000     -0.108041938900000
H       6.054554107500000     -1.728134929000000     -0.403671878300000
C       4.036489811000000     -1.530713339400000     -1.095176468100000
H       4.328415565500000     -1.613000061300000     -2.131610889200000
C       2.708990279100000     -1.365100400000000     -0.772088210500000
H       1.952089477300000     -1.319656961900000     -1.540851351800000
C       2.360438237600000     -1.261325654200000      0.574790375100000
