      -----------------------------------------------------------      
     |                   =====================                   |     
     |                           x T B                           |     
     |                   =====================                   |     
     |                         S. Grimme                         |     
     |          Mulliken Center for Theoretical Chemistry        |     
     |                    University of Bonn                     |     
      -----------------------------------------------------------      

   * xtb version 6.7.1-6.fc44.fc44 compiled by Fedora project on Sun Jan 18 23:32:34 UTC 2026

   xtb is free software: you can redistribute it and/or modify it under
   the terms of the GNU Lesser General Public License as published by
   the Free Software Foundation, either version 3 of the License, or
   (at your option) any later version.
   
   xtb is distributed in the hope that it will be useful,
   but WITHOUT ANY WARRANTY; without even the implied warranty of
   MERCHANTABILITY or FITNESS FOR A PARTICULAR PURPOSE.  See the
   GNU Lesser General Public License for more details.
   
   Cite this work as:
   * C. Bannwarth, E. Caldeweyher, S. Ehlert, A. Hansen, P. Pracht,
     J. Seibert, S. Spicher, S. Grimme, WIREs Comput. Mol. Sci., 2020, 11,
     e01493. DOI: 10.1002/wcms.1493
   
   for GFN2-xTB:
   * C. Bannwarth, S. Ehlert and S. Grimme., J. Chem. Theory Comput., 2019,
     15, 1652-1671. DOI: 10.1021/acs.jctc.8b01176
   for GFN1-xTB:
   * S. Grimme, C. Bannwarth, P. Shushkov, J. Chem. Theory Comput., 2017,
     13, 1989-2009. DOI: 10.1021/acs.jctc.7b00118
   for GFN0-xTB:
   * P. Pracht, E. Caldeweyher, S. Ehlert, S. Grimme, ChemRxiv, 2019, preprint.
     DOI: 10.26434/chemrxiv.8326202.v1
   for GFN-FF:
   * S. Spicher and S. Grimme, Angew. Chem. Int. Ed., 2020, 59, 15665-15673.
     DOI: 10.1002/anie.202004239
   
   for ALPB and GBSA implicit solvation:
   * S. Ehlert, M. Stahn, S. Spicher, S. Grimme, J. Chem. Theory Comput.,
     2021, 17, 4250-4261. DOI: 10.1021/acs.jctc.1c00471
   
   for ddCOSMO and CPCM-X implicit solvation:
   * M. Stahn, S. Ehlert, S. Grimme, J. Phys. Chem. A,
     2023, XX, XXXX-XXXX. DOI: 10.1021/acs.jpca.3c04382
   
   for DFT-D4:
   * E. Caldeweyher, C. Bannwarth and S. Grimme, J. Chem. Phys., 2017,
     147, 034112. DOI: 10.1063/1.4993215
   * E. Caldeweyher, S. Ehlert, A. Hansen, H. Neugebauer, S. Spicher,
     C. Bannwarth and S. Grimme, J. Chem. Phys., 2019, 150, 154122.
     DOI: 10.1063/1.5090222
   * E. Caldeweyher, J.-M. Mewes, S. Ehlert and S. Grimme, Phys. Chem. Chem. Phys.
     2020, 22, 8499-8512. DOI: 10.1039/D0CP00502A
   
   for sTDA-xTB:
   * S. Grimme and C. Bannwarth, J. Chem. Phys., 2016, 145, 054103.
     DOI: 10.1063/1.4959605
   
   in the mass-spec context:
   * V. Asgeirsson, C. Bauer and S. Grimme, Chem. Sci., 2017, 8, 4879.
     DOI: 10.1039/c7sc00601b
   * J. Koopman and S. Grimme, ACS Omega 2019, 4, 12, 15120-15133.
     DOI: 10.1021/acsomega.9b02011
   
   for metadynamics refer to:
   * S. Grimme, J. Chem. Theory Comput., 2019, 155, 2847-2862
     DOI: 10.1021/acs.jctc.9b00143
   
   for SPH calculations refer to:
   * S. Spicher and S. Grimme, J. Chem. Theory Comput., 2021, 17, 1701-1714
     DOI: 10.1021/acs.jctc.0c01306
   
   for ONIOM refer to:
   * C. Plett, A. Katbashev, S. Ehlert, S. Grimme, M. Bursch,
     Phys. Chem. Chem. Phys., 2023, 25, 17860-17868. DOI: 10.1039/D3CP02178E
   
   for DIPRO refer to:
   * J. Kohn, N. Gildemeister, S. Grimme, D. Fazzi, A. Hansen,
     J. Chem. Phys., 2023, just accepted.
   
   for PTB refer to:
   * S. Grimme, M. Mueller, A. Hansen, J. Chem. Phys., 2023, 158, 124111.
     DOI: 10.1063/5.0137838
   
   with help from (in alphabetical order)
   P. Atkinson, C. Bannwarth, F. Bohle, G. Brandenburg, E. Caldeweyher
   M. Checinski, S. Dohm, S. Ehlert, S. Ehrlich, I. Gerasimov, C. Hölzer
   A. Katbashev, J. Kohn, J. Koopman, C. Lavigne, S. Lehtola, F. März, M. Müller,
   F. Musil, H. Neugebauer, J. Pisarek, C. Plett, P. Pracht, F. Pultar,
   J. Seibert, P. Shushkov, S. Spicher, M. Stahn, M. Steiner, T. Strunk,
   J. Stückrath, T. Rose, and J. Unsleber
   
 * started run on 2026/10/01 at 18:03:25.927     
   ID    Z sym.   atoms
    1    8 O      1, 3, 11
    2    6 C      2, 5, 10, 12, 17, 20, 21, 25, 26, 28, 30, 32, 34
    3    1 H      4, 6, 7, 9, 13, 15, 16, 18, 19, 22, 24, 27, 29, 31, 33
    4    7 N      8, 14, 23

           -------------------------------------------------
          |                Calculation Setup                |
           -------------------------------------------------

          program call               : /usr/bin/xtb input.xyz --opt --gfn 2 --chrg 0 --uhf 0
          hostname                   : fedora
          coordinate file            : input.xyz
          omp threads                :                    16


           -------------------------------------------------
          |                 G F N 2 - x T B                 |
           -------------------------------------------------

        Reference                      10.1021/acs.jctc.8b01176
      * Hamiltonian:
        H0-scaling (s, p, d)           1.850000    2.230000    2.230000
        zeta-weighting                 0.500000
      * Dispersion:
        s8                             2.700000
        a1                             0.520000
        a2                             5.000000
        s9                             5.000000
      * Repulsion:
        kExp                           1.500000    1.000000
        rExp                           1.000000
      * Coulomb:
        alpha                          2.000000
        third order                    shell-resolved
        anisotropic                    true
        a3                             3.000000
        a5                             4.000000
        cn-shift                       1.200000
        cn-exp                         4.000000
        max-rad                        5.000000


          ...................................................
          :                      SETUP                      :
          :.................................................:
          :  # basis functions                  91          :
          :  # atomic orbitals                  91          :
          :  # shells                           53          :
          :  # electrons                       100          :
          :  max. iterations                   250          :
          :  Hamiltonian                  GFN2-xTB          :
          :  restarted?                      false          :
          :  GBSA solvation                  false          :
          :  PC potential                    false          :
          :  electronic temp.          300.0000000     K    :
          :  accuracy                    1.0000000          :
          :  -> integral cutoff          0.2500000E+02      :
          :  -> integral neglect         0.1000000E-07      :
          :  -> SCF convergence          0.1000000E-05 Eh   :
          :  -> wf. convergence          0.1000000E-03 e    :
          :  Broyden damping             0.4000000          :
          :  net charge                          0          :
          :  unpaired electrons                  0          :
          ...................................................

 iter      E             dE          RMSdq      gap      omega  full diag
   1    -57.0857325 -0.570857E+02  0.436E+00    3.15       0.0  T
   2    -57.2171149 -0.131382E+00  0.260E+00    3.63       1.0  T
   3    -57.2243155 -0.720058E-02  0.142E+00    3.68       1.0  T
   4    -57.2265965 -0.228101E-02  0.571E-01    3.57       1.0  T
   5    -57.2355761 -0.897960E-02  0.120E-01    3.61       1.0  T
   6    -57.2357323 -0.156212E-03  0.602E-02    3.61       1.0  T
   7    -57.2357689 -0.366597E-04  0.257E-02    3.61       1.0  T
   8    -57.2357694 -0.476472E-06  0.116E-02    3.61       1.5  T
   9    -57.2357714 -0.195766E-05  0.370E-03    3.61       4.6  T
  10    -57.2357714 -0.665200E-07  0.158E-03    3.61      10.9  T
  11    -57.2357715 -0.159282E-07  0.698E-04    3.61      24.6  T
  12    -57.2357715 -0.444842E-08  0.243E-04    3.61      70.6  T

   *** convergence criteria satisfied after 12 iterations ***

         #    Occupation            Energy/Eh            Energy/eV
      -------------------------------------------------------------
         1        2.0000           -0.7344787             -19.9862
       ...           ...                  ...                  ...
        44        2.0000           -0.4265117             -11.6060
        45        2.0000           -0.4232047             -11.5160
        46        2.0000           -0.4194154             -11.4129
        47        2.0000           -0.4020961             -10.9416
        48        2.0000           -0.3964371             -10.7876
        49        2.0000           -0.3905301             -10.6269
        50        2.0000           -0.3736989             -10.1689 (HOMO)
        51                         -0.2410187              -6.5585 (LUMO)
        52                         -0.2334796              -6.3533
        53                         -0.2298550              -6.2547
        54                         -0.2053155              -5.5869
        55                         -0.1683749              -4.5817
       ...                                ...                  ...
        91                          0.7094057              19.3039
      -------------------------------------------------------------
                  HL-Gap            0.1326802 Eh            3.6104 eV
             Fermi-level           -0.3073588 Eh           -8.3637 eV

 SCC (total)                   0 d,  0 h,  0 min,  0.621 sec
 SCC setup                      ...        0 min,  0.000 sec (  0.046%)
 Dispersion                     ...        0 min,  0.006 sec (  0.964%)
 classical contributions        ...        0 min,  0.003 sec (  0.506%)
 integral evaluation            ...        0 min,  0.004 sec (  0.579%)
 iterations                     ...        0 min,  0.581 sec ( 93.612%)
 molecular gradient             ...        0 min,  0.026 sec (  4.226%)
 printout                       ...        0 min,  0.000 sec (  0.066%)

         :::::::::::::::::::::::::::::::::::::::::::::::::::::
         ::                     SUMMARY                     ::
         :::::::::::::::::::::::::::::::::::::::::::::::::::::
         :: total energy             -56.478925287228 Eh    ::
         :: gradient norm              0.000066135455 Eh/a0 ::
         :: HOMO-LUMO gap              3.610413154898 eV    ::
         ::.................................................::
         :: SCC energy               -57.235778114772 Eh    ::
         :: -> isotropic ES            0.098447902033 Eh    ::
         :: -> anisotropic ES          0.003469565507 Eh    ::
         :: -> anisotropic XC          0.019388445476 Eh    ::
         :: -> dispersion             -0.033938102905 Eh    ::
         :: repulsion energy           0.756852827544 Eh    ::
         :: add. restraining           0.000000000000 Eh    ::
         :: total charge              -0.000000000000 e     ::
         :::::::::::::::::::::::::::::::::::::::::::::::::::::

      ----------------------------------------------------------- 
     |                   =====================                   |
     |                        A N C O P T                        |
     |                   =====================                   |
     |               Approximate Normal Coordinate               |
     |                Rational Function Optimizer                |
      ----------------------------------------------------------- 
      ----------------------------------------------------------- 
     |                   =====================                   |
     |                        A N C O P T                        |
     |                   =====================                   |
     |               Approximate Normal Coordinate               |
     |                Rational Function Optimizer                |
      ----------------------------------------------------------- 

          ...................................................
          :                      SETUP                      :
          :.................................................:
          :   optimization level            normal          :
          :   max. optcycles                   200          :
          :   ANC micro-cycles                  20          :
          :   degrees of freedom                96          :
          :.................................................:
          :   RF solver                   davidson          :
          :   write xtbopt.log                true          :
          :   linear?                        false          :
          :   energy convergence         0.5000000E-05 Eh   :
          :   grad. convergence          0.1000000E-02 Eh/α :
          :   maxmium RF displ.          1.0000000          :
          :   Hlow (freq-cutoff)         0.1000000E-01      :
          :   Hmax (freq-cutoff)         5.0000000          :
          :   S6 in model hess.         20.0000000          :
          ...................................................

generating ANC from exact Hessian ...
Using Lindh-Hessian (1995)
 Shifting diagonal of input Hessian by    9.5548903054141210E-003
 Lowest  eigenvalues of input Hessian
    0.000000    0.000000    0.000000    0.000000    0.000000    0.000000
    0.010000    0.010141    0.010479    0.011573    0.012086    0.014828
    0.016266    0.018294    0.018976    0.020244    0.023446    0.025506
 Highest eigenvalues
    2.000890    2.009979    2.095435    2.202596    2.315131    2.367161


........................................................................
.............................. CYCLE    1 ..............................
........................................................................

 iter      E             dE          RMSdq      gap      omega  full diag
   1    -57.2357715 -0.572358E+02  0.104E-04    3.61       0.0  T
   2    -57.2357715 -0.531912E-10  0.606E-05    3.61     283.2  T
   3    -57.2357715 -0.682832E-11  0.385E-05    3.61     445.7  T
     SCC iter.                  ...        0 min,  0.010 sec
     gradient                   ...        0 min,  0.004 sec
 * total energy  :   -56.4789253 Eh     change       -0.7875300E-09 Eh
   gradient norm :     0.0000658 Eh/α   predicted     0.0000000E+00 (-100.00%)
   displ. norm   :     0.0000987 α      lambda        0.0000000E+00
   maximum displ.:     0.0000404 α      in ANC's #42, #45, #29, ...

   *** GEOMETRY OPTIMIZATION CONVERGED AFTER 1 ITERATIONS ***

------------------------------------------------------------------------
 total energy gain   :        -0.0000000 Eh       -0.0000 kcal/mol
 total RMSD          :         0.0000000 a0        0.0000 Å
 total power (kW/mol):        -0.0000021 (step)   -0.0000 (real)
------------------------------------------------------------------------

 ANCopt (total)                0 d,  0 h,  0 min,  0.089 sec
 optimizer setup                ...        0 min,  0.000 sec (  0.050%)
 model hessian                  ...        0 min,  0.005 sec (  6.002%)
 ANC generation                 ...        0 min,  0.051 sec ( 56.568%)
 coordinate transformation      ...        0 min,  0.000 sec (  0.019%)
 single point calculation       ...        0 min,  0.032 sec ( 35.263%)
 optimization log               ...        0 min,  0.000 sec (  0.089%)
 hessian update                 ...        0 min,  0.000 sec (  0.002%)
 rational function              ...        0 min,  0.000 sec (  0.078%)

================
 final structure:
================
34
 xtb: 6.7.1-6.fc44.fc44
O           -3.65028764060000        1.78577050530000       -2.71871768330000
C           -4.35962565710000        2.00373204980000       -1.62966461380000
O           -5.17729175080000        2.87567570530000       -1.53944743440000
H           -2.98561229750000        1.04985481710000       -2.59940611690000
C           -4.08679145210000        1.02211431340000       -0.46777572590000
H           -4.33719330370000        0.01571273200000       -0.82813223460000
H           -4.73802397790000        1.28106213820000        0.36596397750000
N           -2.71033003930000        1.03448953670000       -0.01568991540000
H           -2.47538481330000        1.40222584790000        0.89763966380000
C           -1.68937887980000        0.53406266390000       -0.71867766470000
O           -1.80035468200000        0.11160712410000       -1.86542412290000
C           -0.37547717730000        0.49289323570000        0.04480375750000
H            0.43941815740000        0.65324902360000       -0.67809556540000
N           -0.40065157330000        1.47101858400000        1.12511768340000
H           -0.22711011650000        2.40353258500000        0.76445737890000
H            0.33652320040000        1.25564648280000        1.78947400820000
C           -0.22131072040000       -0.92563207380000        0.63555017190000
H           -0.34829339700000       -1.64869878450000       -0.17193617360000
H           -1.00568635180000       -1.07987395160000        1.37894502450000
C            1.11971792330000       -1.09187316190000        1.26588973910000
C            1.41884513770000       -1.06060977710000        2.59753574550000
H            0.75857747860000       -0.95648346570000        3.43805385710000
N            2.76763247170000       -1.20641069130000        2.78190094940000
H            3.23417051990000       -1.24334314360000        3.67173706590000
C            3.37076807160000       -1.33360935160000        1.56318293210000
C            4.70891441230000       -1.50130012670000        1.22987895120000
H            5.47108724860000       -1.55598859740000        1.99333287990000
C            5.02429734920000       -1.59696785680000       -0.10804193890000
H            6.05455410750000       -1.72813492900000       -0.40367187830000
C            4.03648981100000       -1.53071333940000       -1.09517646810000
H            4.32841556550000       -1.61300006130000       -2.13161088920000
C            2.70899027910000       -1.36510040000000       -0.77208821050000
H            1.95208947730000       -1.31965696190000       -1.54085135180000
C            2.36043823760000       -1.26132565420000        0.57479037510000

 Bond Distances (Angstroems)
 ---------------------------
O1-C2=1.3178         O1-H4=0.9988         C2-O1=1.3178         C2-O3=1.1988         C2-C5=1.5453         O3-C2=1.1988         
H4-O1=0.9988         C5-C2=1.5453         C5-H6=1.0979         C5-H7=1.0892         C5-N8=1.4489         H6-C5=1.0979         
H7-C5=1.0892         N8-C5=1.4489         N8-H9=1.0122         N8-C10=1.3368        H9-N8=1.0122         C10-N8=1.3368        
C10-O11=1.2271       C10-C12=1.5202       O11-C10=1.2271       C12-C10=1.5202       C12-H13=1.1011       C12-N14=1.4575       
C12-C17=1.5443       H13-C12=1.1011       N14-C12=1.4575       N14-H15=1.0148       N14-H16=1.0155       H15-N14=1.0148       
H16-N14=1.0155       C17-C12=1.5443       C17-H18=1.0913       C17-H19=1.0916       C17-C20=1.4911       H18-C17=1.0913       
H19-C17=1.0916       C20-C17=1.4911       C20-C21=1.3652       C20-C34=1.4303       C21-C20=1.3652       C21-H22=1.0739       
C21-N23=1.3691       H22-C21=1.0739       N23-C21=1.3691       N23-H24=1.0054       N23-C25=1.3657       H24-N23=1.0054       
C25-N23=1.3657       C25-C26=1.3892       C25-C34=1.4152       C26-C25=1.3892       C26-H27=1.0802       C26-C28=1.3779       
H27-C26=1.0802       C28-C26=1.3779       C28-H29=1.0798       C28-C30=1.3981       H29-C28=1.0798       C30-C28=1.3981       
C30-H31=1.0799       C30-C32=1.3763       H31-C30=1.0799       C32-C30=1.3763       C32-H33=1.0798       C32-C34=1.3951       
H33-C32=1.0798       C34-C20=1.4303       C34-C25=1.4152       C34-C32=1.3951       
 C  H  Rav=1.0865 sigma=0.0085  Rmin=1.0739  Rmax=1.1011    10
 C  C  Rav=1.4373 sigma=0.0655  Rmin=1.3652  Rmax=1.5453    12
 N  H  Rav=1.0120 sigma=0.0040  Rmin=1.0054  Rmax=1.0155     4
 N  C  Rav=1.3956 sigma=0.0484  Rmin=1.3368  Rmax=1.4575     5
 O  H  Rav=0.9988 sigma=0.0000  Rmin=0.9988  Rmax=0.9988     1
 O  C  Rav=1.2479 sigma=0.0508  Rmin=1.1988  Rmax=1.3178     3

 selected bond angles (degree)
 --------------------
H4-O1-C2=112.42                O3-C2-O1=123.34                C5-C2-O1=114.91                C5-C2-O3=121.73                
H6-C5-C2=107.17                H7-C5-C2=108.60                H7-C5-H6=109.44                N8-C5-C2=113.39                
N8-C5-H6=109.08                N8-C5-H7=109.10                H9-N8-C5=120.34                C10-N8-C5=123.94               
C10-N8-H9=115.67               O11-C10-N8=123.45              C12-C10-N8=113.96              C12-C10-O11=122.56             

 selected dihedral angles (degree)
 ---------------------------------
O3-C2-O1-H4=177.06            C5-C2-O1-H4=355.64            H6-C5-C2-O1=299.33            H6-C5-C2-O3=117.93            
H7-C5-C2-O1=181.20            H7-C5-C2-O3=359.80            N8-C5-C2-O1= 59.76            N8-C5-C2-O3=238.36            
H9-N8-C5-C2=111.33            H9-N8-C5-H6=230.67            H9-N8-C5-H7=350.17            C10-N8-C5-C2=288.72           
C10-N8-C5-H6= 48.05           C10-N8-C5-H7=167.55           O11-C10-N8-C5=  6.16          O11-C10-N8-H9=183.66          
C12-C10-N8-C5=187.95          C12-C10-N8-H9=  5.44          
           -------------------------------------------------
          |                Final Singlepoint                |
           -------------------------------------------------

          ...................................................
          :                      SETUP                      :
          :.................................................:
          :  # basis functions                  91          :
          :  # atomic orbitals                  91          :
          :  # shells                           53          :
          :  # electrons                       100          :
          :  max. iterations                   250          :
          :  Hamiltonian                  GFN2-xTB          :
          :  restarted?                      false          :
          :  GBSA solvation                  false          :
          :  PC potential                    false          :
          :  electronic temp.          300.0000000     K    :
          :  accuracy                    1.0000000          :
          :  -> integral cutoff          0.2500000E+02      :
          :  -> integral neglect         0.1000000E-07      :
          :  -> SCF convergence          0.1000000E-05 Eh   :
          :  -> wf. convergence          0.1000000E-03 e    :
          :  Broyden damping             0.4000000          :
          :  net charge                          0          :
          :  unpaired electrons                  0          :
          ...................................................

 iter      E             dE          RMSdq      gap      omega  full diag
   1    -57.2357715 -0.572358E+02  0.119E-05    3.61       0.0  T
   2    -57.2357715 -0.802913E-12  0.851E-06    3.61    2016.2  T
   3    -57.2357715 -0.895284E-12  0.508E-06    3.61    3375.7  T

   *** convergence criteria satisfied after 3 iterations ***

         #    Occupation            Energy/Eh            Energy/eV
      -------------------------------------------------------------
         1        2.0000           -0.7344813             -19.9863
       ...           ...                  ...                  ...
        44        2.0000           -0.4265115             -11.6060
        45        2.0000           -0.4232043             -11.5160
        46        2.0000           -0.4194152             -11.4129
        47        2.0000           -0.4020964             -10.9416
        48        2.0000           -0.3964372             -10.7876
        49        2.0000           -0.3905296             -10.6269
        50        2.0000           -0.3736985             -10.1689 (HOMO)
        51                         -0.2410182              -6.5584 (LUMO)
        52                         -0.2334796              -6.3533
        53                         -0.2298567              -6.2547
        54                         -0.2053147              -5.5869
        55                         -0.1683744              -4.5817
       ...                                ...                  ...
        91                          0.7094059              19.3039
      -------------------------------------------------------------
                  HL-Gap            0.1326802 Eh            3.6104 eV
             Fermi-level           -0.3073583 Eh           -8.3636 eV

 SCC (total)                   0 d,  0 h,  0 min,  0.202 sec
 SCC setup                      ...        0 min,  0.000 sec (  0.085%)
 Dispersion                     ...        0 min,  0.000 sec (  0.048%)
 classical contributions        ...        0 min,  0.000 sec (  0.005%)
 integral evaluation            ...        0 min,  0.001 sec (  0.393%)
 iterations                     ...        0 min,  0.199 sec ( 98.548%)
 molecular gradient             ...        0 min,  0.002 sec (  0.861%)
 printout                       ...        0 min,  0.000 sec (  0.053%)

         :::::::::::::::::::::::::::::::::::::::::::::::::::::
         ::                     SUMMARY                     ::
         :::::::::::::::::::::::::::::::::::::::::::::::::::::
         :: total energy             -56.478925288036 Eh    ::
         :: gradient norm              0.000065767521 Eh/a0 ::
         :: HOMO-LUMO gap              3.610412694294 eV    ::
         ::.................................................::
         :: SCC energy               -57.235778115580 Eh    ::
         :: -> isotropic ES            0.098446445872 Eh    ::
         :: -> anisotropic ES          0.003469686853 Eh    ::
         :: -> anisotropic XC          0.019388265022 Eh    ::
         :: -> dispersion             -0.033938126782 Eh    ::
         :: repulsion energy           0.756852827544 Eh    ::
         :: add. restraining           0.000000000000 Eh    ::
         :: total charge              -0.000000000000 e     ::
         :::::::::::::::::::::::::::::::::::::::::::::::::::::

           -------------------------------------------------
          |                Property Printout                |
           -------------------------------------------------

    * Orbital Energies and Occupations

         #    Occupation            Energy/Eh            Energy/eV
      -------------------------------------------------------------
         1        2.0000           -0.7344813             -19.9863
       ...           ...                  ...                  ...
        38        2.0000           -0.4718113             -12.8386
        39        2.0000           -0.4632073             -12.6045
        40        2.0000           -0.4626421             -12.5891
        41        2.0000           -0.4593928             -12.5007
        42        2.0000           -0.4453535             -12.1187
        43        2.0000           -0.4340032             -11.8098
        44        2.0000           -0.4265115             -11.6060
        45        2.0000           -0.4232043             -11.5160
        46        2.0000           -0.4194152             -11.4129
        47        2.0000           -0.4020964             -10.9416
        48        2.0000           -0.3964372             -10.7876
        49        2.0000           -0.3905296             -10.6269
        50        2.0000           -0.3736985             -10.1689 (HOMO)
        51                         -0.2410182              -6.5584 (LUMO)
        52                         -0.2334796              -6.3533
        53                         -0.2298567              -6.2547
        54                         -0.2053147              -5.5869
        55                         -0.1683744              -4.5817
        56                         -0.0793195              -2.1584
        57                         -0.0196677              -0.5352
        58                          0.0089351               0.2431
        59                          0.0264182               0.7189
        60                          0.0645804               1.7573
        61                          0.0814694               2.2169
       ...                                ...                  ...
        91                          0.7094059              19.3039
      -------------------------------------------------------------
                  HL-Gap            0.1326802 Eh            3.6104 eV
             Fermi-level           -0.3073583 Eh           -8.3636 eV

     #   Z          covCN         q      C6AA      α(0)
     1   8 O        1.655    -0.375    20.374     6.093
     2   6 C        2.684     0.358    20.925     7.486
     3   8 O        0.856    -0.378    21.253     6.181
     4   1 H        0.800     0.365     0.555     1.171
     5   6 C        3.737    -0.040    21.365     6.596
     6   1 H        0.924     0.075     2.027     2.227
     7   1 H        0.925     0.078     2.004     2.214
     8   7 N        2.688    -0.164    24.548     7.359
     9   1 H        0.860     0.205     1.079     1.627
    10   6 C        2.758     0.262    22.586     7.783
    11   8 O        0.858    -0.460    22.920     6.419
    12   6 C        3.790     0.032    20.046     6.376
    13   1 H        0.923     0.041     2.440     2.443
    14   7 N        2.633    -0.357    29.198     8.025
    15   1 H        0.860     0.144     1.444     1.882
    16   1 H        0.860     0.156     1.363     1.829
    17   6 C        3.810    -0.060    21.653     6.624
    18   1 H        0.924     0.057     2.229     2.335
    19   1 H        0.924     0.043     2.405     2.425
    20   6 C        3.056    -0.031    28.716     8.788
    21   6 C        3.031    -0.011    28.249     8.718
    22   1 H        0.926     0.030     2.583     2.513
    23   7 N        2.777    -0.107    23.331     7.174
    24   1 H        0.860     0.158     1.346     1.817
    25   6 C        3.086     0.044    26.914     8.504
    26   6 C        2.908    -0.053    29.314     8.878
    27   1 H        0.926     0.024     2.676     2.558
    28   6 C        2.925    -0.035    28.870     8.811
    29   1 H        0.926     0.030     2.589     2.516
    30   6 C        2.920    -0.040    28.997     8.831
    31   1 H        0.926     0.030     2.589     2.516
    32   6 C        2.911    -0.036    28.901     8.815
    33   1 H        0.926     0.034     2.533     2.489
    34   6 C        3.117    -0.020    28.326     8.718

 Mol. C6AA /au·bohr⁶  :      13331.022387
 Mol. C8AA /au·bohr⁸  :     312387.250848
 Mol. α(0) /au        :        178.740500


Wiberg/Mayer (AO) data.
largest (>0.10) Wiberg bond orders for each atom

 ---------------------------------------------------------------------------
     #   Z sym  total        # sym  WBO       # sym  WBO       # sym  WBO
 ---------------------------------------------------------------------------
     1   8 O    2.233 --     2 C    1.201     4 H    0.769     3 O    0.183
     2   6 C    3.931 --     3 O    1.773     1 O    1.201     5 C    0.925
     3   8 O    2.065 --     2 C    1.773     1 O    0.183
     4   1 H    0.867 --     1 O    0.769
     5   6 C    3.964 --     8 N    0.991     7 H    0.974     6 H    0.952
                             2 C    0.925
     6   1 H    0.994 --     5 C    0.952
     7   1 H    0.994 --     5 C    0.974
     8   7 N    3.477 --    10 C    1.307     5 C    0.991     9 H    0.914
                            11 O    0.193
     9   1 H    0.958 --     8 N    0.914
    10   6 C    3.948 --    11 O    1.603     8 N    1.307    12 C    0.953
    11   8 O    2.006 --    10 C    1.603     8 N    0.193
    12   6 C    3.983 --    14 N    1.015    17 C    0.954    13 H    0.953
                            10 C    0.953
    13   1 H    0.998 --    12 C    0.953
    14   7 N    3.020 --    12 C    1.015    15 H    0.966    16 H    0.953
    15   1 H    0.979 --    14 N    0.966
    16   1 H    0.976 --    14 N    0.953
    17   6 C    3.992 --    20 C    1.017    19 H    0.974    18 H    0.966
                            12 C    0.954
    18   1 H    0.997 --    17 C    0.966
    19   1 H    0.998 --    17 C    0.974
    20   6 C    3.976 --    21 C    1.578    34 C    1.200    17 C    1.017
    21   6 C    3.948 --    20 C    1.578    23 N    1.194    22 H    0.969
    22   1 H    0.998 --    21 C    0.969
    23   7 N    3.539 --    21 C    1.194    25 C    1.174    24 H    0.947
    24   1 H    0.974 --    23 N    0.947
    25   6 C    3.958 --    26 C    1.337    34 C    1.252    23 N    1.174
    26   6 C    3.989 --    28 C    1.495    25 C    1.337    27 H    0.969
                            32 C    0.115
    27   1 H    0.999 --    26 C    0.969
    28   6 C    3.991 --    26 C    1.495    30 C    1.371    29 H    0.972
    29   1 H    0.999 --    28 C    0.972
    30   6 C    3.991 --    32 C    1.506    28 C    1.371    31 H    0.972
    31   1 H    0.999 --    30 C    0.972
    32   6 C    3.992 --    30 C    1.506    34 C    1.331    33 H    0.968
                            26 C    0.115
    33   1 H    0.998 --    32 C    0.968
    34   6 C    3.984 --    32 C    1.331    25 C    1.252    20 C    1.200
 ---------------------------------------------------------------------------

Topologies differ in total number of bonds
Writing topology from bond orders to xtbtopo.mol

molecular dipole:
                 x           y           z       tot (Debye)
 q only:        1.321      -0.829       2.258
   full:        1.971      -0.973       2.770       8.988
molecular quadrupole (traceless):
                xx          xy          yy          xz          yz          zz
 q only:       -7.156      17.179      -2.078      -9.565       6.799       9.234
  q+dip:       -8.221      22.486      -6.054      -9.816       8.024      14.274
   full:       -9.474      23.370      -2.693      -9.350       7.798      12.167

           -------------------------------------------------
          |                Geometry Summary                 |
           -------------------------------------------------

      molecular mass/u    :      261.2770023
   center of mass at/Å    :        0.0000000      -0.0000000      -0.0000000
  moments of inertia/u·Å² :        0.4684864E+03   0.3378778E+04   0.3687347E+04
rotational constants/cm⁻¹ :        0.3598319E-01   0.4989269E-02   0.4571751E-02

 * 32 selected distances

     #   Z          #   Z                                           value/Å
     1   8 O        2   6 C                                       1.3178409
     2   6 C        3   8 O                                       1.1987506
     1   8 O        4   1 H                                       0.9987996 (min)
     5   6 C        6   1 H                                       1.0979081
     5   6 C        7   1 H                                       1.0891648
     5   6 C        8   7 N                                       1.4488551
     8   7 N        9   1 H                                       1.0122255
     8   7 N       10   6 C                                       1.3367724
    10   6 C       11   8 O                                       1.2271153
    12   6 C       13   1 H                                       1.1010686
    12   6 C       14   7 N                                       1.4575464
    14   7 N       15   1 H                                       1.0147783
    14   7 N       16   1 H                                       1.0154710
    17   6 C       18   1 H                                       1.0913224
    17   6 C       19   1 H                                       1.0916372
    17   6 C       20   6 C                                       1.4910809 (max)
    20   6 C       21   6 C                                       1.3651871
    21   6 C       22   1 H                                       1.0739025
    21   6 C       23   7 N                                       1.3691151
    23   7 N       24   1 H                                       1.0054005
    23   7 N       25   6 C                                       1.3657328
    25   6 C       26   6 C                                       1.3891896
    26   6 C       27   1 H                                       1.0801668
    26   6 C       28   6 C                                       1.3779156
    28   6 C       29   1 H                                       1.0798292
    28   6 C       30   6 C                                       1.3980659
    30   6 C       31   1 H                                       1.0799020
    30   6 C       32   6 C                                       1.3762518
    32   6 C       33   1 H                                       1.0797967
    20   6 C       34   6 C                                       1.4302866
    25   6 C       34   6 C                                       1.4152426
    32   6 C       34   6 C                                       1.3951129

 * 6 distinct bonds (by element types)

   Z      Z             #   av. dist./Å        max./Å        min./Å
   1 H    6 C          10     1.0864698     1.1010686     1.0739025
   6 C    6 C           9     1.4042592     1.4910809     1.3651871
   1 H    7 N           4     1.0119688     1.0154710     1.0054005
   6 C    7 N           5     1.3956043     1.4575464     1.3367724
   1 H    8 O           1     0.9987996     0.9987996     0.9987996
   6 C    8 O           3     1.2479023     1.3178409     1.1987506


optimized geometry written to: xtbopt.xyz


           -------------------------------------------------
          | TOTAL ENERGY              -56.478925288036 Eh   |
          | GRADIENT NORM               0.000065767521 Eh/α |
          | HOMO-LUMO GAP               3.610412694294 eV   |
           -------------------------------------------------

------------------------------------------------------------------------
 * finished run on 2026/10/01 at 18:03:26.868     
------------------------------------------------------------------------
 total:
 * wall-time:     0 d,  0 h,  0 min,  0.941 sec
 *  cpu-time:     0 d,  0 h,  0 min, 12.813 sec
 * ratio c/w:    13.610 speedup
 SCF:
 * wall-time:     0 d,  0 h,  0 min,  0.621 sec
 *  cpu-time:     0 d,  0 h,  0 min,  8.556 sec
 * ratio c/w:    13.774 speedup
 ANC optimizer:
 * wall-time:     0 d,  0 h,  0 min,  0.292 sec
 *  cpu-time:     0 d,  0 h,  0 min,  3.896 sec
 * ratio c/w:    13.334 speedup


--- STDERR ---
normal termination of xtb
Note: The following floating-point exceptions are signalling: IEEE_UNDERFLOW_FLAG IEEE_DENORMAL
