68
frame_0007
O       0.826407358298870     -0.851682410152089      1.234900106057361
O       0.879577878251726     -1.138190212542232     -1.626779804492901
O      -2.523252408359903     -2.584740030255396      0.611336526332968
O      -3.864566173609879      3.156375819617069     -0.374957231046451
O      -1.360829534770392      1.744478325165028     -1.479376048045144
O       2.101193980903190      2.862693027605502      1.287465059020765
N       0.418605326002501     -2.802729917092129     -0.840159868636768
N      -1.984946074460333     -0.767380950650497     -0.847869504236013
N      -3.417223514136228      0.905286763805436      0.396700462587058
N      -0.677941439364470      2.898351095021409      0.580197863737535
N       1.808679866266304      1.531910014418644     -0.530136871111346
N       2.858103985119199     -0.663923307433136      0.700486916739286
C       1.610326797853326     -1.288208554041821      0.755937301904942
C       1.661390364399986     -2.742979191266320      0.117363635172661
C       1.592399061974662     -3.782133874402748      1.068774764127579
C       0.657506383912544     -4.791458722894780      0.301193645851774
C      -0.323840116477995     -4.345051866737989     -0.288924207195255
C       0.081824208248662     -1.826961163544235     -1.424040782765745
C      -1.324433700670087     -1.866080505094510     -1.927480303578474
C      -1.520958282828430     -1.366650317115921     -3.343281952251684
C      -2.399624140126421     -1.165435847579781      0.068074911494683
C      -2.633972102530515     -0.124701223968111      1.217629570636670
C      -3.618579288764419     -0.734507129836232      2.318245799292745
C      -3.260137344883912      2.445605826807727      0.357603840671346
C      -1.890687018951605      2.922420507681354      1.061827576745846
C      -2.323755246284539      4.280185599000285      1.814092045993798
C      -0.555802091195337      2.387247285689635     -0.688386001763907
C       1.018271170786220      2.426320581794994     -1.172378277068794
C       0.912910075321981      2.343959315878027     -2.453901701249670
C       2.198114118685868      1.715871330064070      0.749585911411799
C       2.875509364639484      0.596753783495487      1.292550113167297
C       4.656165870131723      0.793314544999771      1.230251382190984
C       4.810730914532584      0.527372713254524     -0.110447461594325
C       4.113370750950582     -0.938937442345617     -0.216404891781808
H       2.713701160223748     -2.988549557987263     -0.299945433492959
H       2.545373889000091     -4.088458231156115      1.517687590732130
H       0.812915337138975     -3.718047780676798      1.924021542053197
H       1.325918491046206     -5.647215998647693     -0.321200119605544
H       0.223913447461097     -5.705642155635262      1.226447008777554
H      -0.323832614329846     -4.622116810728037     -1.335857554492599
H      -1.171764002909130     -3.964343230504678      0.118857484306521
H      -1.840365585391791      0.123595650654712     -1.335469351523940
H      -1.850063871805594     -2.738774326535552     -1.826451174450334
H      -2.391026928437913     -1.060174816820149     -3.533108025261338
H      -0.872177756851901     -2.175585261715087     -3.951607185649095
H      -1.097669283788928     -0.371313941326525     -3.570343408016405
H      -4.157163021227909      0.546045126239607     -0.120606804302601
H      -1.943375799736493      0.085276867499206      1.547798747178906
H      -3.109466271827567     -1.586282924028521      2.710571544150958
H      -4.569276510001822     -0.836633814999516      2.001420285237501
H      -3.571478198359729      0.220918760628439      3.106425667985525
H      -0.013597045508602      3.303695665810519      0.957530213878460
H      -2.036452462414891      2.180238431723983      2.083760777707544
H      -1.430836726745552      4.784069178597030      2.274378286834078
H      -3.204298059904457      4.364859466407775      2.194262214662138
H      -2.416698833348027      4.753643475288896      0.576448774887693
H       1.634024492996847      0.585173073704349     -0.871728378008273
H       1.183319710441425      3.502106441385669     -1.012715522298412
H       0.819685499026575      1.266903585825524     -3.047342310331131
H       2.073072455554909      2.397925017136272     -2.864395495195281
H       0.064966131801459      2.869123347046154     -3.258192478826827
H       2.796915872614852      0.428285198799468      2.465141516019303
H       5.124951217846370      0.083042677801298      2.300363819460696
H       4.681611839859066      2.049506223279386      1.437204984989386
H       5.898200342788258      0.106551793667612     -0.219984483892474
H       4.467880201364077      1.057387474217763     -0.763546346263229
H       3.720529758686387     -1.197827472150733     -1.279706306005298
H       4.557225912650948     -1.684037382976042     -0.060676867064353
