68
 energy: -106.565657747017 gnorm: 0.000434688709 xtb: 6.7.1-6.fc44.fc44
O            2.06941043982810       -1.59173430810061        1.27650973009572
O           -1.26850640959684       -4.21911907393840        1.36275653509319
O           -0.67433012225014        0.08754152855435       -0.71775048443524
O           -0.96902181295218        2.95615667288029       -2.58202145642610
O           -2.16680705653458        1.34298142103145        1.75624927856868
O            1.84332618850217        2.82478894315607        0.40100505903195
N            0.37486247516456       -3.43436638678465        0.07288067899935
N           -2.09519994968121       -1.30662048609865        0.32944696532580
N           -2.50066468075952        1.40757854504793       -2.07257735791621
N           -0.90876977231007        2.76092551165844        0.53113266746822
N            1.25292484921501        1.07315055115991        1.71884797002447
N            2.29310300772660       -0.35954900831073       -0.58439955701789
C            1.85944945211871       -1.43788600649049        0.07608700902987
C            1.08434533903122       -2.46893399175935       -0.74999927451017
C            2.04463122650349       -3.33365664716782       -1.58760787997573
C            2.26311403040164       -4.56346199357199       -0.71138449802981
C            0.87933530005879       -4.78592534305249       -0.12514075479082
C           -0.68077844610884       -3.26200527423031        0.89135450247661
C           -1.09158404323378       -1.82415813396757        1.24570750015073
C           -1.63493657671021       -1.79219441285313        2.66937771720899
C           -1.81321064171361       -0.27958226361352       -0.48066924521970
C           -3.01193512591711        0.41792306368716       -1.14990949770599
C           -3.91501252154888       -0.55340134789953       -1.90398419323738
C           -1.72787452534551        2.48439558543921       -1.76248162476132
C           -1.95262188507454        3.14834166590507       -0.39417943788407
C           -1.93079004922502        4.66439518768752       -0.57227492014493
C           -1.09861068894398        1.88998141343158        1.52275821683376
C            0.12492103906360        1.65774483297829        2.43157929132428
C            0.51056536676104        2.95485209087124        3.14584006917379
C            1.96961470751736        1.66455788840455        0.75647736191871
C            2.99817584780805        0.71712965563921        0.10555404792136
C            3.74946413366173        1.42011340530241       -1.01693147565679
C            2.75282446178061        1.33474456867966       -2.17147179133253
C            2.08639844386726       -0.03093138907446       -1.98547764922046
H            0.37641688359888       -1.91971823537428       -1.37837103847742
H            1.56776610197120       -3.61819324067790       -2.52673558795299
H            2.97774918476072       -2.81951814456258       -1.80870602453880
H            2.62545782538128       -5.42169427623932       -1.27272229726387
H            2.97053026612039       -4.33045484487810        0.08463417576294
H            0.22796994335039       -5.33011650123872       -0.81953113304784
H            0.87915281458930       -5.31402361323496        0.82895259071880
H           -3.05286495836251       -1.50073890074417        0.57684642920064
H           -0.23064638359359       -1.16331618413325        1.15170330550042
H           -0.83380634337239       -2.00510050927634        3.37190444853312
H           -2.40253857287515       -2.55409864680307        2.78575423311634
H           -2.05252079636229       -0.80940102667281        2.87596201709007
H           -2.25157245477912        1.02180198927190       -2.97756819608144
H           -3.57651246096423        0.91158613641340       -0.35190349529993
H           -4.38892784129078       -1.25680662532450       -1.22564805811783
H           -3.34145912814590       -1.11529252695055       -2.63887220404922
H           -4.69341606069201        0.00245819545529       -2.42150574267463
H            0.03339630508763        3.09502829279293        0.33481348777586
H           -2.90362464906444        2.82697391287928        0.03948577071315
H           -2.00666792950146        5.15503129250428        0.39468106090853
H           -2.76198574034894        4.97775466041840       -1.19833981827398
H           -1.00285760991914        4.95778087095247       -1.05672561462285
H            1.47791118493378        0.10407128402963        1.92286048092065
H           -0.18608921192610        0.91856500007379        3.17593919304028
H            1.29510422835194        2.75394912434982        3.87206196856686
H           -0.35555834353542        3.35658439754586        3.66527754683163
H            0.87428396208592        3.69134201135420        2.43593773215760
H            3.64350514855843        0.29238979449155        0.88101390241225
H            4.67132299588795        0.88572912439813       -1.24905334857516
H            3.98124521581135        2.44881563763992       -0.75229968764509
H            3.23063307344296        1.42429147244689       -3.14461286004180
H            2.01102498279465        2.12569629817670       -2.07253571626275
H            1.01951212724155        0.02002754778499       -2.20704803136918
H            2.55166973592532       -0.78990364442902       -2.62126447264886
