      -----------------------------------------------------------      
     |                   =====================                   |     
     |                           x T B                           |     
     |                   =====================                   |     
     |                         S. Grimme                         |     
     |          Mulliken Center for Theoretical Chemistry        |     
     |                    University of Bonn                     |     
      -----------------------------------------------------------      

   * xtb version 6.7.1-6.fc44.fc44 compiled by Fedora project on Sun Jan 18 23:32:34 UTC 2026

   xtb is free software: you can redistribute it and/or modify it under
   the terms of the GNU Lesser General Public License as published by
   the Free Software Foundation, either version 3 of the License, or
   (at your option) any later version.
   
   xtb is distributed in the hope that it will be useful,
   but WITHOUT ANY WARRANTY; without even the implied warranty of
   MERCHANTABILITY or FITNESS FOR A PARTICULAR PURPOSE.  See the
   GNU Lesser General Public License for more details.
   
   Cite this work as:
   * C. Bannwarth, E. Caldeweyher, S. Ehlert, A. Hansen, P. Pracht,
     J. Seibert, S. Spicher, S. Grimme, WIREs Comput. Mol. Sci., 2020, 11,
     e01493. DOI: 10.1002/wcms.1493
   
   for GFN2-xTB:
   * C. Bannwarth, S. Ehlert and S. Grimme., J. Chem. Theory Comput., 2019,
     15, 1652-1671. DOI: 10.1021/acs.jctc.8b01176
   for GFN1-xTB:
   * S. Grimme, C. Bannwarth, P. Shushkov, J. Chem. Theory Comput., 2017,
     13, 1989-2009. DOI: 10.1021/acs.jctc.7b00118
   for GFN0-xTB:
   * P. Pracht, E. Caldeweyher, S. Ehlert, S. Grimme, ChemRxiv, 2019, preprint.
     DOI: 10.26434/chemrxiv.8326202.v1
   for GFN-FF:
   * S. Spicher and S. Grimme, Angew. Chem. Int. Ed., 2020, 59, 15665-15673.
     DOI: 10.1002/anie.202004239
   
   for ALPB and GBSA implicit solvation:
   * S. Ehlert, M. Stahn, S. Spicher, S. Grimme, J. Chem. Theory Comput.,
     2021, 17, 4250-4261. DOI: 10.1021/acs.jctc.1c00471
   
   for ddCOSMO and CPCM-X implicit solvation:
   * M. Stahn, S. Ehlert, S. Grimme, J. Phys. Chem. A,
     2023, XX, XXXX-XXXX. DOI: 10.1021/acs.jpca.3c04382
   
   for DFT-D4:
   * E. Caldeweyher, C. Bannwarth and S. Grimme, J. Chem. Phys., 2017,
     147, 034112. DOI: 10.1063/1.4993215
   * E. Caldeweyher, S. Ehlert, A. Hansen, H. Neugebauer, S. Spicher,
     C. Bannwarth and S. Grimme, J. Chem. Phys., 2019, 150, 154122.
     DOI: 10.1063/1.5090222
   * E. Caldeweyher, J.-M. Mewes, S. Ehlert and S. Grimme, Phys. Chem. Chem. Phys.
     2020, 22, 8499-8512. DOI: 10.1039/D0CP00502A
   
   for sTDA-xTB:
   * S. Grimme and C. Bannwarth, J. Chem. Phys., 2016, 145, 054103.
     DOI: 10.1063/1.4959605
   
   in the mass-spec context:
   * V. Asgeirsson, C. Bauer and S. Grimme, Chem. Sci., 2017, 8, 4879.
     DOI: 10.1039/c7sc00601b
   * J. Koopman and S. Grimme, ACS Omega 2019, 4, 12, 15120-15133.
     DOI: 10.1021/acsomega.9b02011
   
   for metadynamics refer to:
   * S. Grimme, J. Chem. Theory Comput., 2019, 155, 2847-2862
     DOI: 10.1021/acs.jctc.9b00143
   
   for SPH calculations refer to:
   * S. Spicher and S. Grimme, J. Chem. Theory Comput., 2021, 17, 1701-1714
     DOI: 10.1021/acs.jctc.0c01306
   
   for ONIOM refer to:
   * C. Plett, A. Katbashev, S. Ehlert, S. Grimme, M. Bursch,
     Phys. Chem. Chem. Phys., 2023, 25, 17860-17868. DOI: 10.1039/D3CP02178E
   
   for DIPRO refer to:
   * J. Kohn, N. Gildemeister, S. Grimme, D. Fazzi, A. Hansen,
     J. Chem. Phys., 2023, just accepted.
   
   for PTB refer to:
   * S. Grimme, M. Mueller, A. Hansen, J. Chem. Phys., 2023, 158, 124111.
     DOI: 10.1063/5.0137838
   
   with help from (in alphabetical order)
   P. Atkinson, C. Bannwarth, F. Bohle, G. Brandenburg, E. Caldeweyher
   M. Checinski, S. Dohm, S. Ehlert, S. Ehrlich, I. Gerasimov, C. Hölzer
   A. Katbashev, J. Kohn, J. Koopman, C. Lavigne, S. Lehtola, F. März, M. Müller,
   F. Musil, H. Neugebauer, J. Pisarek, C. Plett, P. Pracht, F. Pultar,
   J. Seibert, P. Shushkov, S. Spicher, M. Stahn, M. Steiner, T. Strunk,
   J. Stückrath, T. Rose, and J. Unsleber
   
 * started run on 2026/10/01 at 17:55:00.395     
   ID    Z sym.   atoms
    1    8 O      1, 3, 11, 18
    2    6 C      2, 5, 10, 12, 17, 19, 24, 27, 28, 30, 32, 34, 36
    3    1 H      4, 6, 7, 9, 13, 14, 16, 21-23, 25, 26, 29, 31, 33, 35, 37
    4    7 N      8, 15, 20

           -------------------------------------------------
          |                Calculation Setup                |
           -------------------------------------------------

          program call               : /usr/bin/xtb input.xyz --opt --gfn 2 --chrg 0 --uhf 0
          hostname                   : fedora
          coordinate file            : input.xyz
          omp threads                :                    16


           -------------------------------------------------
          |                 G F N 2 - x T B                 |
           -------------------------------------------------

        Reference                      10.1021/acs.jctc.8b01176
      * Hamiltonian:
        H0-scaling (s, p, d)           1.850000    2.230000    2.230000
        zeta-weighting                 0.500000
      * Dispersion:
        s8                             2.700000
        a1                             0.520000
        a2                             5.000000
        s9                             5.000000
      * Repulsion:
        kExp                           1.500000    1.000000
        rExp                           1.000000
      * Coulomb:
        alpha                          2.000000
        third order                    shell-resolved
        anisotropic                    true
        a3                             3.000000
        a5                             4.000000
        cn-shift                       1.200000
        cn-exp                         4.000000
        max-rad                        5.000000


          ...................................................
          :                      SETUP                      :
          :.................................................:
          :  # basis functions                  97          :
          :  # atomic orbitals                  97          :
          :  # shells                           57          :
          :  # electrons                       108          :
          :  max. iterations                   250          :
          :  Hamiltonian                  GFN2-xTB          :
          :  restarted?                      false          :
          :  GBSA solvation                  false          :
          :  PC potential                    false          :
          :  electronic temp.          300.0000000     K    :
          :  accuracy                    1.0000000          :
          :  -> integral cutoff          0.2500000E+02      :
          :  -> integral neglect         0.1000000E-07      :
          :  -> SCF convergence          0.1000000E-05 Eh   :
          :  -> wf. convergence          0.1000000E-03 e    :
          :  Broyden damping             0.4000000          :
          :  net charge                          0          :
          :  unpaired electrons                  0          :
          ...................................................

 iter      E             dE          RMSdq      gap      omega  full diag
   1    -62.1790823 -0.621791E+02  0.436E+00    3.55       0.0  T
   2    -62.3238911 -0.144809E+00  0.234E+00    3.98       1.0  T
   3    -62.3297025 -0.581140E-02  0.124E+00    4.16       1.0  T
   4    -62.3320785 -0.237604E-02  0.224E-01    4.18       1.0  T
   5    -62.3332228 -0.114433E-02  0.867E-02    4.24       1.0  T
   6    -62.3332608 -0.379233E-04  0.468E-02    4.23       1.0  T
   7    -62.3332808 -0.200850E-04  0.213E-02    4.23       1.0  T
   8    -62.3332843 -0.345263E-05  0.523E-03    4.23       3.1  T
   9    -62.3332844 -0.131038E-06  0.232E-03    4.23       7.1  T
  10    -62.3332845 -0.276073E-07  0.920E-04    4.23      17.9  T
  11    -62.3332845 -0.822490E-08  0.380E-04    4.23      43.2  T

   *** convergence criteria satisfied after 11 iterations ***

         #    Occupation            Energy/Eh            Energy/eV
      -------------------------------------------------------------
         1        2.0000           -0.7375431             -20.0696
       ...           ...                  ...                  ...
        48        2.0000           -0.4340182             -11.8102
        49        2.0000           -0.4266778             -11.6105
        50        2.0000           -0.4176439             -11.3647
        51        2.0000           -0.4114079             -11.1950
        52        2.0000           -0.4066387             -11.0652
        53        2.0000           -0.4025958             -10.9552
        54        2.0000           -0.4005667             -10.9000 (HOMO)
        55                         -0.2451891              -6.6719 (LUMO)
        56                         -0.2362872              -6.4297
        57                         -0.2343275              -6.3764
        58                         -0.2304454              -6.2707
        59                         -0.2251953              -6.1279
       ...                                ...                  ...
        97                          0.6510096              17.7149
      -------------------------------------------------------------
                  HL-Gap            0.1553776 Eh            4.2280 eV
             Fermi-level           -0.3228779 Eh           -8.7860 eV

 SCC (total)                   0 d,  0 h,  0 min,  0.033 sec
 SCC setup                      ...        0 min,  0.000 sec (  0.219%)
 Dispersion                     ...        0 min,  0.000 sec (  0.757%)
 classical contributions        ...        0 min,  0.000 sec (  0.248%)
 integral evaluation            ...        0 min,  0.001 sec (  2.906%)
 iterations                     ...        0 min,  0.029 sec ( 89.997%)
 molecular gradient             ...        0 min,  0.002 sec (  5.444%)
 printout                       ...        0 min,  0.000 sec (  0.400%)

         :::::::::::::::::::::::::::::::::::::::::::::::::::::
         ::                     SUMMARY                     ::
         :::::::::::::::::::::::::::::::::::::::::::::::::::::
         :: total energy             -61.558589302141 Eh    ::
         :: gradient norm              0.000317386818 Eh/a0 ::
         :: HOMO-LUMO gap              4.228039959971 eV    ::
         ::.................................................::
         :: SCC energy               -62.332634810180 Eh    ::
         :: -> isotropic ES            0.132268329199 Eh    ::
         :: -> anisotropic ES          0.003068321003 Eh    ::
         :: -> anisotropic XC          0.020341487127 Eh    ::
         :: -> dispersion             -0.038610890015 Eh    ::
         :: repulsion energy           0.774045508038 Eh    ::
         :: add. restraining           0.000000000000 Eh    ::
         :: total charge              -0.000000000000 e     ::
         :::::::::::::::::::::::::::::::::::::::::::::::::::::

      ----------------------------------------------------------- 
     |                   =====================                   |
     |                        A N C O P T                        |
     |                   =====================                   |
     |               Approximate Normal Coordinate               |
     |                Rational Function Optimizer                |
      ----------------------------------------------------------- 
      ----------------------------------------------------------- 
     |                   =====================                   |
     |                        A N C O P T                        |
     |                   =====================                   |
     |               Approximate Normal Coordinate               |
     |                Rational Function Optimizer                |
      ----------------------------------------------------------- 

          ...................................................
          :                      SETUP                      :
          :.................................................:
          :   optimization level            normal          :
          :   max. optcycles                   200          :
          :   ANC micro-cycles                  20          :
          :   degrees of freedom               105          :
          :.................................................:
          :   RF solver                   davidson          :
          :   write xtbopt.log                true          :
          :   linear?                        false          :
          :   energy convergence         0.5000000E-05 Eh   :
          :   grad. convergence          0.1000000E-02 Eh/α :
          :   maxmium RF displ.          1.0000000          :
          :   Hlow (freq-cutoff)         0.1000000E-01      :
          :   Hmax (freq-cutoff)         5.0000000          :
          :   S6 in model hess.         20.0000000          :
          ...................................................

generating ANC from exact Hessian ...
Using Lindh-Hessian (1995)
 Shifting diagonal of input Hessian by    9.6929967529201209E-003
 Lowest  eigenvalues of input Hessian
    0.000000    0.000000    0.000000    0.000000    0.000000    0.000000
    0.010000    0.010261    0.010538    0.011227    0.011604    0.012498
    0.013876    0.015639    0.017358    0.018010    0.020410    0.022061
 Highest eigenvalues
    1.967830    2.003901    2.027397    2.320884    2.346622    2.351026


........................................................................
.............................. CYCLE    1 ..............................
........................................................................

 iter      E             dE          RMSdq      gap      omega  full diag
   1    -62.3332845 -0.623333E+02  0.148E-04    4.23       0.0  T
   2    -62.3332845 -0.146748E-09  0.915E-05    4.23     179.6  T
   3    -62.3332845 -0.483027E-10  0.577E-05    4.23     284.7  T
     SCC iter.                  ...        0 min,  0.007 sec
     gradient                   ...        0 min,  0.002 sec
 * total energy  :   -61.5585893 Eh     change       -0.2578588E-08 Eh
   gradient norm :     0.0003164 Eh/α   predicted     0.0000000E+00 (-100.00%)
   displ. norm   :     0.0047285 α      lambda       -0.1071230E-06
   maximum displ.:     0.0026653 α      in ANC's #8, #7, #2, ...

   *** GEOMETRY OPTIMIZATION CONVERGED AFTER 1 ITERATIONS ***

------------------------------------------------------------------------
 total energy gain   :        -0.0000000 Eh       -0.0000 kcal/mol
 total RMSD          :         0.0000001 a0        0.0000 Å
 total power (kW/mol):        -0.0000068 (step)   -0.0003 (real)
------------------------------------------------------------------------

 ANCopt (total)                0 d,  0 h,  0 min,  0.022 sec
 optimizer setup                ...        0 min,  0.000 sec (  0.189%)
 model hessian                  ...        0 min,  0.009 sec ( 40.381%)
 ANC generation                 ...        0 min,  0.002 sec ( 10.038%)
 coordinate transformation      ...        0 min,  0.000 sec (  0.050%)
 single point calculation       ...        0 min,  0.010 sec ( 47.038%)
 optimization log               ...        0 min,  0.000 sec (  0.367%)
 hessian update                 ...        0 min,  0.000 sec (  0.002%)
 rational function              ...        0 min,  0.000 sec (  0.458%)

================
 final structure:
================
37
 xtb: 6.7.1-6.fc44.fc44
O           -4.96705800660000       -1.05109236910000        1.97965517940000
C           -3.95690664790000       -0.58501052130000        1.53239387750000
O           -2.80781825930000       -0.66365346700000        2.18502338850000
H           -2.03309678330000       -0.21244551900000        1.77803608270000
C           -3.97260323160000        0.13017683480000        0.17083836350000
H           -4.67990511990000        0.96234366320000        0.24688106050000
H           -4.36031921160000       -0.57999401820000       -0.56615605360000
N           -2.69420855810000        0.59195951640000       -0.30165544040000
H           -2.19035163490000        1.26154508760000        0.26453928870000
C           -2.04722922070000       -0.00102946180000       -1.32598320960000
O           -2.51596300260000       -0.88273195730000       -2.00920818570000
C           -0.61552460510000        0.52619405020000       -1.53051424080000
H           -0.54479583030000        1.57555363170000       -1.22835241580000
H           -0.34364475600000        0.42313320650000       -2.57953658990000
N            0.29686417740000       -0.26799067480000       -0.73590813800000
H            0.94620217730000       -0.90209844800000       -1.18236706700000
C            0.29684750410000       -0.26617974090000        0.59726578840000
O           -0.46930594590000        0.41520670820000        1.27288917220000
C            1.35897680010000       -1.16091723280000        1.21958555120000
N            1.67121959980000       -2.24741225070000        0.30283530100000
H            0.87730952130000       -2.87373273400000        0.21453388980000
H            2.45107667060000       -2.79115643550000        0.65587144090000
H            0.97375171500000       -1.50243318820000        2.19538244910000
C            2.61424225300000       -0.29629012530000        1.47885632620000
H            2.37563044460000        0.41463512260000        2.27094792140000
H            3.41604712350000       -0.95042212510000        1.82793033940000
C            3.03896142320000        0.43905606740000        0.23933092780000
C            3.81596509730000       -0.18341857350000       -0.72891589890000
H            4.15727452640000       -1.19523184750000       -0.57041091310000
C            4.15422335450000        0.48190842430000       -1.89445519940000
H            4.76025568800000       -0.01328201180000       -2.63881324090000
C            3.72009309650000        1.77908319200000       -2.10611950060000
H            3.98450197900000        2.29863141730000       -3.01502277480000
C            2.95052609130000        2.41023978240000       -1.14341638970000
H            2.61517427880000        3.42522828370000       -1.29913114960000
C            2.61289806750000        1.74373794350000        0.02072459350000
H            2.01132115570000        2.23885059690000        0.76991881400000

 Bond Distances (Angstroems)
 ---------------------------
O1-C2=1.1990         C2-O1=1.1990         C2-O3=1.3238         C2-C5=1.5380         O3-C2=1.3238         O3-H4=0.9846         
H4-O3=0.9846         C5-C2=1.5380         C5-H6=1.0948         C5-H7=1.0945         C5-N8=1.4390         H6-C5=1.0948         
H7-C5=1.0945         N8-C5=1.4390         N8-H9=1.0113         N8-C10=1.3489        H9-N8=1.0113         C10-N8=1.3489        
C10-O11=1.2099       C10-C12=1.5393       O11-C10=1.2099       C12-C10=1.5393       C12-H13=1.0943       C12-H14=1.0886       
C12-N15=1.4473       H13-C12=1.0943       H14-C12=1.0886       N15-C12=1.4473       N15-H16=1.0115       N15-C17=1.3332       
H16-N15=1.0115       C17-N15=1.3332       C17-O18=1.2279       C17-C19=1.5218       O18-C17=1.2279       C19-C17=1.5218       
C19-N20=1.4555       C19-H23=1.1033       C19-C24=1.5461       N20-C19=1.4555       N20-H21=1.0151       N20-H22=1.0141       
H21-N20=1.0151       H22-N20=1.0141       H23-C19=1.1033       C24-C19=1.5461       C24-H25=1.0908       C24-H26=1.0921       
C24-C27=1.5025       H25-C24=1.0908       H26-C24=1.0921       C27-C24=1.5025       C27-C28=1.3888       C27-C36=1.3898       
C28-C27=1.3888       C28-H29=1.0795       C28-C30=1.3840       H29-C28=1.0795       C30-C28=1.3840       C30-H31=1.0801       
C30-C32=1.3842       H31-C30=1.0801       C32-C30=1.3842       C32-H33=1.0798       C32-C34=1.3847       H33-C32=1.0798       
C34-C32=1.3847       C34-H35=1.0802       C34-C36=1.3833       H35-C34=1.0802       C36-C27=1.3898       C36-C34=1.3833       
C36-H37=1.0809       H37-C36=1.0809       
 C  H  Rav=1.0882 sigma=0.0076  Rmin=1.0795  Rmax=1.1033    12
 C  C  Rav=1.4511 sigma=0.0724  Rmin=1.3833  Rmax=1.5461    11
 N  H  Rav=1.0130 sigma=0.0016  Rmin=1.0113  Rmax=1.0151     4
 N  C  Rav=1.4048 sigma=0.0525  Rmin=1.3332  Rmax=1.4555     5
 O  H  Rav=0.9846 sigma=0.0000  Rmin=0.9846  Rmax=0.9846     1
 O  C  Rav=1.2402 sigma=0.0494  Rmin=1.1990  Rmax=1.3238     4

 selected bond angles (degree)
 --------------------
O3-C2-O1=121.62                C5-C2-O1=120.16                C5-C2-O3=118.22                H4-O3-C2=116.87                
H6-C5-C2=107.37                H7-C5-C2=107.34                H7-C5-H6=108.13                N8-C5-C2=115.52                
N8-C5-H6=110.66                N8-C5-H7=107.57                H9-N8-C5=118.11                C10-N8-C5=122.30               
C10-N8-H9=118.51               O11-C10-N8=124.29              C12-C10-N8=113.36              C12-C10-O11=122.34             

 selected dihedral angles (degree)
 ---------------------------------
H4-O3-C2-O1=183.41            H4-O3-C2-C5=  3.23            H6-C5-C2-O1= 59.02            H6-C5-C2-O3=239.21            
H7-C5-C2-O1=302.97            H7-C5-C2-O3=123.16            N8-C5-C2-O1=183.01            N8-C5-C2-O3=  3.19            
H9-N8-C5-C2=299.82            H9-N8-C5-H6= 62.07            H9-N8-C5-H7=179.99            C10-N8-C5-C2=107.76           
C10-N8-C5-H6=230.01           C10-N8-C5-H7=347.93           O11-C10-N8-C5=  6.65          O11-C10-N8-H9=174.55          
C12-C10-N8-C5=188.26          C12-C10-N8-H9=356.15          
           -------------------------------------------------
          |                Final Singlepoint                |
           -------------------------------------------------

          ...................................................
          :                      SETUP                      :
          :.................................................:
          :  # basis functions                  97          :
          :  # atomic orbitals                  97          :
          :  # shells                           57          :
          :  # electrons                       108          :
          :  max. iterations                   250          :
          :  Hamiltonian                  GFN2-xTB          :
          :  restarted?                      false          :
          :  GBSA solvation                  false          :
          :  PC potential                    false          :
          :  electronic temp.          300.0000000     K    :
          :  accuracy                    1.0000000          :
          :  -> integral cutoff          0.2500000E+02      :
          :  -> integral neglect         0.1000000E-07      :
          :  -> SCF convergence          0.1000000E-05 Eh   :
          :  -> wf. convergence          0.1000000E-03 e    :
          :  Broyden damping             0.4000000          :
          :  net charge                          0          :
          :  unpaired electrons                  0          :
          ...................................................

 iter      E             dE          RMSdq      gap      omega  full diag
   1    -62.3332845 -0.623333E+02  0.143E-05    4.23       0.0  T
   2    -62.3332845 -0.220268E-11  0.901E-06    4.23    1823.8  T
   3    -62.3332845 -0.625278E-12  0.596E-06    4.23    2758.4  T

   *** convergence criteria satisfied after 3 iterations ***

         #    Occupation            Energy/Eh            Energy/eV
      -------------------------------------------------------------
         1        2.0000           -0.7375459             -20.0696
       ...           ...                  ...                  ...
        48        2.0000           -0.4340179             -11.8102
        49        2.0000           -0.4266753             -11.6104
        50        2.0000           -0.4176443             -11.3647
        51        2.0000           -0.4114068             -11.1949
        52        2.0000           -0.4066357             -11.0651
        53        2.0000           -0.4025962             -10.9552
        54        2.0000           -0.4005662             -10.9000 (HOMO)
        55                         -0.2451861              -6.6719 (LUMO)
        56                         -0.2362870              -6.4297
        57                         -0.2343263              -6.3763
        58                         -0.2304432              -6.2707
        59                         -0.2251974              -6.1279
       ...                                ...                  ...
        97                          0.6510103              17.7149
      -------------------------------------------------------------
                  HL-Gap            0.1553801 Eh            4.2281 eV
             Fermi-level           -0.3228761 Eh           -8.7859 eV

 SCC (total)                   0 d,  0 h,  0 min,  0.014 sec
 SCC setup                      ...        0 min,  0.000 sec (  1.230%)
 Dispersion                     ...        0 min,  0.000 sec (  0.816%)
 classical contributions        ...        0 min,  0.000 sec (  0.236%)
 integral evaluation            ...        0 min,  0.001 sec (  3.902%)
 iterations                     ...        0 min,  0.010 sec ( 75.691%)
 molecular gradient             ...        0 min,  0.002 sec ( 15.860%)
 printout                       ...        0 min,  0.000 sec (  2.206%)

         :::::::::::::::::::::::::::::::::::::::::::::::::::::
         ::                     SUMMARY                     ::
         :::::::::::::::::::::::::::::::::::::::::::::::::::::
         :: total energy             -61.558589304758 Eh    ::
         :: gradient norm              0.000316946424 Eh/a0 ::
         :: HOMO-LUMO gap              4.228107270554 eV    ::
         ::.................................................::
         :: SCC energy               -62.332634812797 Eh    ::
         :: -> isotropic ES            0.132267240757 Eh    ::
         :: -> anisotropic ES          0.003068808066 Eh    ::
         :: -> anisotropic XC          0.020341296836 Eh    ::
         :: -> dispersion             -0.038610938481 Eh    ::
         :: repulsion energy           0.774045508038 Eh    ::
         :: add. restraining           0.000000000000 Eh    ::
         :: total charge               0.000000000000 e     ::
         :::::::::::::::::::::::::::::::::::::::::::::::::::::

           -------------------------------------------------
          |                Property Printout                |
           -------------------------------------------------

    * Orbital Energies and Occupations

         #    Occupation            Energy/Eh            Energy/eV
      -------------------------------------------------------------
         1        2.0000           -0.7375459             -20.0696
       ...           ...                  ...                  ...
        42        2.0000           -0.4802147             -13.0673
        43        2.0000           -0.4737983             -12.8927
        44        2.0000           -0.4626413             -12.5891
        45        2.0000           -0.4516531             -12.2901
        46        2.0000           -0.4434203             -12.0661
        47        2.0000           -0.4385616             -11.9339
        48        2.0000           -0.4340179             -11.8102
        49        2.0000           -0.4266753             -11.6104
        50        2.0000           -0.4176443             -11.3647
        51        2.0000           -0.4114068             -11.1949
        52        2.0000           -0.4066357             -11.0651
        53        2.0000           -0.4025962             -10.9552
        54        2.0000           -0.4005662             -10.9000 (HOMO)
        55                         -0.2451861              -6.6719 (LUMO)
        56                         -0.2362870              -6.4297
        57                         -0.2343263              -6.3763
        58                         -0.2304432              -6.2707
        59                         -0.2251974              -6.1279
        60                         -0.1079630              -2.9378
        61                         -0.0189160              -0.5147
        62                         -0.0162741              -0.4428
        63                          0.0171988               0.4680
        64                          0.0534470               1.4544
        65                          0.0604005               1.6436
       ...                                ...                  ...
        97                          0.6510103              17.7149
      -------------------------------------------------------------
                  HL-Gap            0.1553801 Eh            4.2281 eV
             Fermi-level           -0.3228761 Eh           -8.7859 eV

     #   Z          covCN         q      C6AA      α(0)
     1   8 O        0.857    -0.379    21.268     6.183
     2   6 C        2.685     0.356    20.958     7.492
     3   8 O        1.657    -0.372    20.322     6.086
     4   1 H        0.802     0.351     0.585     1.202
     5   6 C        3.740    -0.043    21.415     6.603
     6   1 H        0.924     0.078     1.996     2.209
     7   1 H        0.924     0.110     1.700     2.039
     8   7 N        2.686    -0.176    24.804     7.397
     9   1 H        0.860     0.200     1.106     1.647
    10   6 C        2.752     0.271    22.421     7.754
    11   8 O        0.858    -0.416    22.001     6.289
    12   6 C        3.744    -0.026    21.102     6.553
    13   1 H        0.924     0.064     2.149     2.293
    14   1 H        0.925     0.079     1.991     2.206
    15   7 N        2.690    -0.154    24.328     7.326
    16   1 H        0.860     0.210     1.058     1.612
    17   6 C        2.759     0.267    22.495     7.767
    18   8 O        0.858    -0.483    23.415     6.488
    19   6 C        3.788     0.034    20.020     6.373
    20   7 N        2.633    -0.352    29.066     8.007
    21   1 H        0.860     0.147     1.423     1.869
    22   1 H        0.860     0.154     1.377     1.838
    23   1 H        0.923     0.036     2.505     2.475
    24   6 C        3.812    -0.066    21.757     6.639
    25   1 H        0.924     0.054     2.266     2.354
    26   1 H        0.924     0.049     2.327     2.386
    27   6 C        2.970     0.010    27.801     8.649
    28   6 C        2.924    -0.037    28.932     8.821
    29   1 H        0.926     0.037     2.485     2.465
    30   6 C        2.919    -0.031    28.777     8.797
    31   1 H        0.926     0.034     2.533     2.489
    32   6 C        2.920    -0.033    28.819     8.803
    33   1 H        0.926     0.033     2.541     2.493
    34   6 C        2.919    -0.031    28.779     8.797
    35   1 H        0.926     0.032     2.555     2.499
    36   6 C        2.925    -0.039    28.981     8.828
    37   1 H        0.926     0.033     2.548     2.496

 Mol. C6AA /au·bohr⁶  :      14779.143011
 Mol. C8AA /au·bohr⁸  :     339501.867205
 Mol. α(0) /au        :        186.223151


Wiberg/Mayer (AO) data.
largest (>0.10) Wiberg bond orders for each atom

 ---------------------------------------------------------------------------
     #   Z sym  total        # sym  WBO       # sym  WBO       # sym  WBO
 ---------------------------------------------------------------------------
     1   8 O    2.060 --     2 C    1.770     3 O    0.173
     2   6 C    3.928 --     1 O    1.770     3 O    1.177     5 C    0.938
     3   8 O    2.228 --     2 C    1.177     4 H    0.799     1 O    0.173
     4   1 H    0.877 --     3 O    0.799
     5   6 C    3.963 --     8 N    1.005     6 H    0.949     7 H    0.945
                             2 C    0.938
     6   1 H    0.994 --     5 C    0.949
     7   1 H    0.988 --     5 C    0.945
     8   7 N    3.457 --    10 C    1.261     5 C    1.005     9 H    0.918
                            11 O    0.206
     9   1 H    0.960 --     8 N    0.918
    10   6 C    3.957 --    11 O    1.703     8 N    1.261    12 C    0.929
    11   8 O    2.030 --    10 C    1.703     8 N    0.206
    12   6 C    3.965 --    15 N    0.989    14 H    0.971    13 H    0.963
                            10 C    0.929
    13   1 H    0.996 --    12 C    0.963
    14   1 H    0.994 --    12 C    0.971
    15   7 N    3.496 --    17 C    1.322    12 C    0.989    16 H    0.914
                            18 O    0.187
    16   1 H    0.956 --    15 N    0.914
    17   6 C    3.947 --    18 O    1.586    15 N    1.322    19 C    0.951
    18   8 O    1.959 --    17 C    1.586    15 N    0.187
    19   6 C    3.985 --    20 N    1.016    24 C    0.954    23 H    0.953
                            17 C    0.951
    20   7 N    3.018 --    19 C    1.016    21 H    0.964    22 H    0.958
    21   1 H    0.978 --    20 N    0.964
    22   1 H    0.976 --    20 N    0.958
    23   1 H    0.998 --    19 C    0.953
    24   6 C    3.992 --    27 C    1.012    25 H    0.972    26 H    0.967
                            19 C    0.954
    25   1 H    0.997 --    24 C    0.972
    26   1 H    0.997 --    24 C    0.967
    27   6 C    3.989 --    28 C    1.414    36 C    1.411    24 C    1.012
                            32 C    0.110
    28   6 C    3.992 --    30 C    1.443    27 C    1.414    29 H    0.969
                            34 C    0.111
    29   1 H    0.999 --    28 C    0.969
    30   6 C    3.992 --    28 C    1.443    32 C    1.440    31 H    0.971
                            36 C    0.111
    31   1 H    0.999 --    30 C    0.971
    32   6 C    3.992 --    30 C    1.440    34 C    1.437    33 H    0.971
                            27 C    0.110
    33   1 H    0.998 --    32 C    0.971
    34   6 C    3.993 --    36 C    1.447    32 C    1.437    35 H    0.971
                            28 C    0.111
    35   1 H    0.999 --    34 C    0.971
    36   6 C    3.992 --    34 C    1.447    27 C    1.411    37 H    0.969
                            30 C    0.111
    37   1 H    0.999 --    36 C    0.969
 ---------------------------------------------------------------------------

Topologies differ in total number of bonds
Writing topology from bond orders to xtbtopo.mol

molecular dipole:
                 x           y           z       tot (Debye)
 q only:        2.325       0.825      -0.885
   full:        2.859       0.824      -0.774       7.813
molecular quadrupole (traceless):
                xx          xy          yy          xz          yz          zz
 q only:       -9.664     -18.481      11.668       9.179      -1.957      -2.004
  q+dip:      -17.898     -25.034      19.121      10.580      -3.880      -1.222
   full:      -16.249     -23.670      18.766      12.255      -3.422      -2.517

           -------------------------------------------------
          |                Geometry Summary                 |
           -------------------------------------------------

      molecular mass/u    :      279.2922888
   center of mass at/Å    :       -0.0000000      -0.0000000      -0.0000000
  moments of inertia/u·Å² :        0.7290649E+03   0.2673558E+04   0.2933971E+04
rotational constants/cm⁻¹ :        0.2312227E-01   0.6305317E-02   0.5745670E-02

 * 32 selected distances

     #   Z          #   Z                                           value/Å
     1   8 O        2   6 C                                       1.1990334
     2   6 C        3   8 O                                       1.3238257
     3   8 O        4   1 H                                       0.9845917 (min)
     5   6 C        6   1 H                                       1.0947878
     5   6 C        7   1 H                                       1.0944530
     5   6 C        8   7 N                                       1.4390229
     8   7 N        9   1 H                                       1.0113324
     8   7 N       10   6 C                                       1.3488758
    10   6 C       11   8 O                                       1.2099204
    12   6 C       13   1 H                                       1.0942852
    12   6 C       14   1 H                                       1.0885717
    12   6 C       15   7 N                                       1.4472671
    15   7 N       16   1 H                                       1.0114634
    15   7 N       17   6 C                                       1.3331753
    17   6 C       18   8 O                                       1.2279030
    19   6 C       20   7 N                                       1.4554719 (max)
    20   7 N       21   1 H                                       1.0150704
    20   7 N       22   1 H                                       1.0141349
    19   6 C       23   1 H                                       1.1032730
    24   6 C       25   1 H                                       1.0907610
    24   6 C       26   1 H                                       1.0920772
    27   6 C       28   6 C                                       1.3887806
    28   6 C       29   1 H                                       1.0795287
    28   6 C       30   6 C                                       1.3840379
    30   6 C       31   1 H                                       1.0800731
    30   6 C       32   6 C                                       1.3841725
    32   6 C       33   1 H                                       1.0797906
    32   6 C       34   6 C                                       1.3846984
    34   6 C       35   1 H                                       1.0802360
    27   6 C       36   6 C                                       1.3897891
    34   6 C       36   6 C                                       1.3832722
    36   6 C       37   1 H                                       1.0808902

 * 6 distinct bonds (by element types)

   Z      Z             #   av. dist./Å        max./Å        min./Å
   1 H    6 C          12     1.0882273     1.1032730     1.0795287
   6 C    6 C           6     1.3857918     1.3897891     1.3832722
   1 H    7 N           4     1.0130003     1.0150704     1.0113324
   6 C    7 N           5     1.4047626     1.4554719     1.3331753
   1 H    8 O           1     0.9845917     0.9845917     0.9845917
   6 C    8 O           4     1.2401706     1.3238257     1.1990334


optimized geometry written to: xtbopt.xyz


           -------------------------------------------------
          | TOTAL ENERGY              -61.558589304758 Eh   |
          | GRADIENT NORM               0.000316946424 Eh/α |
          | HOMO-LUMO GAP               4.228107270554 eV   |
           -------------------------------------------------

------------------------------------------------------------------------
 * finished run on 2026/10/01 at 17:55:00.488     
------------------------------------------------------------------------
 total:
 * wall-time:     0 d,  0 h,  0 min,  0.093 sec
 *  cpu-time:     0 d,  0 h,  0 min,  1.316 sec
 * ratio c/w:    14.081 speedup
 SCF:
 * wall-time:     0 d,  0 h,  0 min,  0.033 sec
 *  cpu-time:     0 d,  0 h,  0 min,  0.489 sec
 * ratio c/w:    14.868 speedup
 ANC optimizer:
 * wall-time:     0 d,  0 h,  0 min,  0.036 sec
 *  cpu-time:     0 d,  0 h,  0 min,  0.509 sec
 * ratio c/w:    13.959 speedup


--- STDERR ---
normal termination of xtb
Note: The following floating-point exceptions are signalling: IEEE_UNDERFLOW_FLAG IEEE_DENORMAL
