34
frame_0010
O      -0.500529882800000      2.160829667300000     -0.257597079900000
C      -0.481421200400000      1.858556983500000     -1.538341432400000
O       0.274753268000000      2.357607673000000     -2.323206388400000
H      -1.183333183700000      1.629907928400000      0.244566901300000
C      -1.571517353300000      0.862920475700000     -2.000589491500000
H      -1.434389444200000      0.682985922200000     -3.065926137100000
H      -2.536874164200000      1.362801502300000     -1.840581761900000
N      -1.570070460600000     -0.407968766700000     -1.304022419300000
H      -1.416985027700000     -1.254196688900000     -1.832055973400000
C      -1.918230171700000     -0.559054019600000     -0.023292016800000
O      -2.159736400300000      0.381806750200000      0.726150799100000
C      -1.970881438300000     -2.008747606600000      0.439515014700000
H      -2.542550414400000     -2.018774875800000      1.381539605400000
N      -2.549482792000000     -2.828615146700000     -0.618212716200000
H      -3.530410498300000     -2.602516663500000     -0.749055577800000
H      -2.492871100700000     -3.809822401300000     -0.366558441100000
C      -0.526364797200000     -2.486060755800000      0.718529847600000
H      -0.101091879100000     -2.837771702300000     -0.222740694400000
H      -0.557181675200000     -3.324668063600000      1.417563955700000
C       0.315241041300000     -1.375406614600000      1.256618359700000
C       0.300987231200000     -0.858389636100000      2.519715630200000
H      -0.258111174200000     -1.180531814000000      3.377372098700000
N       1.149803587200000      0.209111740300000      2.599106899000000
H       1.289233482900000      0.782830416700000      3.412690513400000
C       1.721227489900000      0.417278354700000      1.377276213900000
C       2.626524086500000      1.382244444400000      0.954932915200000
H       2.990067722500000      2.138510612900000      1.634550473000000
C       3.031456903700000      1.344795883900000     -0.360461814300000
H       3.724410917700000      2.086088644500000     -0.727420413200000
C       2.556245868700000      0.367729456900000     -1.239182214800000
H       2.895208763800000      0.378692337000000     -2.263912386200000
C       1.658426561700000     -0.589366624800000     -0.827768563000000
H       1.299724303900000     -1.339931057400000     -1.518064972900000
C       1.222821334500000     -0.572500240400000      0.498085163200000
