      -----------------------------------------------------------      
     |                   =====================                   |     
     |                           x T B                           |     
     |                   =====================                   |     
     |                         S. Grimme                         |     
     |          Mulliken Center for Theoretical Chemistry        |     
     |                    University of Bonn                     |     
      -----------------------------------------------------------      

   * xtb version 6.7.1-6.fc44.fc44 compiled by Fedora project on Sun Jan 18 23:32:34 UTC 2026

   xtb is free software: you can redistribute it and/or modify it under
   the terms of the GNU Lesser General Public License as published by
   the Free Software Foundation, either version 3 of the License, or
   (at your option) any later version.
   
   xtb is distributed in the hope that it will be useful,
   but WITHOUT ANY WARRANTY; without even the implied warranty of
   MERCHANTABILITY or FITNESS FOR A PARTICULAR PURPOSE.  See the
   GNU Lesser General Public License for more details.
   
   Cite this work as:
   * C. Bannwarth, E. Caldeweyher, S. Ehlert, A. Hansen, P. Pracht,
     J. Seibert, S. Spicher, S. Grimme, WIREs Comput. Mol. Sci., 2020, 11,
     e01493. DOI: 10.1002/wcms.1493
   
   for GFN2-xTB:
   * C. Bannwarth, S. Ehlert and S. Grimme., J. Chem. Theory Comput., 2019,
     15, 1652-1671. DOI: 10.1021/acs.jctc.8b01176
   for GFN1-xTB:
   * S. Grimme, C. Bannwarth, P. Shushkov, J. Chem. Theory Comput., 2017,
     13, 1989-2009. DOI: 10.1021/acs.jctc.7b00118
   for GFN0-xTB:
   * P. Pracht, E. Caldeweyher, S. Ehlert, S. Grimme, ChemRxiv, 2019, preprint.
     DOI: 10.26434/chemrxiv.8326202.v1
   for GFN-FF:
   * S. Spicher and S. Grimme, Angew. Chem. Int. Ed., 2020, 59, 15665-15673.
     DOI: 10.1002/anie.202004239
   
   for ALPB and GBSA implicit solvation:
   * S. Ehlert, M. Stahn, S. Spicher, S. Grimme, J. Chem. Theory Comput.,
     2021, 17, 4250-4261. DOI: 10.1021/acs.jctc.1c00471
   
   for ddCOSMO and CPCM-X implicit solvation:
   * M. Stahn, S. Ehlert, S. Grimme, J. Phys. Chem. A,
     2023, XX, XXXX-XXXX. DOI: 10.1021/acs.jpca.3c04382
   
   for DFT-D4:
   * E. Caldeweyher, C. Bannwarth and S. Grimme, J. Chem. Phys., 2017,
     147, 034112. DOI: 10.1063/1.4993215
   * E. Caldeweyher, S. Ehlert, A. Hansen, H. Neugebauer, S. Spicher,
     C. Bannwarth and S. Grimme, J. Chem. Phys., 2019, 150, 154122.
     DOI: 10.1063/1.5090222
   * E. Caldeweyher, J.-M. Mewes, S. Ehlert and S. Grimme, Phys. Chem. Chem. Phys.
     2020, 22, 8499-8512. DOI: 10.1039/D0CP00502A
   
   for sTDA-xTB:
   * S. Grimme and C. Bannwarth, J. Chem. Phys., 2016, 145, 054103.
     DOI: 10.1063/1.4959605
   
   in the mass-spec context:
   * V. Asgeirsson, C. Bauer and S. Grimme, Chem. Sci., 2017, 8, 4879.
     DOI: 10.1039/c7sc00601b
   * J. Koopman and S. Grimme, ACS Omega 2019, 4, 12, 15120-15133.
     DOI: 10.1021/acsomega.9b02011
   
   for metadynamics refer to:
   * S. Grimme, J. Chem. Theory Comput., 2019, 155, 2847-2862
     DOI: 10.1021/acs.jctc.9b00143
   
   for SPH calculations refer to:
   * S. Spicher and S. Grimme, J. Chem. Theory Comput., 2021, 17, 1701-1714
     DOI: 10.1021/acs.jctc.0c01306
   
   for ONIOM refer to:
   * C. Plett, A. Katbashev, S. Ehlert, S. Grimme, M. Bursch,
     Phys. Chem. Chem. Phys., 2023, 25, 17860-17868. DOI: 10.1039/D3CP02178E
   
   for DIPRO refer to:
   * J. Kohn, N. Gildemeister, S. Grimme, D. Fazzi, A. Hansen,
     J. Chem. Phys., 2023, just accepted.
   
   for PTB refer to:
   * S. Grimme, M. Mueller, A. Hansen, J. Chem. Phys., 2023, 158, 124111.
     DOI: 10.1063/5.0137838
   
   with help from (in alphabetical order)
   P. Atkinson, C. Bannwarth, F. Bohle, G. Brandenburg, E. Caldeweyher
   M. Checinski, S. Dohm, S. Ehlert, S. Ehrlich, I. Gerasimov, C. Hölzer
   A. Katbashev, J. Kohn, J. Koopman, C. Lavigne, S. Lehtola, F. März, M. Müller,
   F. Musil, H. Neugebauer, J. Pisarek, C. Plett, P. Pracht, F. Pultar,
   J. Seibert, P. Shushkov, S. Spicher, M. Stahn, M. Steiner, T. Strunk,
   J. Stückrath, T. Rose, and J. Unsleber
   
 * started run on 2026/10/01 at 18:03:08.807     
   ID    Z sym.   atoms
    1    8 O      1, 3, 11
    2    6 C      2, 5, 10, 12, 17, 20, 21, 25, 26, 28, 30, 32, 34
    3    1 H      4, 6, 7, 9, 13, 15, 16, 18, 19, 22, 24, 27, 29, 31, 33
    4    7 N      8, 14, 23

           -------------------------------------------------
          |                Calculation Setup                |
           -------------------------------------------------

          program call               : /usr/bin/xtb input.xyz --opt --gfn 2 --chrg 0 --uhf 0
          hostname                   : fedora
          coordinate file            : input.xyz
          omp threads                :                    16


           -------------------------------------------------
          |                 G F N 2 - x T B                 |
           -------------------------------------------------

        Reference                      10.1021/acs.jctc.8b01176
      * Hamiltonian:
        H0-scaling (s, p, d)           1.850000    2.230000    2.230000
        zeta-weighting                 0.500000
      * Dispersion:
        s8                             2.700000
        a1                             0.520000
        a2                             5.000000
        s9                             5.000000
      * Repulsion:
        kExp                           1.500000    1.000000
        rExp                           1.000000
      * Coulomb:
        alpha                          2.000000
        third order                    shell-resolved
        anisotropic                    true
        a3                             3.000000
        a5                             4.000000
        cn-shift                       1.200000
        cn-exp                         4.000000
        max-rad                        5.000000


          ...................................................
          :                      SETUP                      :
          :.................................................:
          :  # basis functions                  91          :
          :  # atomic orbitals                  91          :
          :  # shells                           53          :
          :  # electrons                       100          :
          :  max. iterations                   250          :
          :  Hamiltonian                  GFN2-xTB          :
          :  restarted?                      false          :
          :  GBSA solvation                  false          :
          :  PC potential                    false          :
          :  electronic temp.          300.0000000     K    :
          :  accuracy                    1.0000000          :
          :  -> integral cutoff          0.2500000E+02      :
          :  -> integral neglect         0.1000000E-07      :
          :  -> SCF convergence          0.1000000E-05 Eh   :
          :  -> wf. convergence          0.1000000E-03 e    :
          :  Broyden damping             0.4000000          :
          :  net charge                          0          :
          :  unpaired electrons                  0          :
          ...................................................

 iter      E             dE          RMSdq      gap      omega  full diag
   1    -57.0894390 -0.570894E+02  0.413E+00    3.24       0.0  T
   2    -57.2262075 -0.136769E+00  0.241E+00    3.57       1.0  T
   3    -57.2344234 -0.821587E-02  0.131E+00    3.59       1.0  T
   4    -57.2345406 -0.117208E-03  0.428E-01    3.38       1.0  T
   5    -57.2399390 -0.539833E-02  0.117E-01    3.36       1.0  T
   6    -57.2401362 -0.197229E-03  0.585E-02    3.37       1.0  T
   7    -57.2401792 -0.430324E-04  0.254E-02    3.37       1.0  T
   8    -57.2401803 -0.112023E-05  0.116E-02    3.38       1.5  T
   9    -57.2401827 -0.237770E-05  0.329E-03    3.38       5.2  T
  10    -57.2401828 -0.402294E-07  0.151E-03    3.38      11.4  T
  11    -57.2401828 -0.190427E-07  0.622E-04    3.38      27.6  T
  12    -57.2401828 -0.319687E-08  0.211E-04    3.38      81.2  T

   *** convergence criteria satisfied after 12 iterations ***

         #    Occupation            Energy/Eh            Energy/eV
      -------------------------------------------------------------
         1        2.0000           -0.7293215             -19.8458
       ...           ...                  ...                  ...
        44        2.0000           -0.4191063             -11.4045
        45        2.0000           -0.4098012             -11.1513
        46        2.0000           -0.4071637             -11.0795
        47        2.0000           -0.3994697             -10.8701
        48        2.0000           -0.3960679             -10.7776
        49        2.0000           -0.3740320             -10.1779
        50        2.0000           -0.3579766              -9.7410 (HOMO)
        51                         -0.2339030              -6.3648 (LUMO)
        52                         -0.2260722              -6.1517
        53                         -0.2215319              -6.0282
        54                         -0.1884659              -5.1284
        55                         -0.1547193              -4.2101
       ...                                ...                  ...
        91                          0.7253304              19.7372
      -------------------------------------------------------------
                  HL-Gap            0.1240736 Eh            3.3762 eV
             Fermi-level           -0.2959398 Eh           -8.0529 eV

 SCC (total)                   0 d,  0 h,  0 min,  0.246 sec
 SCC setup                      ...        0 min,  0.003 sec (  1.277%)
 Dispersion                     ...        0 min,  0.005 sec (  2.116%)
 classical contributions        ...        0 min,  0.004 sec (  1.486%)
 integral evaluation            ...        0 min,  0.021 sec (  8.517%)
 iterations                     ...        0 min,  0.206 sec ( 83.968%)
 molecular gradient             ...        0 min,  0.006 sec (  2.488%)
 printout                       ...        0 min,  0.000 sec (  0.138%)

         :::::::::::::::::::::::::::::::::::::::::::::::::::::
         ::                     SUMMARY                     ::
         :::::::::::::::::::::::::::::::::::::::::::::::::::::
         :: total energy             -56.480937267047 Eh    ::
         :: gradient norm              0.000096749148 Eh/a0 ::
         :: HOMO-LUMO gap              3.376215061671 eV    ::
         ::.................................................::
         :: SCC energy               -57.239214435560 Eh    ::
         :: -> isotropic ES            0.098900492126 Eh    ::
         :: -> anisotropic ES          0.003964309137 Eh    ::
         :: -> anisotropic XC          0.019356437862 Eh    ::
         :: -> dispersion             -0.040731469238 Eh    ::
         :: repulsion energy           0.758277168513 Eh    ::
         :: add. restraining           0.000000000000 Eh    ::
         :: total charge               0.000000000000 e     ::
         :::::::::::::::::::::::::::::::::::::::::::::::::::::

      ----------------------------------------------------------- 
     |                   =====================                   |
     |                        A N C O P T                        |
     |                   =====================                   |
     |               Approximate Normal Coordinate               |
     |                Rational Function Optimizer                |
      ----------------------------------------------------------- 
      ----------------------------------------------------------- 
     |                   =====================                   |
     |                        A N C O P T                        |
     |                   =====================                   |
     |               Approximate Normal Coordinate               |
     |                Rational Function Optimizer                |
      ----------------------------------------------------------- 

          ...................................................
          :                      SETUP                      :
          :.................................................:
          :   optimization level            normal          :
          :   max. optcycles                   200          :
          :   ANC micro-cycles                  20          :
          :   degrees of freedom                96          :
          :.................................................:
          :   RF solver                   davidson          :
          :   write xtbopt.log                true          :
          :   linear?                        false          :
          :   energy convergence         0.5000000E-05 Eh   :
          :   grad. convergence          0.1000000E-02 Eh/α :
          :   maxmium RF displ.          1.0000000          :
          :   Hlow (freq-cutoff)         0.1000000E-01      :
          :   Hmax (freq-cutoff)         5.0000000          :
          :   S6 in model hess.         20.0000000          :
          ...................................................

generating ANC from exact Hessian ...
Using Lindh-Hessian (1995)
 Shifting diagonal of input Hessian by    9.4740573844060635E-003
 Lowest  eigenvalues of input Hessian
    0.000000    0.000000    0.000000    0.000000    0.000000    0.000000
    0.010000    0.010773    0.011143    0.011881    0.012536    0.014921
    0.016001    0.018243    0.019314    0.021862    0.023032    0.025964
 Highest eigenvalues
    2.004422    2.013300    2.102128    2.209559    2.317400    2.368036


........................................................................
.............................. CYCLE    1 ..............................
........................................................................

 iter      E             dE          RMSdq      gap      omega  full diag
   1    -57.2401828 -0.572402E+02  0.982E-05    3.38       0.0  T
   2    -57.2401828 -0.519833E-10  0.574E-05    3.38     298.6  T
   3    -57.2401828 -0.919442E-11  0.372E-05    3.38     461.5  T
     SCC iter.                  ...        0 min,  0.054 sec
     gradient                   ...        0 min,  0.003 sec
 * total energy  :   -56.4809373 Eh     change       -0.5160388E-09 Eh
   gradient norm :     0.0000956 Eh/α   predicted     0.0000000E+00 (-100.00%)
   displ. norm   :     0.0001434 α      lambda        0.0000000E+00
   maximum displ.:     0.0000894 α      in ANC's #93, #91, #87, ...

   *** GEOMETRY OPTIMIZATION CONVERGED AFTER 1 ITERATIONS ***

------------------------------------------------------------------------
 total energy gain   :        -0.0000000 Eh       -0.0000 kcal/mol
 total RMSD          :         0.0000000 a0        0.0000 Å
 total power (kW/mol):        -0.0000014 (step)   -0.0000 (real)
------------------------------------------------------------------------

 ANCopt (total)                0 d,  0 h,  0 min,  0.165 sec
 optimizer setup                ...        0 min,  0.000 sec (  0.086%)
 model hessian                  ...        0 min,  0.010 sec (  6.109%)
 ANC generation                 ...        0 min,  0.058 sec ( 35.259%)
 coordinate transformation      ...        0 min,  0.000 sec (  0.008%)
 single point calculation       ...        0 min,  0.096 sec ( 58.307%)
 optimization log               ...        0 min,  0.000 sec (  0.048%)
 hessian update                 ...        0 min,  0.000 sec (  0.000%)
 rational function              ...        0 min,  0.000 sec (  0.039%)

================
 final structure:
================
34
 xtb: 6.7.1-6.fc44.fc44
O           -0.50052988280000        2.16082966730000       -0.25759707990000
C           -0.48142120040000        1.85855698350000       -1.53834143240000
O            0.27475326800000        2.35760767300000       -2.32320638840000
H           -1.18333318370000        1.62990792840000        0.24456690130000
C           -1.57151735330000        0.86292047570000       -2.00058949150000
H           -1.43438944420000        0.68298592220000       -3.06592613710000
H           -2.53687416420000        1.36280150230000       -1.84058176190000
N           -1.57007046060000       -0.40796876670000       -1.30402241930000
H           -1.41698502770000       -1.25419668890000       -1.83205597340000
C           -1.91823017170000       -0.55905401960000       -0.02329201680000
O           -2.15973640030000        0.38180675020000        0.72615079910000
C           -1.97088143830000       -2.00874760660000        0.43951501470000
H           -2.54255041440000       -2.01877487580000        1.38153960540000
N           -2.54948279200000       -2.82861514670000       -0.61821271620000
H           -3.53041049830000       -2.60251666350000       -0.74905557780000
H           -2.49287110070000       -3.80982240130000       -0.36655844110000
C           -0.52636479720000       -2.48606075580000        0.71852984760000
H           -0.10109187910000       -2.83777170230000       -0.22274069440000
H           -0.55718167520000       -3.32466806360000        1.41756395570000
C            0.31524104130000       -1.37540661460000        1.25661835970000
C            0.30098723120000       -0.85838963610000        2.51971563020000
H           -0.25811117420000       -1.18053181400000        3.37737209870000
N            1.14980358720000        0.20911174030000        2.59910689900000
H            1.28923348290000        0.78283041670000        3.41269051340000
C            1.72122748990000        0.41727835470000        1.37727621390000
C            2.62652408650000        1.38224444440000        0.95493291520000
H            2.99006772250000        2.13851061290000        1.63455047300000
C            3.03145690370000        1.34479588390000       -0.36046181430000
H            3.72441091770000        2.08608864450000       -0.72742041320000
C            2.55624586870000        0.36772945690000       -1.23918221480000
H            2.89520876380000        0.37869233700000       -2.26391238620000
C            1.65842656170000       -0.58936662480000       -0.82776856300000
H            1.29972430390000       -1.33993105740000       -1.51806497290000
C            1.22282133450000       -0.57250024040000        0.49808516320000

 Bond Distances (Angstroems)
 ---------------------------
O1-C2=1.3161         O1-H4=1.0001         C2-O1=1.3161         C2-O3=1.1987         C2-C5=1.5470         O3-C2=1.1987         
H4-O1=1.0001         C5-C2=1.5470         C5-H6=1.0891         C5-H7=1.0988         C5-N8=1.4493         H6-C5=1.0891         
H7-C5=1.0988         N8-C5=1.4493         N8-H9=1.0091         N8-C10=1.3358        H9-N8=1.0091         C10-N8=1.3358        
C10-O11=1.2269       C10-C12=1.5227       O11-C10=1.2269       C12-C10=1.5227       C12-H13=1.1020       C12-N14=1.4580       
C12-C17=1.5467       H13-C12=1.1020       N14-C12=1.4580       N14-H15=1.0151       N14-H16=1.0145       H15-N14=1.0151       
H16-N14=1.0145       C17-C12=1.5467       C17-H18=1.0911       C17-H19=1.0922       C17-C20=1.4938       H18-C17=1.0911       
H19-C17=1.0922       C20-C17=1.4938       C20-C21=1.3649       C20-C34=1.4296       C21-C20=1.3649       C21-H22=1.0733       
C21-N23=1.3661       H22-C21=1.0733       N23-C21=1.3661       N23-H24=1.0052       N23-C25=1.3648       H24-N23=1.0052       
C25-N23=1.3648       C25-C26=1.3889       C25-C34=1.4146       C26-C25=1.3889       C26-H27=1.0798       C26-C28=1.3768       
H27-C26=1.0798       C28-C26=1.3768       C28-H29=1.0791       C28-C30=1.3974       H29-C28=1.0791       C30-C28=1.3974       
C30-H31=1.0794       C30-C32=1.3753       H31-C30=1.0794       C32-C30=1.3753       C32-H33=1.0810       C32-C34=1.3957       
H33-C32=1.0810       C34-C20=1.4296       C34-C25=1.4146       C34-C32=1.3957       
 C  H  Rav=1.0866 sigma=0.0090  Rmin=1.0733  Rmax=1.1020    10
 C  C  Rav=1.4378 sigma=0.0668  Rmin=1.3649  Rmax=1.5470    12
 N  H  Rav=1.0110 sigma=0.0041  Rmin=1.0052  Rmax=1.0151     4
 N  C  Rav=1.3948 sigma=0.0493  Rmin=1.3358  Rmax=1.4580     5
 O  H  Rav=1.0001 sigma=0.0000  Rmin=1.0001  Rmax=1.0001     1
 O  C  Rav=1.2472 sigma=0.0500  Rmin=1.1987  Rmax=1.3161     3

 selected bond angles (degree)
 --------------------
H4-O1-C2=112.12                O3-C2-O1=123.42                C5-C2-O1=115.36                C5-C2-O3=121.12                
H6-C5-C2=108.05                H7-C5-C2=106.43                H7-C5-H6=109.16                N8-C5-C2=114.84                
N8-C5-H6=108.97                N8-C5-H7=109.26                H9-N8-C5=118.95                C10-N8-C5=124.04               
C10-N8-H9=116.51               O11-C10-N8=123.38              C12-C10-N8=114.09              C12-C10-O11=122.52             

 selected dihedral angles (degree)
 ---------------------------------
O3-C2-O1-H4=181.29            C5-C2-O1-H4=  4.90            H6-C5-C2-O1=181.12            H6-C5-C2-O3=  4.65            
H7-C5-C2-O1= 63.99            H7-C5-C2-O3=247.52            N8-C5-C2-O1=302.97            N8-C5-C2-O3=126.50            
H9-N8-C5-C2=240.93            H9-N8-C5-H6=  2.28            H9-N8-C5-H7=121.47            C10-N8-C5-C2= 69.35           
C10-N8-C5-H6=190.70           C10-N8-C5-H7=309.90           O11-C10-N8-C5=353.22          O11-C10-N8-H9=181.45          
C12-C10-N8-C5=174.09          C12-C10-N8-H9=  2.33          
           -------------------------------------------------
          |                Final Singlepoint                |
           -------------------------------------------------

          ...................................................
          :                      SETUP                      :
          :.................................................:
          :  # basis functions                  91          :
          :  # atomic orbitals                  91          :
          :  # shells                           53          :
          :  # electrons                       100          :
          :  max. iterations                   250          :
          :  Hamiltonian                  GFN2-xTB          :
          :  restarted?                      false          :
          :  GBSA solvation                  false          :
          :  PC potential                    false          :
          :  electronic temp.          300.0000000     K    :
          :  accuracy                    1.0000000          :
          :  -> integral cutoff          0.2500000E+02      :
          :  -> integral neglect         0.1000000E-07      :
          :  -> SCF convergence          0.1000000E-05 Eh   :
          :  -> wf. convergence          0.1000000E-03 e    :
          :  Broyden damping             0.4000000          :
          :  net charge                          0          :
          :  unpaired electrons                  0          :
          ...................................................

 iter      E             dE          RMSdq      gap      omega  full diag
   1    -57.2401828 -0.572402E+02  0.123E-05    3.38       0.0  T
   2    -57.2401828 -0.753175E-12  0.889E-06    3.38    1929.8  T
   3    -57.2401828 -0.164135E-11  0.502E-06    3.38    3414.3  T

   *** convergence criteria satisfied after 3 iterations ***

         #    Occupation            Energy/Eh            Energy/eV
      -------------------------------------------------------------
         1        2.0000           -0.7293235             -19.8459
       ...           ...                  ...                  ...
        44        2.0000           -0.4191069             -11.4045
        45        2.0000           -0.4098009             -11.1513
        46        2.0000           -0.4071635             -11.0795
        47        2.0000           -0.3994706             -10.8701
        48        2.0000           -0.3960684             -10.7776
        49        2.0000           -0.3740318             -10.1779
        50        2.0000           -0.3579764              -9.7410 (HOMO)
        51                         -0.2339037              -6.3648 (LUMO)
        52                         -0.2260733              -6.1518
        53                         -0.2215323              -6.0282
        54                         -0.1884655              -5.1284
        55                         -0.1547191              -4.2101
       ...                                ...                  ...
        91                          0.7253303              19.7372
      -------------------------------------------------------------
                  HL-Gap            0.1240726 Eh            3.3762 eV
             Fermi-level           -0.2959401 Eh           -8.0529 eV

 SCC (total)                   0 d,  0 h,  0 min,  0.156 sec
 SCC setup                      ...        0 min,  0.003 sec (  1.697%)
 Dispersion                     ...        0 min,  0.009 sec (  5.801%)
 classical contributions        ...        0 min,  0.011 sec (  7.100%)
 integral evaluation            ...        0 min,  0.008 sec (  4.969%)
 iterations                     ...        0 min,  0.101 sec ( 64.769%)
 molecular gradient             ...        0 min,  0.024 sec ( 15.417%)
 printout                       ...        0 min,  0.000 sec (  0.235%)

         :::::::::::::::::::::::::::::::::::::::::::::::::::::
         ::                     SUMMARY                     ::
         :::::::::::::::::::::::::::::::::::::::::::::::::::::
         :: total energy             -56.480937267585 Eh    ::
         :: gradient norm              0.000096514864 Eh/a0 ::
         :: HOMO-LUMO gap              3.376188028019 eV    ::
         ::.................................................::
         :: SCC energy               -57.239214436098 Eh    ::
         :: -> isotropic ES            0.098899863610 Eh    ::
         :: -> anisotropic ES          0.003964460352 Eh    ::
         :: -> anisotropic XC          0.019356328544 Eh    ::
         :: -> dispersion             -0.040731495232 Eh    ::
         :: repulsion energy           0.758277168513 Eh    ::
         :: add. restraining           0.000000000000 Eh    ::
         :: total charge              -0.000000000000 e     ::
         :::::::::::::::::::::::::::::::::::::::::::::::::::::

           -------------------------------------------------
          |                Property Printout                |
           -------------------------------------------------

    * Orbital Energies and Occupations

         #    Occupation            Energy/Eh            Energy/eV
      -------------------------------------------------------------
         1        2.0000           -0.7293235             -19.8459
       ...           ...                  ...                  ...
        38        2.0000           -0.4592543             -12.4969
        39        2.0000           -0.4583205             -12.4715
        40        2.0000           -0.4470218             -12.1641
        41        2.0000           -0.4445125             -12.0958
        42        2.0000           -0.4410755             -12.0023
        43        2.0000           -0.4197803             -11.4228
        44        2.0000           -0.4191069             -11.4045
        45        2.0000           -0.4098009             -11.1513
        46        2.0000           -0.4071635             -11.0795
        47        2.0000           -0.3994706             -10.8701
        48        2.0000           -0.3960684             -10.7776
        49        2.0000           -0.3740318             -10.1779
        50        2.0000           -0.3579764              -9.7410 (HOMO)
        51                         -0.2339037              -6.3648 (LUMO)
        52                         -0.2260733              -6.1518
        53                         -0.2215323              -6.0282
        54                         -0.1884655              -5.1284
        55                         -0.1547191              -4.2101
        56                         -0.0636442              -1.7318
        57                         -0.0187979              -0.5115
        58                          0.0199533               0.5430
        59                          0.0326364               0.8881
        60                          0.0574948               1.5645
        61                          0.0850754               2.3150
       ...                                ...                  ...
        91                          0.7253303              19.7372
      -------------------------------------------------------------
                  HL-Gap            0.1240726 Eh            3.3762 eV
             Fermi-level           -0.2959401 Eh           -8.0529 eV

     #   Z          covCN         q      C6AA      α(0)
     1   8 O        1.654    -0.378    20.424     6.101
     2   6 C        2.684     0.361    20.882     7.478
     3   8 O        0.856    -0.380    21.279     6.185
     4   1 H        0.800     0.365     0.555     1.171
     5   6 C        3.736    -0.039    21.365     6.596
     6   1 H        0.925     0.078     2.000     2.212
     7   1 H        0.923     0.073     2.055     2.242
     8   7 N        2.687    -0.155    24.358     7.330
     9   1 H        0.860     0.203     1.089     1.635
    10   6 C        2.757     0.270    22.445     7.758
    11   8 O        0.859    -0.460    22.924     6.419
    12   6 C        3.788     0.032    20.052     6.378
    13   1 H        0.923     0.032     2.561     2.503
    14   7 N        2.634    -0.353    29.092     8.011
    15   1 H        0.860     0.142     1.458     1.891
    16   1 H        0.860     0.151     1.396     1.851
    17   6 C        3.808    -0.064    21.724     6.635
    18   1 H        0.924     0.054     2.270     2.356
    19   1 H        0.924     0.040     2.443     2.444
    20   6 C        3.059    -0.041    28.946     8.823
    21   6 C        3.032    -0.004    28.087     8.693
    22   1 H        0.926     0.031     2.567     2.505
    23   7 N        2.781    -0.100    23.189     7.152
    24   1 H        0.860     0.161     1.331     1.807
    25   6 C        3.089     0.047    26.840     8.492
    26   6 C        2.909    -0.047    29.167     8.856
    27   1 H        0.926     0.027     2.629     2.536
    28   6 C        2.925    -0.029    28.715     8.788
    29   1 H        0.926     0.035     2.515     2.480
    30   6 C        2.920    -0.035    28.880     8.813
    31   1 H        0.926     0.032     2.555     2.500
    32   6 C        2.912    -0.042    29.041     8.837
    33   1 H        0.926     0.016     2.789     2.612
    34   6 C        3.117    -0.024    28.427     8.733

 Mol. C6AA /au·bohr⁶  :      13343.012602
 Mol. C8AA /au·bohr⁸  :     312478.379843
 Mol. α(0) /au        :        178.819326


Wiberg/Mayer (AO) data.
largest (>0.10) Wiberg bond orders for each atom

 ---------------------------------------------------------------------------
     #   Z sym  total        # sym  WBO       # sym  WBO       # sym  WBO
 ---------------------------------------------------------------------------
     1   8 O    2.232 --     2 C    1.204     4 H    0.763     3 O    0.182
     2   6 C    3.932 --     3 O    1.770     1 O    1.204     5 C    0.924
     3   8 O    2.063 --     2 C    1.770     1 O    0.182
     4   1 H    0.867 --     1 O    0.763
     5   6 C    3.964 --     8 N    0.992     6 H    0.974     7 H    0.951
                             2 C    0.924
     6   1 H    0.994 --     5 C    0.974
     7   1 H    0.995 --     5 C    0.951
     8   7 N    3.483 --    10 C    1.311     5 C    0.992     9 H    0.924
                            11 O    0.193
     9   1 H    0.959 --     8 N    0.924
    10   6 C    3.946 --    11 O    1.604     8 N    1.311    12 C    0.950
    11   8 O    2.013 --    10 C    1.604     8 N    0.193
    12   6 C    3.981 --    14 N    1.012    13 H    0.959    17 C    0.957
                            10 C    0.950
    13   1 H    0.999 --    12 C    0.959
    14   7 N    3.008 --    12 C    1.012    15 H    0.965    16 H    0.961
    15   1 H    0.979 --    14 N    0.965
    16   1 H    0.977 --    14 N    0.961
    17   6 C    3.992 --    20 C    1.012    19 H    0.971    18 H    0.971
                            12 C    0.957
    18   1 H    0.997 --    17 C    0.971
    19   1 H    0.997 --    17 C    0.971
    20   6 C    3.973 --    21 C    1.578    34 C    1.204    17 C    1.012
    21   6 C    3.952 --    20 C    1.578    23 N    1.203    22 H    0.970
    22   1 H    0.998 --    21 C    0.970
    23   7 N    3.548 --    21 C    1.203    25 C    1.175    24 H    0.947
    24   1 H    0.973 --    23 N    0.947
    25   6 C    3.959 --    26 C    1.336    34 C    1.251    23 N    1.175
    26   6 C    3.990 --    28 C    1.498    25 C    1.336    27 H    0.968
                            32 C    0.114
    27   1 H    0.999 --    26 C    0.968
    28   6 C    3.992 --    26 C    1.498    30 C    1.368    29 H    0.972
    29   1 H    0.998 --    28 C    0.972
    30   6 C    3.991 --    32 C    1.508    28 C    1.368    31 H    0.971
    31   1 H    0.999 --    30 C    0.971
    32   6 C    3.992 --    30 C    1.508    34 C    1.326    33 H    0.968
                            26 C    0.114
    33   1 H    0.999 --    32 C    0.968
    34   6 C    3.984 --    32 C    1.326    25 C    1.251    20 C    1.204
 ---------------------------------------------------------------------------

Topologies differ in total number of bonds
Writing topology from bond orders to xtbtopo.mol

molecular dipole:
                 x           y           z       tot (Debye)
 q only:       -0.678      -1.622       0.332
   full:       -1.235      -2.072       0.754       6.423
molecular quadrupole (traceless):
                xx          xy          yy          xz          yz          zz
 q only:        0.374       3.578      -4.271      10.744       7.794       3.897
  q+dip:        1.084       9.029      -6.280       9.990       9.347       5.196
   full:        2.738       6.871      -5.830      11.626       8.543       3.092

           -------------------------------------------------
          |                Geometry Summary                 |
           -------------------------------------------------

      molecular mass/u    :      261.2770023
   center of mass at/Å    :       -0.0000000       0.0000000      -0.0000000
  moments of inertia/u·Å² :        0.9396273E+03   0.1230245E+04   0.1657774E+04
rotational constants/cm⁻¹ :        0.1794076E-01   0.1370266E-01   0.1016884E-01

 * 31 selected distances

     #   Z          #   Z                                           value/Å
     1   8 O        2   6 C                                       1.3160700
     2   6 C        3   8 O                                       1.1986929
     1   8 O        4   1 H                                       1.0001335 (min)
     5   6 C        6   1 H                                       1.0890927
     5   6 C        7   1 H                                       1.0988164
     5   6 C        8   7 N                                       1.4492645
     8   7 N        9   1 H                                       1.0091365
     8   7 N       10   6 C                                       1.3357817
    10   6 C       11   8 O                                       1.2268696
    12   6 C       13   1 H                                       1.1019603
    12   6 C       14   7 N                                       1.4579954 (max)
    14   7 N       15   1 H                                       1.0151156
    14   7 N       16   1 H                                       1.0145455
    17   6 C       18   1 H                                       1.0911224
    17   6 C       19   1 H                                       1.0921817
    20   6 C       21   6 C                                       1.3648900
    21   6 C       22   1 H                                       1.0732853
    21   6 C       23   7 N                                       1.3661448
    23   7 N       24   1 H                                       1.0052424
    23   7 N       25   6 C                                       1.3648184
    25   6 C       26   6 C                                       1.3889189
    26   6 C       27   1 H                                       1.0798068
    26   6 C       28   6 C                                       1.3768212
    28   6 C       29   1 H                                       1.0790547
    28   6 C       30   6 C                                       1.3973669
    30   6 C       31   1 H                                       1.0793925
    30   6 C       32   6 C                                       1.3752723
    32   6 C       33   1 H                                       1.0809827
    20   6 C       34   6 C                                       1.4295921
    25   6 C       34   6 C                                       1.4145839
    32   6 C       34   6 C                                       1.3956808

 * 6 distinct bonds (by element types)

   Z      Z             #   av. dist./Å        max./Å        min./Å
   1 H    6 C          10     1.0865696     1.1019603     1.0732853
   6 C    6 C           8     1.3928908     1.4295921     1.3648900
   1 H    7 N           4     1.0110100     1.0151156     1.0052424
   6 C    7 N           5     1.3948010     1.4579954     1.3357817
   1 H    8 O           1     1.0001335     1.0001335     1.0001335
   6 C    8 O           3     1.2472109     1.3160700     1.1986929


optimized geometry written to: xtbopt.xyz


           -------------------------------------------------
          | TOTAL ENERGY              -56.480937267585 Eh   |
          | GRADIENT NORM               0.000096514864 Eh/α |
          | HOMO-LUMO GAP               3.376188028019 eV   |
           -------------------------------------------------

------------------------------------------------------------------------
 * finished run on 2026/10/01 at 18:03:09.400     
------------------------------------------------------------------------
 total:
 * wall-time:     0 d,  0 h,  0 min,  0.592 sec
 *  cpu-time:     0 d,  0 h,  0 min,  8.080 sec
 * ratio c/w:    13.638 speedup
 SCF:
 * wall-time:     0 d,  0 h,  0 min,  0.246 sec
 *  cpu-time:     0 d,  0 h,  0 min,  3.448 sec
 * ratio c/w:    14.016 speedup
 ANC optimizer:
 * wall-time:     0 d,  0 h,  0 min,  0.323 sec
 *  cpu-time:     0 d,  0 h,  0 min,  4.320 sec
 * ratio c/w:    13.387 speedup


--- STDERR ---
normal termination of xtb
Note: The following floating-point exceptions are signalling: IEEE_UNDERFLOW_FLAG IEEE_DENORMAL
