34
frame_0068
O      -3.172325653300000      2.548204383200000     -2.043327719400000
C      -4.078862251800000      2.443700886300000     -1.091213342500000
O      -4.703131185500000      3.375613995400000     -0.669752824800000
H      -2.725697075200000      1.677852851500000     -2.231653235600000
C      -4.297514576100000      1.008309785200000     -0.563240856700000
H      -4.583532605900000      0.379763685300000     -1.415615193000000
H      -5.105076059900000      1.022485319000000      0.167216869500000
N      -3.106397571200000      0.446622424400000      0.052279579400000
H      -3.107644586300000      0.327144016900000      1.051646300900000
C      -2.055663701800000      0.021039352500000     -0.668670900500000
O      -1.991423255600000      0.189671848900000     -1.880769478800000
C      -0.924292401000000     -0.619609780400000      0.112520540100000
H      -1.262216923400000     -0.917953733900000      1.113111532400000
N      -0.505626544700000     -1.812191781600000     -0.589622146100000
H       0.393459870800000     -2.130177643800000     -0.243563317100000
H      -0.410764637200000     -1.603473507400000     -1.579077713500000
C       0.178715267700000      0.471095032200000      0.265121567200000
H      -0.250178436800000      1.336609345500000      0.775128010800000
H       0.496333122500000      0.778599417600000     -0.733238245200000
C       1.341628018000000     -0.054731281300000      1.034535998000000
C       1.504278213400000     -0.043449674500000      2.390064722900000
H       0.866609365300000      0.375315919000000      3.145449026800000
N       2.675793839200000     -0.662155680000000      2.730268823800000
H       3.028504689800000     -0.768764372600000      3.665747873300000
C       3.298031453800000     -1.091943471700000      1.594490576100000
C       4.499484456200000     -1.767981672100000      1.422584899900000
H       5.111688568500000     -2.039523270800000      2.269982488000000
C       4.879783232300000     -2.075063579900000      0.134509516400000
H       5.807561481200000     -2.600324362100000     -0.036205231300000
C       4.089584991600000     -1.716300729500000     -0.961619508500000
H       4.427311363100000     -1.972140496300000     -1.954936672600000
C       2.898900125400000     -1.046445819100000     -0.798664995300000
H       2.301277249100000     -0.769330175200000     -1.654738128800000
C       2.482771533800000     -0.728277426000000      0.495351370500000
