34
 energy: -56.474694076720 gnorm: 0.000158666201 xtb: 6.7.1-6.fc44.fc44
O           -3.17232565330000        2.54820438320000       -2.04332771940000
C           -4.07886225180000        2.44370088630000       -1.09121334250000
O           -4.70313118550000        3.37561399540000       -0.66975282480000
H           -2.72569707520000        1.67785285150000       -2.23165323560000
C           -4.29751457610000        1.00830978520000       -0.56324085670000
H           -4.58353260590000        0.37976368530000       -1.41561519300000
H           -5.10507605990000        1.02248531900000        0.16721686950000
N           -3.10639757120000        0.44662242440000        0.05227957940000
H           -3.10764458630000        0.32714401690000        1.05164630090000
C           -2.05566370180000        0.02103935250000       -0.66867090050000
O           -1.99142325560000        0.18967184890000       -1.88076947880000
C           -0.92429240100000       -0.61960978040000        0.11252054010000
H           -1.26221692340000       -0.91795373390000        1.11311153240000
N           -0.50562654470000       -1.81219178160000       -0.58962214610000
H            0.39345987080000       -2.13017764380000       -0.24356331710000
H           -0.41076463720000       -1.60347350740000       -1.57907771350000
C            0.17871526770000        0.47109503220000        0.26512156720000
H           -0.25017843680000        1.33660934550000        0.77512801080000
H            0.49633312250000        0.77859941760000       -0.73323824520000
C            1.34162801800000       -0.05473128130000        1.03453599800000
C            1.50427821340000       -0.04344967450000        2.39006472290000
H            0.86660936530000        0.37531591900000        3.14544902680000
N            2.67579383920000       -0.66215568000000        2.73026882380000
H            3.02850468980000       -0.76876437260000        3.66574787330000
C            3.29803145380000       -1.09194347170000        1.59449057610000
C            4.49948445620000       -1.76798167210000        1.42258489990000
H            5.11168856850000       -2.03952327080000        2.26998248800000
C            4.87978323230000       -2.07506357990000        0.13450951640000
H            5.80756148120000       -2.60032436210000       -0.03620523130000
C            4.08958499160000       -1.71630072950000       -0.96161950850000
H            4.42731136310000       -1.97214049630000       -1.95493667260000
C            2.89890012540000       -1.04644581910000       -0.79866499530000
H            2.30127724910000       -0.76933017520000       -1.65473812880000
C            2.48277153380000       -0.72827742600000        0.49535137050000
