34
frame_0059
O       0.048205785000000      3.262613439100000     -0.379184407900000
C      -0.508276862300000      2.123237070300000     -0.805690672500000
O      -0.244974381800000      1.660517471600000     -1.877648355500000
H      -0.197671770200000      3.487958144400000      0.527873534400000
C      -1.525327977700000      1.503749986800000      0.141104638000000
H      -2.434237131100000      2.124720259000000      0.112793392800000
H      -1.152372083500000      1.486818070600000      1.173322558500000
N      -1.812335259500000      0.155046978100000     -0.263130282700000
H      -1.527222152500000     -0.114841636700000     -1.198514470600000
C      -2.014726036500000     -0.830245007900000      0.634789520200000
O      -2.237789633600000     -0.630907093500000      1.811113362600000
C      -1.904739673100000     -2.227070092800000      0.029678641000000
H      -2.580855036700000     -2.894920787500000      0.590658017000000
N      -2.182023725900000     -2.183040841900000     -1.397571593100000
H      -3.156305048700000     -1.954048060200000     -1.562086529200000
H      -1.998103593300000     -3.087534558900000     -1.817709350700000
C      -0.451014543900000     -2.701274459400000      0.266052216900000
H      -0.311309686900000     -3.657416989000000     -0.244162185400000
H      -0.312602758900000     -2.854073274300000      1.336893893100000
C       0.537683319500000     -1.699597048300000     -0.230722424500000
C       1.000352946100000     -1.549357333700000     -1.505893352200000
H       0.790062421700000     -2.142731292900000     -2.374533482200000
N       1.845059706400000     -0.477323518900000     -1.580622413800000
H       2.241890877800000     -0.108264481700000     -2.427165819800000
C       1.919635809500000      0.114350102200000     -0.355958702600000
C       2.612127726200000      1.244339094900000      0.060788872600000
H       3.219456530900000      1.810626004900000     -0.628950565300000
C       2.480925913300000      1.622812340800000      1.379311581700000
H       3.000007611900000      2.500637804900000      1.735788832700000
C       1.687930545100000      0.891344807000000      2.269620215500000
H       1.614321859000000      1.221128582100000      3.296137811500000
C       1.006663700500000     -0.235599245000000      1.866311422900000
H       0.389471246800000     -0.785871214700000      2.560026661100000
C       1.111000698100000     -0.635772435700000      0.533656281800000
