68
frame_0002
O       1.103812080500000     -0.451368057400000      1.279141822300000
O       0.842836566900000     -0.824150311700000     -1.715123471500000
O      -3.246818025100000     -2.567386522200000      0.193049454900000
O      -3.245073858600000      3.167527961800000      0.205586275100000
O      -1.317678019600000      1.625822499400000     -1.417546985800000
O       2.140451118400000      2.805803282300000      1.266374228400000
N       0.418308102700000     -2.551240019100000     -0.379100297800000
N      -2.245111177000000     -0.891227922500000     -0.940103855400000
N      -3.845750812400000      1.016038669300000      0.256560836600000
N      -0.605208485700000      2.259188782800000      0.626622393300000
N       1.916125835300000      1.713457859500000     -0.699382924900000
N       3.203012997000000     -0.502958089100000      0.488311716300000
C       1.986757418700000     -1.042238823100000      0.683720587300000
C       1.778685476100000     -2.458131197800000      0.133666477100000
C       1.853858497200000     -3.513238849400000      1.243673300500000
C       0.390338872900000     -3.695647438500000      1.641814525800000
C      -0.333633152300000     -3.585748102200000      0.304015755800000
C       0.039713681300000     -1.649744742400000     -1.292350975700000
C      -1.409743717800000     -1.717855257600000     -1.790858651500000
C      -1.489059488400000     -1.199048270100000     -3.222323719500000
C      -3.096752642200000     -1.376709555600000     -0.039291551600000
C      -3.905167919300000     -0.334306630300000      0.763826041400000
C      -5.363127483500000     -0.789918560600000      0.821174069900000
C      -3.000377382300000      2.031761612200000      0.549440773100000
C      -1.731313327600000      1.693659747200000      1.345966915500000
C      -1.813718551800000      2.323875556200000      2.730789068100000
C      -0.468474244100000      2.122603037100000     -0.691978240700000
C       0.889143685900000      2.602851825500000     -1.220795240800000
C       0.925683279700000      2.579659619200000     -2.739597351900000
C       2.413349676100000      1.866680081300000      0.537184393300000
C       3.481062832300000      0.851898642300000      0.942865142300000
C       4.833059246100000      1.186476868900000      0.305805742300000
C       5.507880524500000     -0.177750852800000      0.204620549800000
C       4.350010924800000     -1.101064018000000     -0.171008890100000
H       2.479955407700000     -2.648459448000000     -0.683800597300000
H       2.261345716200000     -4.444765056400000      0.847534809000000
H       2.475110367200000     -3.183559664700000      2.075155941900000
H       0.201222855000000     -4.641594025600000      2.143774703400000
H       0.082312483100000     -2.875487254600000      2.290139124800000
H      -0.249035376100000     -4.525921404300000     -0.257146818500000
H      -1.386773558400000     -3.331798513100000      0.414510299800000
H      -2.120093592700000      0.116648393900000     -1.072986046000000
H      -1.777341454000000     -2.746740825800000     -1.724526216800000
H      -2.506672082700000     -1.284618172900000     -3.593800927100000
H      -0.823308378300000     -1.767243289800000     -3.866705604800000
H      -1.191020336000000     -0.153876268300000     -3.237188599500000
H      -4.621788740000000      1.294495724900000     -0.329848153100000
H      -3.497676971700000     -0.359044648300000      1.782585432100000
H      -5.933070814800000     -0.162964559300000      1.502203748800000
H      -5.401147534600000     -1.820771487700000      1.162190065800000
H      -5.810503033500000     -0.739131349900000     -0.169457266200000
H       0.159808512400000      2.645007625000000      1.169104403500000
H      -1.581572188700000      0.609861169300000      1.424237819900000
H      -2.623681377900000      1.876963890800000      3.302524974500000
H      -2.000987121800000      3.390600992700000      2.632474227600000
H      -0.878531615500000      2.169328461700000      3.263744016000000
H       1.938011653500000      0.803252598800000     -1.147667234200000
H       1.091576947100000      3.605003236400000     -0.826794815200000
H       0.120885092300000      3.192916433800000     -3.134080049500000
H       0.784319156700000      1.558013325700000     -3.084262490100000
H       1.878061938000000      2.955613658000000     -3.104370105900000
H       3.540220324100000      0.873924318900000      2.038789785000000
H       5.396328735400000      1.900624317900000      0.900935071200000
H       4.675400207900000      1.604543829600000     -0.689557307900000
H       5.916079927600000     -0.466332295600000      1.173670834100000
H       6.307115824300000     -0.199562403200000     -0.532680018200000
H       4.199570900200000     -1.112104531100000     -1.257620674000000
H       4.516258631200000     -2.122860254500000      0.176532566200000
