34
frame_0036
O      -3.916868098500000      2.055583775100000     -0.622027886800000
C      -2.828728972800000      2.627713623600000     -1.095164563100000
O      -2.846870290200000      3.502849094400000     -1.914251423000000
H      -3.711325843000000      1.319734108900000      0.023129298700000
C      -1.504277805900000      2.116330766900000     -0.483908944100000
H      -1.537915343100000      2.346760911100000      0.589269826000000
H      -0.678451424200000      2.656708800900000     -0.944439196100000
N      -1.296068650600000      0.694471803300000     -0.662216798600000
H      -0.526985504300000      0.357803370000000     -1.228787413200000
C      -1.984059791500000     -0.248911652300000     -0.013535320100000
O      -2.958085915100000     -0.012033694000000      0.694967603200000
C      -1.433357527400000     -1.654229334200000     -0.208495318600000
H      -2.289060880900000     -2.349800062500000     -0.193219492500000
N      -0.661738456900000     -1.700974881000000     -1.441523878700000
H      -1.275990197900000     -1.747581205400000     -2.247096491200000
H      -0.060384052500000     -2.515681255600000     -1.457141142100000
C      -0.538499868600000     -1.980955744500000      1.008804569200000
H      -0.180751689700000     -3.007950446700000      0.911402948400000
H      -1.158474021500000     -1.914079745000000      1.904542745000000
C       0.621351378000000     -1.048360852800000      1.120456354600000
C       0.632636017000000      0.158323464000000      1.758866379000000
H      -0.151079143500000      0.630819830500000      2.320204269700000
N       1.852999452700000      0.758569463700000      1.615651295200000
H       2.120066930000000      1.641583718600000      2.015653728600000
C       2.665318926400000     -0.058980601400000      0.884643122500000
C       3.986020520800000      0.106013489900000      0.486877399000000
H       4.539984800900000      0.995087402200000      0.750192593500000
C       4.562146893300000     -0.906575192600000     -0.248210343600000
H       5.587479472700000     -0.813205677200000     -0.573371287900000
C       3.846311837000000     -2.061540909200000     -0.576102212300000
H       4.338639261300000     -2.836439498000000     -1.145093953100000
C       2.537583002900000     -2.229048248800000     -0.186117864700000
H       2.004510383000000     -3.134925243600000     -0.435359610200000
C       1.921004003800000     -1.216448923400000      0.549557014000000
