34
 energy: -56.478550201993 gnorm: 0.000124787133 xtb: 6.7.1-6.fc44.fc44
O           -3.91686809850000        2.05558377510000       -0.62202788680000
C           -2.82872897280000        2.62771362360000       -1.09516456310000
O           -2.84687029020000        3.50284909440000       -1.91425142300000
H           -3.71132584300000        1.31973410890000        0.02312929870000
C           -1.50427780590000        2.11633076690000       -0.48390894410000
H           -1.53791534310000        2.34676091110000        0.58926982600000
H           -0.67845142420000        2.65670880090000       -0.94443919610000
N           -1.29606865060000        0.69447180330000       -0.66221679860000
H           -0.52698550430000        0.35780337000000       -1.22878741320000
C           -1.98405979150000       -0.24891165230000       -0.01353532010000
O           -2.95808591510000       -0.01203369400000        0.69496760320000
C           -1.43335752740000       -1.65422933420000       -0.20849531860000
H           -2.28906088090000       -2.34980006250000       -0.19321949250000
N           -0.66173845690000       -1.70097488100000       -1.44152387870000
H           -1.27599019790000       -1.74758120540000       -2.24709649120000
H           -0.06038405250000       -2.51568125560000       -1.45714114210000
C           -0.53849986860000       -1.98095574450000        1.00880456920000
H           -0.18075168970000       -3.00795044670000        0.91140294840000
H           -1.15847402150000       -1.91407974500000        1.90454274500000
C            0.62135137800000       -1.04836085280000        1.12045635460000
C            0.63263601700000        0.15832346400000        1.75886637900000
H           -0.15107914350000        0.63081983050000        2.32020426970000
N            1.85299945270000        0.75856946370000        1.61565129520000
H            2.12006693000000        1.64158371860000        2.01565372860000
C            2.66531892640000       -0.05898060140000        0.88464312250000
C            3.98602052080000        0.10601348990000        0.48687739900000
H            4.53998480090000        0.99508740220000        0.75019259350000
C            4.56214689330000       -0.90657519260000       -0.24821034360000
H            5.58747947270000       -0.81320567720000       -0.57337128790000
C            3.84631183700000       -2.06154090920000       -0.57610221230000
H            4.33863926130000       -2.83643949800000       -1.14509395310000
C            2.53758300290000       -2.22904824880000       -0.18611786470000
H            2.00451038300000       -3.13492524360000       -0.43535961020000
C            1.92100400380000       -1.21644892340000        0.54955701400000
