68
frame_0006
O       1.096025916500000     -0.316733439500000      1.335754682600000
O       0.900885396400000     -0.826766138900000     -1.600045337900000
O      -3.241348792800000     -2.574847259900000      0.147702889000000
O      -3.252675717500000      3.166219657900000      0.204146494500000
O      -1.310878183000000      1.645052659200000     -1.418635050300000
O       2.165858193300000      2.840749972200000      1.238668848500000
N       0.390887408800000     -2.539291866300000     -0.271422182300000
N      -2.203621739300000     -0.885027213600000     -0.934292423200000
N      -3.825876970200000      1.007708000800000      0.256638875100000
N      -0.601773676100000      2.294436264900000      0.621947034000000
N       1.915088451400000      1.756723754000000     -0.729764683800000
N       3.172220472000000     -0.482508091400000      0.502710926000000
C       1.949233492800000     -0.973979468000000      0.765156405300000
C       1.689444633100000     -2.432277176500000      0.380813875400000
C       1.541399663000000     -3.318776246400000      1.616918380800000
C       0.598377130300000     -4.415056314000000      1.131296738400000
C      -0.385712269300000     -3.655173744800000      0.242782144500000
C       0.074447298500000     -1.650378375800000     -1.219976132800000
C      -1.352918715700000     -1.702326135100000     -1.778934242600000
C      -1.383495665600000     -1.159351386600000     -3.202421922200000
C      -3.073622653300000     -1.383212951200000     -0.055922501300000
C      -3.871983971900000     -0.343212349900000      0.763751255500000
C      -5.327142995100000     -0.802175226500000      0.851464480200000
C      -2.992895789000000      2.033859101600000      0.548689746300000
C      -1.718474648500000      1.714006585600000      1.344259453900000
C      -1.806661427400000      2.345318381800000      2.728194026400000
C      -0.466789773900000      2.156162857100000     -0.696263032700000
C       0.882542182700000      2.650673609100000     -1.230873456800000
C       0.907689805000000      2.653145525100000     -2.750250075400000
C       2.426027227400000      1.904131825600000      0.502700082200000
C       3.500918206600000      0.886185064900000      0.879136541100000
C       4.813613863200000      1.167933897300000      0.143556946500000
C       5.464719066200000     -0.209193010600000      0.071777305100000
C       4.276438813200000     -1.137109284100000     -0.176643451400000
H       2.459580728200000     -2.808236501200000     -0.300730206000000
H       2.497502194100000     -3.699727193000000      1.970833532500000
H       1.069860635700000     -2.738736415200000      2.411631933000000
H       1.152064582800000     -5.148812655500000      0.543054682900000
H       0.097003969700000     -4.929816768900000      1.947343918400000
H      -0.755205242100000     -4.277576155300000     -0.575422281800000
H      -1.246859055800000     -3.299054874900000      0.812730817300000
H      -2.080173884700000      0.124440294000000     -1.054961118300000
H      -1.737883391700000     -2.725759145900000     -1.736470484200000
H      -2.386501610500000     -1.243592583600000     -3.611898279800000
H      -0.691346750800000     -1.712420770600000     -3.832115504100000
H      -1.092963291900000     -0.112144327200000     -3.188812285600000
H      -4.604694651800000      1.276963093400000     -0.330465179200000
H      -3.442670495500000     -0.366047479200000      1.773550972500000
H      -5.883327374300000     -0.179961784700000      1.548018178900000
H      -5.355517164100000     -1.835000875700000      1.187261994100000
H      -5.796471022300000     -0.747635126100000     -0.128709697800000
H       0.165916133800000      2.675858994000000      1.163445315200000
H      -1.552446620200000      0.632848359300000      1.424512588700000
H      -2.610724929000000      1.889856412500000      3.301520267100000
H      -2.006292827600000      3.409680791100000      2.628666766800000
H      -0.868880348200000      2.201675663400000      3.259586502600000
H       1.920974135100000      0.841725365900000     -1.169066895900000
H       1.086132043400000      3.647125103700000     -0.823605927600000
H       1.856003172300000      3.039179726700000     -3.115055497800000
H       0.097798518300000      3.270109888500000     -3.128276487300000
H       0.768261518300000      1.637898143100000     -3.113792546800000
H       3.631580881800000      0.948864720400000      1.967397290300000
H       5.421668597900000      1.902405794300000      0.665557728600000
H       4.598637928000000      1.537337545300000     -0.860163424600000
H       5.933454486900000     -0.451329639100000      1.026101220900000
H       6.213292790300000     -0.281504907400000     -0.713990784200000
H       4.060649803400000     -1.220326006400000     -1.248631269900000
H       4.458119389500000     -2.134145769100000      0.230413585800000
