      -----------------------------------------------------------      
     |                   =====================                   |     
     |                           x T B                           |     
     |                   =====================                   |     
     |                         S. Grimme                         |     
     |          Mulliken Center for Theoretical Chemistry        |     
     |                    University of Bonn                     |     
      -----------------------------------------------------------      

   * xtb version 6.7.1-6.fc44.fc44 compiled by Fedora project on Sun Jan 18 23:32:34 UTC 2026

   xtb is free software: you can redistribute it and/or modify it under
   the terms of the GNU Lesser General Public License as published by
   the Free Software Foundation, either version 3 of the License, or
   (at your option) any later version.
   
   xtb is distributed in the hope that it will be useful,
   but WITHOUT ANY WARRANTY; without even the implied warranty of
   MERCHANTABILITY or FITNESS FOR A PARTICULAR PURPOSE.  See the
   GNU Lesser General Public License for more details.
   
   Cite this work as:
   * C. Bannwarth, E. Caldeweyher, S. Ehlert, A. Hansen, P. Pracht,
     J. Seibert, S. Spicher, S. Grimme, WIREs Comput. Mol. Sci., 2020, 11,
     e01493. DOI: 10.1002/wcms.1493
   
   for GFN2-xTB:
   * C. Bannwarth, S. Ehlert and S. Grimme., J. Chem. Theory Comput., 2019,
     15, 1652-1671. DOI: 10.1021/acs.jctc.8b01176
   for GFN1-xTB:
   * S. Grimme, C. Bannwarth, P. Shushkov, J. Chem. Theory Comput., 2017,
     13, 1989-2009. DOI: 10.1021/acs.jctc.7b00118
   for GFN0-xTB:
   * P. Pracht, E. Caldeweyher, S. Ehlert, S. Grimme, ChemRxiv, 2019, preprint.
     DOI: 10.26434/chemrxiv.8326202.v1
   for GFN-FF:
   * S. Spicher and S. Grimme, Angew. Chem. Int. Ed., 2020, 59, 15665-15673.
     DOI: 10.1002/anie.202004239
   
   for ALPB and GBSA implicit solvation:
   * S. Ehlert, M. Stahn, S. Spicher, S. Grimme, J. Chem. Theory Comput.,
     2021, 17, 4250-4261. DOI: 10.1021/acs.jctc.1c00471
   
   for ddCOSMO and CPCM-X implicit solvation:
   * M. Stahn, S. Ehlert, S. Grimme, J. Phys. Chem. A,
     2023, XX, XXXX-XXXX. DOI: 10.1021/acs.jpca.3c04382
   
   for DFT-D4:
   * E. Caldeweyher, C. Bannwarth and S. Grimme, J. Chem. Phys., 2017,
     147, 034112. DOI: 10.1063/1.4993215
   * E. Caldeweyher, S. Ehlert, A. Hansen, H. Neugebauer, S. Spicher,
     C. Bannwarth and S. Grimme, J. Chem. Phys., 2019, 150, 154122.
     DOI: 10.1063/1.5090222
   * E. Caldeweyher, J.-M. Mewes, S. Ehlert and S. Grimme, Phys. Chem. Chem. Phys.
     2020, 22, 8499-8512. DOI: 10.1039/D0CP00502A
   
   for sTDA-xTB:
   * S. Grimme and C. Bannwarth, J. Chem. Phys., 2016, 145, 054103.
     DOI: 10.1063/1.4959605
   
   in the mass-spec context:
   * V. Asgeirsson, C. Bauer and S. Grimme, Chem. Sci., 2017, 8, 4879.
     DOI: 10.1039/c7sc00601b
   * J. Koopman and S. Grimme, ACS Omega 2019, 4, 12, 15120-15133.
     DOI: 10.1021/acsomega.9b02011
   
   for metadynamics refer to:
   * S. Grimme, J. Chem. Theory Comput., 2019, 155, 2847-2862
     DOI: 10.1021/acs.jctc.9b00143
   
   for SPH calculations refer to:
   * S. Spicher and S. Grimme, J. Chem. Theory Comput., 2021, 17, 1701-1714
     DOI: 10.1021/acs.jctc.0c01306
   
   for ONIOM refer to:
   * C. Plett, A. Katbashev, S. Ehlert, S. Grimme, M. Bursch,
     Phys. Chem. Chem. Phys., 2023, 25, 17860-17868. DOI: 10.1039/D3CP02178E
   
   for DIPRO refer to:
   * J. Kohn, N. Gildemeister, S. Grimme, D. Fazzi, A. Hansen,
     J. Chem. Phys., 2023, just accepted.
   
   for PTB refer to:
   * S. Grimme, M. Mueller, A. Hansen, J. Chem. Phys., 2023, 158, 124111.
     DOI: 10.1063/5.0137838
   
   with help from (in alphabetical order)
   P. Atkinson, C. Bannwarth, F. Bohle, G. Brandenburg, E. Caldeweyher
   M. Checinski, S. Dohm, S. Ehlert, S. Ehrlich, I. Gerasimov, C. Hölzer
   A. Katbashev, J. Kohn, J. Koopman, C. Lavigne, S. Lehtola, F. März, M. Müller,
   F. Musil, H. Neugebauer, J. Pisarek, C. Plett, P. Pracht, F. Pultar,
   J. Seibert, P. Shushkov, S. Spicher, M. Stahn, M. Steiner, T. Strunk,
   J. Stückrath, T. Rose, and J. Unsleber
   
 * started run on 2026/10/01 at 13:39:06.190     
   ID    Z sym.   atoms
    1    8 O      1-6
    2    7 N      7-12
    3    6 C      13-34
    4    1 H      35-68

           -------------------------------------------------
          |                Calculation Setup                |
           -------------------------------------------------

          program call               : /usr/bin/xtb input.xyz --opt --gfn 2 --chrg 0 --uhf 0
          hostname                   : fedora
          coordinate file            : input.xyz
          omp threads                :                    16


           -------------------------------------------------
          |                 G F N 2 - x T B                 |
           -------------------------------------------------

        Reference                      10.1021/acs.jctc.8b01176
      * Hamiltonian:
        H0-scaling (s, p, d)           1.850000    2.230000    2.230000
        zeta-weighting                 0.500000
      * Dispersion:
        s8                             2.700000
        a1                             0.520000
        a2                             5.000000
        s9                             5.000000
      * Repulsion:
        kExp                           1.500000    1.000000
        rExp                           1.000000
      * Coulomb:
        alpha                          2.000000
        third order                    shell-resolved
        anisotropic                    true
        a3                             3.000000
        a5                             4.000000
        cn-shift                       1.200000
        cn-exp                         4.000000
        max-rad                        5.000000


          ...................................................
          :                      SETUP                      :
          :.................................................:
          :  # basis functions                 170          :
          :  # atomic orbitals                 170          :
          :  # shells                          102          :
          :  # electrons                       188          :
          :  max. iterations                   250          :
          :  Hamiltonian                  GFN2-xTB          :
          :  restarted?                      false          :
          :  GBSA solvation                  false          :
          :  PC potential                    false          :
          :  electronic temp.          300.0000000     K    :
          :  accuracy                    1.0000000          :
          :  -> integral cutoff          0.2500000E+02      :
          :  -> integral neglect         0.1000000E-07      :
          :  -> SCF convergence          0.1000000E-05 Eh   :
          :  -> wf. convergence          0.1000000E-03 e    :
          :  Broyden damping             0.4000000          :
          :  net charge                          0          :
          :  unpaired electrons                  0          :
          ...................................................

 iter      E             dE          RMSdq      gap      omega  full diag
   1   -107.5161483 -0.107516E+03  0.392E+00    4.29       0.0  T
   2   -107.7996012 -0.283453E+00  0.214E+00    3.89       1.0  T
   3   -107.8097415 -0.101403E-01  0.115E+00    4.06       1.0  T
   4   -107.8114915 -0.175006E-02  0.157E-01    3.99       1.0  T
   5   -107.8123411 -0.849606E-03  0.793E-02    4.03       1.0  T
   6   -107.8123933 -0.521721E-04  0.354E-02    4.02       1.0  T
   7   -107.8123963 -0.304635E-05  0.985E-03    4.02       1.2  T
   8   -107.8123976 -0.122725E-05  0.424E-03    4.02       2.9  T
   9   -107.8123977 -0.165713E-06  0.133E-03    4.02       9.1  T
  10   -107.8123978 -0.289752E-07  0.514E-04    4.02      23.6  T
  11   -107.8123978 -0.412159E-08  0.130E-04    4.02      93.0  T

   *** convergence criteria satisfied after 11 iterations ***

         #    Occupation            Energy/Eh            Energy/eV
      -------------------------------------------------------------
         1        2.0000           -0.7088405             -19.2885
       ...           ...                  ...                  ...
        88        2.0000           -0.4039237             -10.9913
        89        2.0000           -0.3927467             -10.6872
        90        2.0000           -0.3913203             -10.6484
        91        2.0000           -0.3847905             -10.4707
        92        2.0000           -0.3815842             -10.3834
        93        2.0000           -0.3795326             -10.3276
        94        2.0000           -0.3767995             -10.2532 (HOMO)
        95                         -0.2291507              -6.2355 (LUMO)
        96                         -0.2179845              -5.9317
        97                         -0.2151540              -5.8546
        98                         -0.2046420              -5.5686
        99                         -0.1994744              -5.4280
       ...                                ...                  ...
       170                          0.6524763              17.7548
      -------------------------------------------------------------
                  HL-Gap            0.1476488 Eh            4.0177 eV
             Fermi-level           -0.3029751 Eh           -8.2444 eV

 SCC (total)                   0 d,  0 h,  0 min,  0.082 sec
 SCC setup                      ...        0 min,  0.000 sec (  0.277%)
 Dispersion                     ...        0 min,  0.008 sec ( 10.324%)
 classical contributions        ...        0 min,  0.003 sec (  3.522%)
 integral evaluation            ...        0 min,  0.012 sec ( 14.745%)
 iterations                     ...        0 min,  0.053 sec ( 65.020%)
 molecular gradient             ...        0 min,  0.005 sec (  5.593%)
 printout                       ...        0 min,  0.000 sec (  0.506%)

         :::::::::::::::::::::::::::::::::::::::::::::::::::::
         ::                     SUMMARY                     ::
         :::::::::::::::::::::::::::::::::::::::::::::::::::::
         :: total energy            -106.573044842368 Eh    ::
         :: gradient norm              0.000058414646 Eh/a0 ::
         :: HOMO-LUMO gap              4.017728146374 eV    ::
         ::.................................................::
         :: SCC energy              -107.808245520471 Eh    ::
         :: -> isotropic ES            0.233292703833 Eh    ::
         :: -> anisotropic ES         -0.005533550603 Eh    ::
         :: -> anisotropic XC          0.028192500195 Eh    ::
         :: -> dispersion             -0.083793650535 Eh    ::
         :: repulsion energy           1.235200678103 Eh    ::
         :: add. restraining           0.000000000000 Eh    ::
         :: total charge               0.000000000000 e     ::
         :::::::::::::::::::::::::::::::::::::::::::::::::::::

      ----------------------------------------------------------- 
     |                   =====================                   |
     |                        A N C O P T                        |
     |                   =====================                   |
     |               Approximate Normal Coordinate               |
     |                Rational Function Optimizer                |
      ----------------------------------------------------------- 
      ----------------------------------------------------------- 
     |                   =====================                   |
     |                        A N C O P T                        |
     |                   =====================                   |
     |               Approximate Normal Coordinate               |
     |                Rational Function Optimizer                |
      ----------------------------------------------------------- 

          ...................................................
          :                      SETUP                      :
          :.................................................:
          :   optimization level            normal          :
          :   max. optcycles                   204          :
          :   ANC micro-cycles                  20          :
          :   degrees of freedom               198          :
          :.................................................:
          :   RF solver                   davidson          :
          :   write xtbopt.log                true          :
          :   linear?                        false          :
          :   energy convergence         0.5000000E-05 Eh   :
          :   grad. convergence          0.1000000E-02 Eh/α :
          :   maxmium RF displ.          1.0000000          :
          :   Hlow (freq-cutoff)         0.1000000E-01      :
          :   Hmax (freq-cutoff)         5.0000000          :
          :   S6 in model hess.         20.0000000          :
          ...................................................

generating ANC from exact Hessian ...
Using Lindh-Hessian (1995)
 Shifting diagonal of input Hessian by    9.6694457165717590E-003
 Lowest  eigenvalues of input Hessian
    0.000000    0.000000    0.000000    0.000000    0.000000    0.000000
    0.010000    0.010169    0.010517    0.011260    0.011549    0.011614
    0.011937    0.012317    0.012600    0.013166    0.013509    0.014053
 Highest eigenvalues
    2.287193    2.317682    2.320171    2.323894    2.339543    2.351197


........................................................................
.............................. CYCLE    1 ..............................
........................................................................

 iter      E             dE          RMSdq      gap      omega  full diag
   1   -107.8123978 -0.107812E+03  0.567E-05    4.02       0.0  T
   2   -107.8123978 -0.314486E-10  0.317E-05    4.02     382.5  T
   3   -107.8123978 -0.257216E-11  0.156E-05    4.02     776.4  T
     SCC iter.                  ...        0 min,  0.012 sec
     gradient                   ...        0 min,  0.004 sec
 * total energy  :  -106.5730448 Eh     change       -0.2255263E-09 Eh
   gradient norm :     0.0000585 Eh/α   predicted     0.0000000E+00 (-100.00%)
   displ. norm   :     0.0000877 α      lambda        0.0000000E+00
   maximum displ.:     0.0000281 α      in ANC's #193, #1, #126, ...

   *** GEOMETRY OPTIMIZATION CONVERGED AFTER 1 ITERATIONS ***

------------------------------------------------------------------------
 total energy gain   :        -0.0000000 Eh       -0.0000 kcal/mol
 total RMSD          :         0.0000000 a0        0.0000 Å
 total power (kW/mol):        -0.0000006 (step)   -0.0000 (real)
------------------------------------------------------------------------

 ANCopt (total)                0 d,  0 h,  0 min,  0.050 sec
 optimizer setup                ...        0 min,  0.000 sec (  0.345%)
 model hessian                  ...        0 min,  0.028 sec ( 54.579%)
 ANC generation                 ...        0 min,  0.003 sec (  6.628%)
 coordinate transformation      ...        0 min,  0.000 sec (  0.053%)
 single point calculation       ...        0 min,  0.019 sec ( 36.917%)
 optimization log               ...        0 min,  0.000 sec (  0.252%)
 hessian update                 ...        0 min,  0.000 sec (  0.001%)
 rational function              ...        0 min,  0.000 sec (  0.145%)

================
 final structure:
================
68
 xtb: 6.7.1-6.fc44.fc44
O            1.09602591650000       -0.31673343950000        1.33575468260000
O            0.90088539640000       -0.82676613890000       -1.60004533790000
O           -3.24134879280000       -2.57484725990000        0.14770288900000
O           -3.25267571750000        3.16621965790000        0.20414649450000
O           -1.31087818300000        1.64505265920000       -1.41863505030000
O            2.16585819330000        2.84074997220000        1.23866884850000
N            0.39088740880000       -2.53929186630000       -0.27142218230000
N           -2.20362173930000       -0.88502721360000       -0.93429242320000
N           -3.82587697020000        1.00770800080000        0.25663887510000
N           -0.60177367610000        2.29443626490000        0.62194703400000
N            1.91508845140000        1.75672375400000       -0.72976468380000
N            3.17222047200000       -0.48250809140000        0.50271092600000
C            1.94923349280000       -0.97397946800000        0.76515640530000
C            1.68944463310000       -2.43227717650000        0.38081387540000
C            1.54139966300000       -3.31877624640000        1.61691838080000
C            0.59837713030000       -4.41505631400000        1.13129673840000
C           -0.38571226930000       -3.65517374480000        0.24278214450000
C            0.07444729850000       -1.65037837580000       -1.21997613280000
C           -1.35291871570000       -1.70232613510000       -1.77893424260000
C           -1.38349566560000       -1.15935138660000       -3.20242192220000
C           -3.07362265330000       -1.38321295120000       -0.05592250130000
C           -3.87198397190000       -0.34321234990000        0.76375125550000
C           -5.32714299510000       -0.80217522650000        0.85146448020000
C           -2.99289578900000        2.03385910160000        0.54868974630000
C           -1.71847464850000        1.71400658560000        1.34425945390000
C           -1.80666142740000        2.34531838180000        2.72819402640000
C           -0.46678977390000        2.15616285710000       -0.69626303270000
C            0.88254218270000        2.65067360910000       -1.23087345680000
C            0.90768980500000        2.65314552510000       -2.75025007540000
C            2.42602722740000        1.90413182560000        0.50270008220000
C            3.50091820660000        0.88618506490000        0.87913654110000
C            4.81361386320000        1.16793389730000        0.14355694650000
C            5.46471906620000       -0.20919301060000        0.07177730510000
C            4.27643881320000       -1.13710928410000       -0.17664345140000
H            2.45958072820000       -2.80823650120000       -0.30073020600000
H            2.49750219410000       -3.69972719300000        1.97083353250000
H            1.06986063570000       -2.73873641520000        2.41163193300000
H            1.15206458280000       -5.14881265550000        0.54305468290000
H            0.09700396970000       -4.92981676890000        1.94734391840000
H           -0.75520524210000       -4.27757615530000       -0.57542228180000
H           -1.24685905580000       -3.29905487490000        0.81273081730000
H           -2.08017388470000        0.12444029400000       -1.05496111830000
H           -1.73788339170000       -2.72575914590000       -1.73647048420000
H           -2.38650161050000       -1.24359258360000       -3.61189827980000
H           -0.69134675080000       -1.71242077060000       -3.83211550410000
H           -1.09296329190000       -0.11214432720000       -3.18881228560000
H           -4.60469465180000        1.27696309340000       -0.33046517920000
H           -3.44267049550000       -0.36604747920000        1.77355097250000
H           -5.88332737430000       -0.17996178470000        1.54801817890000
H           -5.35551716410000       -1.83500087570000        1.18726199410000
H           -5.79647102230000       -0.74763512610000       -0.12870969780000
H            0.16591613380000        2.67585899400000        1.16344531520000
H           -1.55244662020000        0.63284835930000        1.42451258870000
H           -2.61072492900000        1.88985641250000        3.30152026710000
H           -2.00629282760000        3.40968079110000        2.62866676680000
H           -0.86888034820000        2.20167566340000        3.25958650260000
H            1.92097413510000        0.84172536590000       -1.16906689590000
H            1.08613204340000        3.64712510370000       -0.82360592760000
H            1.85600317230000        3.03917972670000       -3.11505549780000
H            0.09779851830000        3.27010988850000       -3.12827648730000
H            0.76826151830000        1.63789814310000       -3.11379254680000
H            3.63158088180000        0.94886472040000        1.96739729030000
H            5.42166859790000        1.90240579430000        0.66555772860000
H            4.59863792800000        1.53733754530000       -0.86016342460000
H            5.93345448690000       -0.45132963910000        1.02610122090000
H            6.21329279030000       -0.28150490740000       -0.71399078420000
H            4.06064980340000       -1.22032600640000       -1.24863126990000
H            4.45811938950000       -2.13414576910000        0.23041358580000

 Bond Distances (Angstroems)
 ---------------------------
O1-C13=1.2188        O2-C18=1.2271        O3-C21=1.2205        O4-C24=1.2118        O5-C27=1.2229        O6-C30=1.2193        
N7-C14=1.4571        N7-C17=1.4535        N7-C18=1.3379        N8-C19=1.4509        N8-C21=1.3329        N8-H42=1.0241        
N9-C22=1.4437        N9-C24=1.3536        N9-H47=1.0118        N10-C25=1.4511       N10-C27=1.3323       N10-H52=1.0139       
N11-C28=1.4548       N11-C30=1.3423       N11-H57=1.0150       N12-C13=1.3439       N12-C31=1.4571       N12-C34=1.4524       
C13-O1=1.2188        C13-N12=1.3439       C13-C14=1.5303       C14-N7=1.4571        C14-C13=1.5303       C14-C15=1.5283       
C14-H35=1.0950       C15-C14=1.5283       C15-C16=1.5254       C15-H36=1.0884       C15-H37=1.0910       C16-C15=1.5254       
C16-C17=1.5282       C16-H38=1.0913       C16-H39=1.0873       C17-N7=1.4535        C17-C16=1.5282       C17-H40=1.0924       
C17-H41=1.0924       C18-O2=1.2271        C18-N7=1.3379        C18-C19=1.5338       C19-N8=1.4509        C19-C18=1.5338       
C19-C20=1.5238       C19-H43=1.0943       C20-C19=1.5238       C20-H44=1.0866       C20-H45=1.0870       C20-H46=1.0868       
C21-O3=1.2205        C21-N8=1.3329        C21-C22=1.5462       C22-N9=1.4437        C22-C21=1.5462       C22-C23=1.5283       
C22-H48=1.0975       C23-C22=1.5283       C23-H49=1.0871       C23-H50=1.0864       C23-H51=1.0881       C24-O4=1.2118        
C24-N9=1.3536        C24-C25=1.5360       C25-N10=1.4511       C25-C24=1.5360       C25-C26=1.5237       C25-H53=1.0968       
C26-C25=1.5237       C26-H54=1.0875       C26-H55=1.0875       C26-H56=1.0874       C27-O5=1.2229        C27-N10=1.3323       
C27-C28=1.5333       C28-N11=1.4548       C28-C27=1.5333       C28-C29=1.5196       C28-H58=1.0956       C29-C28=1.5196       
C29-H59=1.0869       C29-H60=1.0860       C29-H61=1.0874       C30-O6=1.2193        C30-N11=1.3423       C30-C31=1.5275       
C31-N12=1.4571       C31-C30=1.5275       C31-C32=1.5309       C31-H62=1.0979       C32-C31=1.5309       C32-C33=1.5250       
C32-H63=1.0870       C32-H64=1.0909       C33-C32=1.5250       C33-C34=1.5280       C33-H65=1.0904       C33-H66=1.0877       
C34-N12=1.4524       C34-C33=1.5280       C34-H67=1.0967       C34-H68=1.0921       H35-C14=1.0950       H36-C15=1.0884       
H37-C15=1.0910       H38-C16=1.0913       H39-C16=1.0873       H40-C17=1.0924       H41-C17=1.0924       H42-N8=1.0241        
H43-C19=1.0943       H44-C20=1.0866       H45-C20=1.0870       H46-C20=1.0868       H47-N9=1.0118        H48-C22=1.0975       
H49-C23=1.0871       H50-C23=1.0864       H51-C23=1.0881       H52-N10=1.0139       H53-C25=1.0968       H54-C26=1.0875       
H55-C26=1.0875       H56-C26=1.0874       H57-N11=1.0150       H58-C28=1.0956       H59-C29=1.0869       H60-C29=1.0860       
H61-C29=1.0874       H62-C31=1.0979       H63-C32=1.0870       H64-C32=1.0909       H65-C33=1.0904       H66-C33=1.0877       
H67-C34=1.0967       H68-C34=1.0921       
 C  H  Rav=1.0903 sigma=0.0038  Rmin=1.0860  Rmax=1.0979    30
 C  C  Rav=1.5293 sigma=0.0060  Rmin=1.5196  Rmax=1.5462    16
 N  H  Rav=1.0162 sigma=0.0047  Rmin=1.0118  Rmax=1.0241     4
 N  C  Rav=1.4045 sigma=0.0558  Rmin=1.3323  Rmax=1.4571    14
 O  C  Rav=1.2201 sigma=0.0046  Rmin=1.2118  Rmax=1.2271     6

 selected bond angles (degree)
 --------------------
C17-N7-C14=111.97              C18-N7-C14=118.64              C18-N7-C17=129.38              C21-N8-C19=123.77              
H42-N8-C19=114.58              H42-N8-C21=121.65              C24-N9-C22=130.79              H47-N9-C22=115.36              
H47-N9-C24=113.40              C27-N10-C25=121.94             H52-N10-C25=117.86             H52-N10-C27=119.39             

 selected dihedral angles (degree)
 ---------------------------------

           -------------------------------------------------
          |                Final Singlepoint                |
           -------------------------------------------------

          ...................................................
          :                      SETUP                      :
          :.................................................:
          :  # basis functions                 170          :
          :  # atomic orbitals                 170          :
          :  # shells                          102          :
          :  # electrons                       188          :
          :  max. iterations                   250          :
          :  Hamiltonian                  GFN2-xTB          :
          :  restarted?                      false          :
          :  GBSA solvation                  false          :
          :  PC potential                    false          :
          :  electronic temp.          300.0000000     K    :
          :  accuracy                    1.0000000          :
          :  -> integral cutoff          0.2500000E+02      :
          :  -> integral neglect         0.1000000E-07      :
          :  -> SCF convergence          0.1000000E-05 Eh   :
          :  -> wf. convergence          0.1000000E-03 e    :
          :  Broyden damping             0.4000000          :
          :  net charge                          0          :
          :  unpaired electrons                  0          :
          ...................................................

 iter      E             dE          RMSdq      gap      omega  full diag
   1   -107.8123978 -0.107812E+03  0.312E-06    4.02       0.0  T
   2   -107.8123978 -0.483169E-12  0.185E-06    4.02    6572.1  T
   3   -107.8123978  0.667910E-12  0.813E-07    4.02   14922.3  T

   *** convergence criteria satisfied after 3 iterations ***

         #    Occupation            Energy/Eh            Energy/eV
      -------------------------------------------------------------
         1        2.0000           -0.7088403             -19.2885
       ...           ...                  ...                  ...
        88        2.0000           -0.4039218             -10.9913
        89        2.0000           -0.3927466             -10.6872
        90        2.0000           -0.3913205             -10.6484
        91        2.0000           -0.3847893             -10.4706
        92        2.0000           -0.3815832             -10.3834
        93        2.0000           -0.3795306             -10.3276
        94        2.0000           -0.3767971             -10.2532 (HOMO)
        95                         -0.2291505              -6.2355 (LUMO)
        96                         -0.2179841              -5.9316
        97                         -0.2151539              -5.8546
        98                         -0.2046401              -5.5685
        99                         -0.1994723              -5.4279
       ...                                ...                  ...
       170                          0.6524786              17.7548
      -------------------------------------------------------------
                  HL-Gap            0.1476466 Eh            4.0177 eV
             Fermi-level           -0.3029738 Eh           -8.2443 eV

 SCC (total)                   0 d,  0 h,  0 min,  0.017 sec
 SCC setup                      ...        0 min,  0.000 sec (  1.131%)
 Dispersion                     ...        0 min,  0.000 sec (  2.679%)
 classical contributions        ...        0 min,  0.000 sec (  0.185%)
 integral evaluation            ...        0 min,  0.001 sec (  7.630%)
 iterations                     ...        0 min,  0.010 sec ( 59.287%)
 molecular gradient             ...        0 min,  0.005 sec ( 26.545%)
 printout                       ...        0 min,  0.000 sec (  2.497%)

         :::::::::::::::::::::::::::::::::::::::::::::::::::::
         ::                     SUMMARY                     ::
         :::::::::::::::::::::::::::::::::::::::::::::::::::::
         :: total energy            -106.573044842596 Eh    ::
         :: gradient norm              0.000058612273 Eh/a0 ::
         :: HOMO-LUMO gap              4.017667378273 eV    ::
         ::.................................................::
         :: SCC energy              -107.808245520699 Eh    ::
         :: -> isotropic ES            0.233295623046 Eh    ::
         :: -> anisotropic ES         -0.005533388215 Eh    ::
         :: -> anisotropic XC          0.028192466121 Eh    ::
         :: -> dispersion             -0.083793703234 Eh    ::
         :: repulsion energy           1.235200678103 Eh    ::
         :: add. restraining           0.000000000000 Eh    ::
         :: total charge              -0.000000000000 e     ::
         :::::::::::::::::::::::::::::::::::::::::::::::::::::

           -------------------------------------------------
          |                Property Printout                |
           -------------------------------------------------

    * Orbital Energies and Occupations

         #    Occupation            Energy/Eh            Energy/eV
      -------------------------------------------------------------
         1        2.0000           -0.7088403             -19.2885
       ...           ...                  ...                  ...
        82        2.0000           -0.4430776             -12.0568
        83        2.0000           -0.4242862             -11.5454
        84        2.0000           -0.4210376             -11.4570
        85        2.0000           -0.4187298             -11.3942
        86        2.0000           -0.4125722             -11.2267
        87        2.0000           -0.4115196             -11.1980
        88        2.0000           -0.4039218             -10.9913
        89        2.0000           -0.3927466             -10.6872
        90        2.0000           -0.3913205             -10.6484
        91        2.0000           -0.3847893             -10.4706
        92        2.0000           -0.3815832             -10.3834
        93        2.0000           -0.3795306             -10.3276
        94        2.0000           -0.3767971             -10.2532 (HOMO)
        95                         -0.2291505              -6.2355 (LUMO)
        96                         -0.2179841              -5.9316
        97                         -0.2151539              -5.8546
        98                         -0.2046401              -5.5685
        99                         -0.1994723              -5.4279
       100                         -0.1981796              -5.3927
       101                         -0.0321674              -0.8753
       102                         -0.0119395              -0.3249
       103                         -0.0044600              -0.1214
       104                          0.0084993               0.2313
       105                          0.0133852               0.3642
       ...                                ...                  ...
       170                          0.6524786              17.7548
      -------------------------------------------------------------
                  HL-Gap            0.1476466 Eh            4.0177 eV
             Fermi-level           -0.3029738 Eh           -8.2443 eV

     #   Z          covCN         q      C6AA      α(0)
     1   8 O        0.859    -0.455    22.818     6.404
     2   8 O        0.860    -0.474    23.217     6.460
     3   8 O        0.858    -0.465    23.018     6.432
     4   8 O        0.860    -0.425    22.189     6.316
     5   8 O        0.858    -0.452    22.745     6.394
     6   8 O        0.858    -0.449    22.678     6.385
     7   7 N        2.761    -0.087    22.927     7.112
     8   7 N        2.691    -0.191    25.135     7.446
     9   7 N        2.688    -0.191    25.145     7.448
    10   7 N        2.696    -0.163    24.536     7.357
    11   7 N        2.693    -0.184    24.995     7.425
    12   7 N        2.756    -0.103    23.257     7.162
    13   6 C        2.761     0.271    22.428     7.755
    14   6 C        3.834     0.028    20.080     6.376
    15   6 C        3.834    -0.059    21.608     6.613
    16   6 C        3.832    -0.062    21.658     6.621
    17   6 C        3.766    -0.005    20.712     6.487
    18   6 C        2.766     0.261    22.608     7.787
    19   6 C        3.791     0.031    20.062     6.379
    20   6 C        3.757    -0.115    22.744     6.799
    21   6 C        2.751     0.263    22.569     7.779
    22   6 C        3.785     0.019    20.272     6.413
    23   6 C        3.758    -0.113    22.722     6.796
    24   6 C        2.751     0.279    22.281     7.729
    25   6 C        3.793     0.032    20.045     6.376
    26   6 C        3.758    -0.113    22.720     6.796
    27   6 C        2.758     0.275    22.357     7.743
    28   6 C        3.797     0.027    20.125     6.388
    29   6 C        3.757    -0.114    22.725     6.797
    30   6 C        2.754     0.279    22.271     7.728
    31   6 C        3.830     0.021    20.197     6.394
    32   6 C        3.833    -0.064    21.701     6.628
    33   6 C        3.831    -0.063    21.681     6.625
    34   6 C        3.767     0.001    20.604     6.469
    35   1 H        0.924     0.040     2.448     2.447
    36   1 H        0.925     0.041     2.431     2.438
    37   1 H        0.924     0.062     2.173     2.305
    38   1 H        0.924     0.044     2.391     2.418
    39   1 H        0.925     0.055     2.261     2.352
    40   1 H        0.924     0.055     2.260     2.351
    41   1 H        0.924     0.082     1.955     2.187
    42   1 H        0.859     0.233     0.954     1.530
    43   1 H        0.924     0.062     2.179     2.308
    44   1 H        0.925     0.048     2.343     2.394
    45   1 H        0.925     0.047     2.363     2.404
    46   1 H        0.925     0.080     1.977     2.199
    47   1 H        0.860     0.194     1.138     1.671
    48   1 H        0.924     0.058     2.218     2.329
    49   1 H        0.925     0.049     2.334     2.389
    50   1 H        0.925     0.076     2.024     2.225
    51   1 H        0.925     0.048     2.342     2.393
    52   1 H        0.860     0.217     1.021     1.583
    53   1 H        0.924     0.050     2.321     2.383
    54   1 H        0.925     0.046     2.369     2.407
    55   1 H        0.925     0.067     2.115     2.274
    56   1 H        0.925     0.060     2.202     2.320
    57   1 H        0.860     0.217     1.023     1.584
    58   1 H        0.924     0.069     2.100     2.266
    59   1 H        0.925     0.046     2.374     2.409
    60   1 H        0.925     0.063     2.165     2.301
    61   1 H        0.925     0.068     2.105     2.269
    62   1 H        0.924     0.067     2.118     2.276
    63   1 H        0.925     0.058     2.219     2.329
    64   1 H        0.924     0.054     2.276     2.359
    65   1 H        0.924     0.051     2.312     2.378
    66   1 H        0.925     0.053     2.282     2.363
    67   1 H        0.924     0.054     2.266     2.354
    68   1 H        0.924     0.046     2.369     2.407

 Mol. C6AA /au·bohr⁶  :      43611.532721
 Mol. C8AA /au·bohr⁸  :     970189.764409
 Mol. α(0) /au        :        310.422636


Wiberg/Mayer (AO) data.
largest (>0.10) Wiberg bond orders for each atom

 ---------------------------------------------------------------------------
     #   Z sym  total        # sym  WBO       # sym  WBO       # sym  WBO
 ---------------------------------------------------------------------------
     1   8 O    1.989 --    13 C    1.650    12 N    0.195
     2   8 O    1.974 --    18 C    1.609     7 N    0.195
     3   8 O    1.973 --    21 C    1.637     8 N    0.204
     4   8 O    2.013 --    24 C    1.699     9 N    0.193
     5   8 O    2.017 --    27 C    1.611    10 N    0.198
     6   8 O    1.991 --    30 C    1.648    11 N    0.192
     7   7 N    3.521 --    18 C    1.300    17 C    0.976    14 C    0.965
                             2 O    0.195
     8   7 N    3.475 --    21 C    1.316    19 C    0.976    42 H    0.856
                             3 O    0.204
     9   7 N    3.430 --    24 C    1.239    22 C    0.992    47 H    0.927
                             4 O    0.193
    10   7 N    3.487 --    27 C    1.327    25 C    0.975    52 H    0.901
                             5 O    0.198
    11   7 N    3.449 --    30 C    1.287    28 C    0.972    57 H    0.899
                             6 O    0.192
    12   7 N    3.496 --    13 C    1.266    34 C    0.981    31 C    0.964
                             1 O    0.195
    13   6 C    3.956 --     1 O    1.650    12 N    1.266    14 C    0.936
    14   6 C    3.973 --    15 C    0.982     7 N    0.965    35 H    0.956
                            13 C    0.936
    15   6 C    3.992 --    16 C    1.003    14 C    0.982    36 H    0.978
                            37 H    0.975
    16   6 C    3.995 --    17 C    1.005    15 C    1.003    38 H    0.980
                            39 H    0.977
    17   6 C    3.963 --    16 C    1.005     7 N    0.976    40 H    0.966
                            41 H    0.958
    18   6 C    3.949 --     2 O    1.609     7 N    1.300    19 C    0.932
    19   6 C    3.970 --    20 C    1.002     8 N    0.976    43 H    0.953
                            18 C    0.932
    20   6 C    3.989 --    19 C    1.002    44 H    0.985    45 H    0.984
                            46 H    0.976
    21   6 C    3.956 --     3 O    1.637     8 N    1.316    22 C    0.919
    22   6 C    3.968 --    23 C    0.998     9 N    0.992    48 H    0.944
                            21 C    0.919
    23   6 C    3.989 --    22 C    0.998    49 H    0.985    51 H    0.985
                            50 H    0.979
    24   6 C    3.952 --     4 O    1.699     9 N    1.239    25 C    0.933
    25   6 C    3.970 --    26 C    0.998    10 N    0.975    53 H    0.952
                            24 C    0.933
    26   6 C    3.990 --    25 C    0.998    54 H    0.984    55 H    0.983
                            56 H    0.981
    27   6 C    3.950 --     5 O    1.611    10 N    1.327    28 C    0.927
    28   6 C    3.966 --    29 C    1.009    11 N    0.972    58 H    0.953
                            27 C    0.927
    29   6 C    3.990 --    28 C    1.009    59 H    0.986    60 H    0.982
                            61 H    0.980
    30   6 C    3.955 --     6 O    1.648    11 N    1.287    31 C    0.938
    31   6 C    3.966 --    32 C    0.981    12 N    0.964    62 H    0.955
                            30 C    0.938
    32   6 C    3.992 --    33 C    1.004    31 C    0.981    63 H    0.977
                            64 H    0.976
    33   6 C    3.994 --    32 C    1.004    34 C    1.003    65 H    0.979
                            66 H    0.977
    34   6 C    3.973 --    33 C    1.003    12 N    0.981    68 H    0.970
                            67 H    0.966
    35   1 H    0.998 --    14 C    0.956
    36   1 H    0.998 --    15 C    0.978
    37   1 H    0.996 --    15 C    0.975
    38   1 H    0.998 --    16 C    0.980
    39   1 H    0.996 --    16 C    0.977
    40   1 H    0.997 --    17 C    0.966
    41   1 H    0.993 --    17 C    0.958
    42   1 H    0.946 --     8 N    0.856
    43   1 H    0.996 --    19 C    0.953
    44   1 H    0.997 --    20 C    0.985
    45   1 H    0.997 --    20 C    0.984
    46   1 H    0.993 --    20 C    0.976
    47   1 H    0.962 --     9 N    0.927
    48   1 H    0.996 --    22 C    0.944
    49   1 H    0.997 --    23 C    0.985
    50   1 H    0.993 --    23 C    0.979
    51   1 H    0.998 --    23 C    0.985
    52   1 H    0.953 --    10 N    0.901
    53   1 H    0.998 --    25 C    0.952
    54   1 H    0.997 --    26 C    0.984
    55   1 H    0.995 --    26 C    0.983
    56   1 H    0.996 --    26 C    0.981
    57   1 H    0.953 --    11 N    0.899
    58   1 H    0.995 --    28 C    0.953
    59   1 H    0.997 --    29 C    0.986
    60   1 H    0.995 --    29 C    0.982
    61   1 H    0.995 --    29 C    0.980
    62   1 H    0.995 --    31 C    0.955
    63   1 H    0.996 --    32 C    0.977
    64   1 H    0.997 --    32 C    0.976
    65   1 H    0.997 --    33 C    0.979
    66   1 H    0.996 --    33 C    0.977
    67   1 H    0.997 --    34 C    0.966
    68   1 H    0.998 --    34 C    0.970
 ---------------------------------------------------------------------------

Topologies differ in total number of bonds
Writing topology from bond orders to xtbtopo.mol

molecular dipole:
                 x           y           z       tot (Debye)
 q only:        2.037      -1.952      -0.050
   full:        2.271      -2.362      -0.005       8.329
molecular quadrupole (traceless):
                xx          xy          yy          xz          yz          zz
 q only:       18.796      -3.656     -15.881      -7.304      -4.648      -2.915
  q+dip:       20.067      -6.750     -18.866      -6.426      -2.902      -1.201
   full:       20.377      -6.747     -19.215      -6.735      -3.320      -1.162

           -------------------------------------------------
          |                Geometry Summary                 |
           -------------------------------------------------

      molecular mass/u    :      478.5428241
   center of mass at/Å    :        0.0000000       0.0000000      -0.0000000
  moments of inertia/u·Å² :        0.2866450E+04   0.4166868E+04   0.5458059E+04
rotational constants/cm⁻¹ :        0.5881015E-02   0.4045636E-02   0.3088577E-02

 * 64 selected distances

     #   Z          #   Z                                           value/Å
     1   8 O       13   6 C                                       1.2188184
    12   7 N       13   6 C                                       1.3439194
     7   7 N       14   6 C                                       1.4570914
    14   6 C       15   6 C                                       1.5283169
    15   6 C       16   6 C                                       1.5254345
     7   7 N       17   6 C                                       1.4535150
    16   6 C       17   6 C                                       1.5281728
     2   8 O       18   6 C                                       1.2271063
     7   7 N       18   6 C                                       1.3379299
     8   7 N       19   6 C                                       1.4508940
    19   6 C       20   6 C                                       1.5238353
     3   8 O       21   6 C                                       1.2204868
     8   7 N       21   6 C                                       1.3329008
     9   7 N       22   6 C                                       1.4437018
    22   6 C       23   6 C                                       1.5283418
     4   8 O       24   6 C                                       1.2117906
     9   7 N       24   6 C                                       1.3535648
    10   7 N       25   6 C                                       1.4510876
    25   6 C       26   6 C                                       1.5236820
     5   8 O       27   6 C                                       1.2229229
    10   7 N       27   6 C                                       1.3322981
    11   7 N       28   6 C                                       1.4547881
    28   6 C       29   6 C                                       1.5195869
     6   8 O       30   6 C                                       1.2192587
    11   7 N       30   6 C                                       1.3422955
    12   7 N       31   6 C                                       1.4570723
    31   6 C       32   6 C                                       1.5308919 (max)
    32   6 C       33   6 C                                       1.5249817
    12   7 N       34   6 C                                       1.4523511
    33   6 C       34   6 C                                       1.5279895
    14   6 C       35   1 H                                       1.0949692
    15   6 C       36   1 H                                       1.0883528
    15   6 C       37   1 H                                       1.0910385
    16   6 C       38   1 H                                       1.0913281
    16   6 C       39   1 H                                       1.0873300
    17   6 C       40   1 H                                       1.0924141
    17   6 C       41   1 H                                       1.0923535
     8   7 N       42   1 H                                       1.0241216
    19   6 C       43   1 H                                       1.0942652
    20   6 C       44   1 H                                       1.0866410
    20   6 C       45   1 H                                       1.0869545
    20   6 C       46   1 H                                       1.0868473
     9   7 N       47   1 H                                       1.0118037 (min)
    22   6 C       48   1 H                                       1.0975095
    23   6 C       49   1 H                                       1.0870501
    23   6 C       50   1 H                                       1.0864134
    23   6 C       51   1 H                                       1.0881108
    10   7 N       52   1 H                                       1.0139288
    25   6 C       53   1 H                                       1.0967722
    26   6 C       54   1 H                                       1.0875049
    26   6 C       55   1 H                                       1.0874861
    26   6 C       56   1 H                                       1.0874028
    11   7 N       57   1 H                                       1.0150090
    28   6 C       58   1 H                                       1.0955508
    29   6 C       59   1 H                                       1.0869240
    29   6 C       60   1 H                                       1.0860355
    29   6 C       61   1 H                                       1.0873504
    31   6 C       62   1 H                                       1.0978675
    32   6 C       63   1 H                                       1.0870440
    32   6 C       64   1 H                                       1.0909301
    33   6 C       65   1 H                                       1.0904483
    33   6 C       66   1 H                                       1.0876688
    34   6 C       67   1 H                                       1.0966531
    34   6 C       68   1 H                                       1.0921471

 * 5 distinct bonds (by element types)

   Z      Z             #   av. dist./Å        max./Å        min./Å
   1 H    6 C          30     1.0903121     1.0978675     1.0860355
   6 C    6 C          10     1.5261233     1.5308919     1.5195869
   1 H    7 N           4     1.0162158     1.0241216     1.0118037
   6 C    7 N          14     1.4045293     1.4570914     1.3322981
   6 C    8 O           6     1.2200639     1.2271063     1.2117906


optimized geometry written to: xtbopt.xyz


           -------------------------------------------------
          | TOTAL ENERGY             -106.573044842596 Eh   |
          | GRADIENT NORM               0.000058612273 Eh/α |
          | HOMO-LUMO GAP               4.017667378273 eV   |
           -------------------------------------------------

------------------------------------------------------------------------
 * finished run on 2026/10/01 at 13:39:06.350     
------------------------------------------------------------------------
 total:
 * wall-time:     0 d,  0 h,  0 min,  0.160 sec
 *  cpu-time:     0 d,  0 h,  0 min,  2.175 sec
 * ratio c/w:    13.575 speedup
 SCF:
 * wall-time:     0 d,  0 h,  0 min,  0.083 sec
 *  cpu-time:     0 d,  0 h,  0 min,  1.273 sec
 * ratio c/w:    15.418 speedup
 ANC optimizer:
 * wall-time:     0 d,  0 h,  0 min,  0.069 sec
 *  cpu-time:     0 d,  0 h,  0 min,  0.780 sec
 * ratio c/w:    11.259 speedup


--- STDERR ---
normal termination of xtb
Note: The following floating-point exceptions are signalling: IEEE_UNDERFLOW_FLAG IEEE_DENORMAL
