68
 energy: -106.573044842596 gnorm: 0.000058612273 xtb: 6.7.1-6.fc44.fc44
O            1.09602591650000       -0.31673343950000        1.33575468260000
O            0.90088539640000       -0.82676613890000       -1.60004533790000
O           -3.24134879280000       -2.57484725990000        0.14770288900000
O           -3.25267571750000        3.16621965790000        0.20414649450000
O           -1.31087818300000        1.64505265920000       -1.41863505030000
O            2.16585819330000        2.84074997220000        1.23866884850000
N            0.39088740880000       -2.53929186630000       -0.27142218230000
N           -2.20362173930000       -0.88502721360000       -0.93429242320000
N           -3.82587697020000        1.00770800080000        0.25663887510000
N           -0.60177367610000        2.29443626490000        0.62194703400000
N            1.91508845140000        1.75672375400000       -0.72976468380000
N            3.17222047200000       -0.48250809140000        0.50271092600000
C            1.94923349280000       -0.97397946800000        0.76515640530000
C            1.68944463310000       -2.43227717650000        0.38081387540000
C            1.54139966300000       -3.31877624640000        1.61691838080000
C            0.59837713030000       -4.41505631400000        1.13129673840000
C           -0.38571226930000       -3.65517374480000        0.24278214450000
C            0.07444729850000       -1.65037837580000       -1.21997613280000
C           -1.35291871570000       -1.70232613510000       -1.77893424260000
C           -1.38349566560000       -1.15935138660000       -3.20242192220000
C           -3.07362265330000       -1.38321295120000       -0.05592250130000
C           -3.87198397190000       -0.34321234990000        0.76375125550000
C           -5.32714299510000       -0.80217522650000        0.85146448020000
C           -2.99289578900000        2.03385910160000        0.54868974630000
C           -1.71847464850000        1.71400658560000        1.34425945390000
C           -1.80666142740000        2.34531838180000        2.72819402640000
C           -0.46678977390000        2.15616285710000       -0.69626303270000
C            0.88254218270000        2.65067360910000       -1.23087345680000
C            0.90768980500000        2.65314552510000       -2.75025007540000
C            2.42602722740000        1.90413182560000        0.50270008220000
C            3.50091820660000        0.88618506490000        0.87913654110000
C            4.81361386320000        1.16793389730000        0.14355694650000
C            5.46471906620000       -0.20919301060000        0.07177730510000
C            4.27643881320000       -1.13710928410000       -0.17664345140000
H            2.45958072820000       -2.80823650120000       -0.30073020600000
H            2.49750219410000       -3.69972719300000        1.97083353250000
H            1.06986063570000       -2.73873641520000        2.41163193300000
H            1.15206458280000       -5.14881265550000        0.54305468290000
H            0.09700396970000       -4.92981676890000        1.94734391840000
H           -0.75520524210000       -4.27757615530000       -0.57542228180000
H           -1.24685905580000       -3.29905487490000        0.81273081730000
H           -2.08017388470000        0.12444029400000       -1.05496111830000
H           -1.73788339170000       -2.72575914590000       -1.73647048420000
H           -2.38650161050000       -1.24359258360000       -3.61189827980000
H           -0.69134675080000       -1.71242077060000       -3.83211550410000
H           -1.09296329190000       -0.11214432720000       -3.18881228560000
H           -4.60469465180000        1.27696309340000       -0.33046517920000
H           -3.44267049550000       -0.36604747920000        1.77355097250000
H           -5.88332737430000       -0.17996178470000        1.54801817890000
H           -5.35551716410000       -1.83500087570000        1.18726199410000
H           -5.79647102230000       -0.74763512610000       -0.12870969780000
H            0.16591613380000        2.67585899400000        1.16344531520000
H           -1.55244662020000        0.63284835930000        1.42451258870000
H           -2.61072492900000        1.88985641250000        3.30152026710000
H           -2.00629282760000        3.40968079110000        2.62866676680000
H           -0.86888034820000        2.20167566340000        3.25958650260000
H            1.92097413510000        0.84172536590000       -1.16906689590000
H            1.08613204340000        3.64712510370000       -0.82360592760000
H            1.85600317230000        3.03917972670000       -3.11505549780000
H            0.09779851830000        3.27010988850000       -3.12827648730000
H            0.76826151830000        1.63789814310000       -3.11379254680000
H            3.63158088180000        0.94886472040000        1.96739729030000
H            5.42166859790000        1.90240579430000        0.66555772860000
H            4.59863792800000        1.53733754530000       -0.86016342460000
H            5.93345448690000       -0.45132963910000        1.02610122090000
H            6.21329279030000       -0.28150490740000       -0.71399078420000
H            4.06064980340000       -1.22032600640000       -1.24863126990000
H            4.45811938950000       -2.13414576910000        0.23041358580000
