34
frame_0030
O      -3.896901377039997      2.660083011077075     -0.434888485146600
C      -3.631508055370591      2.622436299853238     -1.680865680942475
O      -3.686593723806977      3.223674213843109     -2.514359588719278
H      -3.710503167300084      1.707924320958792      0.062002032485016
C      -3.546011550146448      1.087515635821191     -2.382557416187808
H      -3.303818141625903      0.950142201475701     -3.294706174766822
H      -4.409365208348452      0.414957541419420     -1.946557487940617
N      -2.196406707182228      0.238715573006021     -1.491527952365448
H      -1.494220587511187     -0.015205139143262     -1.946390528475543
C      -2.065179972212916     -0.020053300664953     -0.312109967772511
O      -3.000584029245111      0.278738859948978      0.492314853638351
C      -1.101583855136282     -0.664338474547396      0.045422393467419
H      -1.295107881393649     -1.391467302861876      0.728091729011476
N      -0.463521348647946     -1.441031375425550     -1.096236154264082
H      -0.881780273961908     -2.179918581084360     -1.379550466893187
H       0.566647786295145     -1.523596155467460     -0.981094977555289
C      -0.093263175815749      0.229630699454745      0.752209049684502
H      -0.801295877947271      0.816020232639444      1.442095190939887
H       0.285075687076024      0.958808878464927     -0.122704929401895
C       1.252562910249339     -0.322624119696939      1.499175480817330
C       1.170661957386883     -0.997033968164166      2.465728935089230
H       0.407414635150358     -1.018997914269727      3.560638048153482
N       2.423043233200019     -1.357086196978718      2.719317355565602
H       2.835972066732791     -2.093744693684498      3.469684819495532
C       3.038841073120647     -1.330045452107048      1.828944005799507
C       4.612790376484564     -1.865145797248907      1.164423770383614
H       4.990505528399496     -2.246509532407483      2.162252289856343
C       5.055069099529369     -1.518263398816162      0.060400422113008
H       6.119058727379368     -1.799566660754152     -0.252460132184919
C       4.218112546009452     -0.685620675821184     -0.946616036177037
H       4.458509579046062     -0.576830855552225     -1.953203109665284
C       2.761143008622415     -0.383332921939751     -0.591520633848460
H       2.348759354663355      0.134021650449244     -1.412671248364630
C       2.361210619129193     -0.670335072467084      0.908430158076862
