      -----------------------------------------------------------      
     |                   =====================                   |     
     |                           x T B                           |     
     |                   =====================                   |     
     |                         S. Grimme                         |     
     |          Mulliken Center for Theoretical Chemistry        |     
     |                    University of Bonn                     |     
      -----------------------------------------------------------      

   * xtb version 6.7.1-6.fc44.fc44 compiled by Fedora project on Sun Jan 18 23:32:34 UTC 2026

   xtb is free software: you can redistribute it and/or modify it under
   the terms of the GNU Lesser General Public License as published by
   the Free Software Foundation, either version 3 of the License, or
   (at your option) any later version.
   
   xtb is distributed in the hope that it will be useful,
   but WITHOUT ANY WARRANTY; without even the implied warranty of
   MERCHANTABILITY or FITNESS FOR A PARTICULAR PURPOSE.  See the
   GNU Lesser General Public License for more details.
   
   Cite this work as:
   * C. Bannwarth, E. Caldeweyher, S. Ehlert, A. Hansen, P. Pracht,
     J. Seibert, S. Spicher, S. Grimme, WIREs Comput. Mol. Sci., 2020, 11,
     e01493. DOI: 10.1002/wcms.1493
   
   for GFN2-xTB:
   * C. Bannwarth, S. Ehlert and S. Grimme., J. Chem. Theory Comput., 2019,
     15, 1652-1671. DOI: 10.1021/acs.jctc.8b01176
   for GFN1-xTB:
   * S. Grimme, C. Bannwarth, P. Shushkov, J. Chem. Theory Comput., 2017,
     13, 1989-2009. DOI: 10.1021/acs.jctc.7b00118
   for GFN0-xTB:
   * P. Pracht, E. Caldeweyher, S. Ehlert, S. Grimme, ChemRxiv, 2019, preprint.
     DOI: 10.26434/chemrxiv.8326202.v1
   for GFN-FF:
   * S. Spicher and S. Grimme, Angew. Chem. Int. Ed., 2020, 59, 15665-15673.
     DOI: 10.1002/anie.202004239
   
   for ALPB and GBSA implicit solvation:
   * S. Ehlert, M. Stahn, S. Spicher, S. Grimme, J. Chem. Theory Comput.,
     2021, 17, 4250-4261. DOI: 10.1021/acs.jctc.1c00471
   
   for ddCOSMO and CPCM-X implicit solvation:
   * M. Stahn, S. Ehlert, S. Grimme, J. Phys. Chem. A,
     2023, XX, XXXX-XXXX. DOI: 10.1021/acs.jpca.3c04382
   
   for DFT-D4:
   * E. Caldeweyher, C. Bannwarth and S. Grimme, J. Chem. Phys., 2017,
     147, 034112. DOI: 10.1063/1.4993215
   * E. Caldeweyher, S. Ehlert, A. Hansen, H. Neugebauer, S. Spicher,
     C. Bannwarth and S. Grimme, J. Chem. Phys., 2019, 150, 154122.
     DOI: 10.1063/1.5090222
   * E. Caldeweyher, J.-M. Mewes, S. Ehlert and S. Grimme, Phys. Chem. Chem. Phys.
     2020, 22, 8499-8512. DOI: 10.1039/D0CP00502A
   
   for sTDA-xTB:
   * S. Grimme and C. Bannwarth, J. Chem. Phys., 2016, 145, 054103.
     DOI: 10.1063/1.4959605
   
   in the mass-spec context:
   * V. Asgeirsson, C. Bauer and S. Grimme, Chem. Sci., 2017, 8, 4879.
     DOI: 10.1039/c7sc00601b
   * J. Koopman and S. Grimme, ACS Omega 2019, 4, 12, 15120-15133.
     DOI: 10.1021/acsomega.9b02011
   
   for metadynamics refer to:
   * S. Grimme, J. Chem. Theory Comput., 2019, 155, 2847-2862
     DOI: 10.1021/acs.jctc.9b00143
   
   for SPH calculations refer to:
   * S. Spicher and S. Grimme, J. Chem. Theory Comput., 2021, 17, 1701-1714
     DOI: 10.1021/acs.jctc.0c01306
   
   for ONIOM refer to:
   * C. Plett, A. Katbashev, S. Ehlert, S. Grimme, M. Bursch,
     Phys. Chem. Chem. Phys., 2023, 25, 17860-17868. DOI: 10.1039/D3CP02178E
   
   for DIPRO refer to:
   * J. Kohn, N. Gildemeister, S. Grimme, D. Fazzi, A. Hansen,
     J. Chem. Phys., 2023, just accepted.
   
   for PTB refer to:
   * S. Grimme, M. Mueller, A. Hansen, J. Chem. Phys., 2023, 158, 124111.
     DOI: 10.1063/5.0137838
   
   with help from (in alphabetical order)
   P. Atkinson, C. Bannwarth, F. Bohle, G. Brandenburg, E. Caldeweyher
   M. Checinski, S. Dohm, S. Ehlert, S. Ehrlich, I. Gerasimov, C. Hölzer
   A. Katbashev, J. Kohn, J. Koopman, C. Lavigne, S. Lehtola, F. März, M. Müller,
   F. Musil, H. Neugebauer, J. Pisarek, C. Plett, P. Pracht, F. Pultar,
   J. Seibert, P. Shushkov, S. Spicher, M. Stahn, M. Steiner, T. Strunk,
   J. Stückrath, T. Rose, and J. Unsleber
   
 * started run on 2026/10/01 at 18:05:14.830     
   ID    Z sym.   atoms
    1    8 O      1, 3, 11
    2    6 C      2, 5, 10, 12, 17, 20, 21, 25, 26, 28, 30, 32, 34
    3    1 H      4, 6, 7, 9, 13, 15, 16, 18, 19, 22, 24, 27, 29, 31, 33
    4    7 N      8, 14, 23

           -------------------------------------------------
          |                Calculation Setup                |
           -------------------------------------------------

          program call               : /usr/bin/xtb input.xyz --opt --gfn 2 --chrg 0 --uhf 0
          hostname                   : fedora
          coordinate file            : input.xyz
          omp threads                :                    16


           -------------------------------------------------
          |                 G F N 2 - x T B                 |
           -------------------------------------------------

        Reference                      10.1021/acs.jctc.8b01176
      * Hamiltonian:
        H0-scaling (s, p, d)           1.850000    2.230000    2.230000
        zeta-weighting                 0.500000
      * Dispersion:
        s8                             2.700000
        a1                             0.520000
        a2                             5.000000
        s9                             5.000000
      * Repulsion:
        kExp                           1.500000    1.000000
        rExp                           1.000000
      * Coulomb:
        alpha                          2.000000
        third order                    shell-resolved
        anisotropic                    true
        a3                             3.000000
        a5                             4.000000
        cn-shift                       1.200000
        cn-exp                         4.000000
        max-rad                        5.000000


          ...................................................
          :                      SETUP                      :
          :.................................................:
          :  # basis functions                  91          :
          :  # atomic orbitals                  91          :
          :  # shells                           53          :
          :  # electrons                       100          :
          :  max. iterations                   250          :
          :  Hamiltonian                  GFN2-xTB          :
          :  restarted?                      false          :
          :  GBSA solvation                  false          :
          :  PC potential                    false          :
          :  electronic temp.          300.0000000     K    :
          :  accuracy                    1.0000000          :
          :  -> integral cutoff          0.2500000E+02      :
          :  -> integral neglect         0.1000000E-07      :
          :  -> SCF convergence          0.1000000E-05 Eh   :
          :  -> wf. convergence          0.1000000E-03 e    :
          :  Broyden damping             0.4000000          :
          :  net charge                          0          :
          :  unpaired electrons                  0          :
          ...................................................

 iter      E             dE          RMSdq      gap      omega  full diag
   1    -56.7859496 -0.567859E+02  0.468E+00    1.95       0.0  T
   2    -56.9555519 -0.169602E+00  0.291E+00    2.73       1.0  T
   3    -56.9728995 -0.173476E-01  0.156E+00    2.92       1.0  T
   4    -56.9691106  0.378893E-02  0.830E-01    2.85       1.0  T
   5    -56.9808350 -0.117245E-01  0.479E-01    2.95       1.0  T
   6    -56.9883248 -0.748977E-02  0.893E-02    2.88       1.0  T
   7    -56.9883990 -0.742148E-04  0.446E-02    2.88       1.0  T
   8    -56.9884141 -0.150702E-04  0.170E-02    2.88       1.0  T
   9    -56.9884160 -0.192027E-05  0.786E-03    2.88       2.2  T
  10    -56.9884168 -0.781961E-06  0.329E-03    2.88       5.2  T
  11    -56.9884169 -0.101968E-06  0.122E-03    2.88      14.0  T
  12    -56.9884169 -0.189675E-07  0.456E-04    2.88      37.6  T
  13    -56.9884169 -0.102153E-08  0.179E-04    2.88      96.0  T

   *** convergence criteria satisfied after 13 iterations ***

         #    Occupation            Energy/Eh            Energy/eV
      -------------------------------------------------------------
         1        2.0000           -0.7762263             -21.1222
       ...           ...                  ...                  ...
        44        2.0000           -0.4154855             -11.3059
        45        2.0000           -0.4008178             -10.9068
        46        2.0000           -0.3961719             -10.7804
        47        2.0000           -0.3941130             -10.7244
        48        2.0000           -0.3788500             -10.3090
        49        2.0000           -0.3735142             -10.1638
        50        2.0000           -0.3623722              -9.8606 (HOMO)
        51                         -0.2565249              -6.9804 (LUMO)
        52                         -0.2295590              -6.2466
        53                         -0.2013063              -5.4778
        54                         -0.1826193              -4.9693
        55                         -0.1568323              -4.2676
       ...                                ...                  ...
        91                          1.6134976              43.9055
      -------------------------------------------------------------
                  HL-Gap            0.1058473 Eh            2.8803 eV
             Fermi-level           -0.3094485 Eh           -8.4205 eV

 SCC (total)                   0 d,  0 h,  0 min,  0.027 sec
 SCC setup                      ...        0 min,  0.000 sec (  0.785%)
 Dispersion                     ...        0 min,  0.001 sec (  2.046%)
 classical contributions        ...        0 min,  0.001 sec (  2.023%)
 integral evaluation            ...        0 min,  0.001 sec (  2.077%)
 iterations                     ...        0 min,  0.022 sec ( 84.072%)
 molecular gradient             ...        0 min,  0.002 sec (  7.771%)
 printout                       ...        0 min,  0.000 sec (  1.188%)

         :::::::::::::::::::::::::::::::::::::::::::::::::::::
         ::                     SUMMARY                     ::
         :::::::::::::::::::::::::::::::::::::::::::::::::::::
         :: total energy             -55.746077085396 Eh    ::
         :: gradient norm              1.481802816175 Eh/a0 ::
         :: HOMO-LUMO gap              2.880252063686 eV    ::
         ::.................................................::
         :: SCC energy               -56.988307848037 Eh    ::
         :: -> isotropic ES            0.109180077628 Eh    ::
         :: -> anisotropic ES          0.002533358007 Eh    ::
         :: -> anisotropic XC          0.019242511262 Eh    ::
         :: -> dispersion             -0.032372440005 Eh    ::
         :: repulsion energy           1.242230762641 Eh    ::
         :: add. restraining           0.000000000000 Eh    ::
         :: total charge               0.000000000000 e     ::
         :::::::::::::::::::::::::::::::::::::::::::::::::::::

      ----------------------------------------------------------- 
     |                   =====================                   |
     |                        A N C O P T                        |
     |                   =====================                   |
     |               Approximate Normal Coordinate               |
     |                Rational Function Optimizer                |
      ----------------------------------------------------------- 
      ----------------------------------------------------------- 
     |                   =====================                   |
     |                        A N C O P T                        |
     |                   =====================                   |
     |               Approximate Normal Coordinate               |
     |                Rational Function Optimizer                |
      ----------------------------------------------------------- 

          ...................................................
          :                      SETUP                      :
          :.................................................:
          :   optimization level            normal          :
          :   max. optcycles                   200          :
          :   ANC micro-cycles                  20          :
          :   degrees of freedom                96          :
          :.................................................:
          :   RF solver                   davidson          :
          :   write xtbopt.log                true          :
          :   linear?                        false          :
          :   energy convergence         0.5000000E-05 Eh   :
          :   grad. convergence          0.1000000E-02 Eh/α :
          :   maxmium RF displ.          1.0000000          :
          :   Hlow (freq-cutoff)         0.1000000E-01      :
          :   Hmax (freq-cutoff)         5.0000000          :
          :   S6 in model hess.         20.0000000          :
          ...................................................

generating ANC from exact Hessian ...
Using Lindh-Hessian (1995)
 Shifting diagonal of input Hessian by    9.7874854270922854E-003
 Lowest  eigenvalues of input Hessian
    0.000000    0.000000    0.000000    0.000000    0.000000    0.000000
    0.010000    0.010205    0.010495    0.011149    0.012312    0.013871
    0.014995    0.015288    0.018526    0.020645    0.021145    0.024230
 Highest eigenvalues
    2.416912    2.819248    2.942602    3.093667    3.170322    3.293535


........................................................................
.............................. CYCLE    1 ..............................
........................................................................

 iter      E             dE          RMSdq      gap      omega  full diag
   1    -56.9884169 -0.569884E+02  0.530E-05    2.88       0.0  T
   2    -56.9884169 -0.646594E-11  0.342E-05    2.88     501.4  T
   3    -56.9884169  0.202078E-10  0.326E-05    2.88     526.7  T
     SCC iter.                  ...        0 min,  0.019 sec
     gradient                   ...        0 min,  0.002 sec
 * total energy  :   -55.7460771 Eh     change       -0.2373426E-09 Eh
   gradient norm :     1.4818032 Eh/α   predicted     0.0000000E+00 (-100.00%)
   displ. norm   :     0.5549864 α      lambda       -0.7632052E+00
   maximum displ.:     0.2559680 α      in ANC's #86, #95, #87, ...

........................................................................
.............................. CYCLE    2 ..............................
........................................................................

 iter      E             dE          RMSdq      gap      omega  full diag
   1    -57.0389975 -0.570390E+02  0.103E+00    3.39       0.0  T
   2    -57.0559176 -0.169201E-01  0.605E-01    3.32       1.0  T
   3    -57.0582540 -0.233642E-02  0.344E-01    3.35       1.0  T
   4    -57.0581881  0.659108E-04  0.178E-01    3.35       1.0  T
   5    -57.0585105 -0.322388E-03  0.908E-02    3.34       1.0  T
   6    -57.0587664 -0.255898E-03  0.196E-02    3.35       1.0  T
   7    -57.0587715 -0.508703E-05  0.936E-03    3.35       1.8  T
   8    -57.0587731 -0.160734E-05  0.374E-03    3.35       4.6  T
   9    -57.0587731 -0.439905E-07  0.173E-03    3.35       9.9  T
  10    -57.0587732 -0.541043E-07  0.572E-04    3.35      30.0  T
  11    -57.0587732 -0.134148E-08  0.228E-04    3.35      75.4  T
     SCC iter.                  ...        0 min,  0.030 sec
     gradient                   ...        0 min,  0.002 sec
 * total energy  :   -56.2433545 Eh     change       -0.4972774E+00 Eh
   gradient norm :     0.5430994 Eh/α   predicted    -0.4991414E+00 (   0.37%)
   displ. norm   :     0.5546132 α      lambda       -0.2465355E+00
   maximum displ.:     0.1689934 α      in ANC's #48, #86, #54, ...

........................................................................
.............................. CYCLE    3 ..............................
........................................................................

 iter      E             dE          RMSdq      gap      omega  full diag
   1    -57.1551486 -0.571551E+02  0.715E-01    3.68       0.0  T
   2    -57.1574171 -0.226854E-02  0.423E-01    3.65       1.0  T
   3    -57.1572862  0.130949E-03  0.189E-01    3.65       1.0  T
   4    -57.1576475 -0.361320E-03  0.677E-02    3.67       1.0  T
   5    -57.1577652 -0.117642E-03  0.243E-02    3.66       1.0  T
   6    -57.1577761 -0.109903E-04  0.852E-03    3.66       2.0  T
   7    -57.1577767 -0.517683E-06  0.371E-03    3.66       4.6  T
   8    -57.1577768 -0.980789E-07  0.170E-03    3.66      10.1  T
   9    -57.1577768 -0.269063E-07  0.517E-04    3.66      33.2  T
  10    -57.1577768 -0.367834E-08  0.284E-04    3.66      60.4  T
     SCC iter.                  ...        0 min,  0.028 sec
     gradient                   ...        0 min,  0.002 sec
 * total energy  :   -56.4201522 Eh     change       -0.1767977E+00 Eh
   gradient norm :     0.2164458 Eh/α   predicted    -0.1611846E+00 (  -8.83%)
   displ. norm   :     0.4802912 α      lambda       -0.8081193E-01
   maximum displ.:     0.1548535 α      in ANC's #48, #59, #26, ...

........................................................................
.............................. CYCLE    4 ..............................
........................................................................

 iter      E             dE          RMSdq      gap      omega  full diag
   1    -57.2096011 -0.572096E+02  0.547E-01    3.51       0.0  T
   2    -57.2106999 -0.109877E-02  0.320E-01    3.49       1.0  T
   3    -57.2106629  0.369466E-04  0.139E-01    3.49       1.0  T
   4    -57.2108329 -0.169980E-03  0.339E-02    3.49       1.0  T
   5    -57.2108602 -0.272747E-04  0.141E-02    3.49       1.2  T
   6    -57.2108635 -0.333763E-05  0.599E-03    3.49       2.9  T
   7    -57.2108640 -0.419606E-06  0.258E-03    3.49       6.7  T
   8    -57.2108640 -0.587050E-07  0.125E-03    3.49      13.7  T
   9    -57.2108640 -0.237043E-07  0.314E-04    3.49      54.7  T
  10    -57.2108640 -0.330019E-09  0.153E-04    3.49     112.2  T
     SCC iter.                  ...        0 min,  0.021 sec
     gradient                   ...        0 min,  0.001 sec
 * total energy  :   -56.4647249 Eh     change       -0.4457272E-01 Eh
   gradient norm :     0.0985346 Eh/α   predicted    -0.4972704E-01 (  11.56%)
   displ. norm   :     0.3531177 α      lambda       -0.1464126E-01
   maximum displ.:     0.1713384 α      in ANC's #19, #34, #26, ...

........................................................................
.............................. CYCLE    5 ..............................
........................................................................

 iter      E             dE          RMSdq      gap      omega  full diag
   1    -57.2085093 -0.572085E+02  0.274E-01    3.46       0.0  T
   2    -57.2086545 -0.145256E-03  0.168E-01    3.46       1.0  T
   3    -57.2086076  0.468851E-04  0.583E-02    3.46       1.0  T
   4    -57.2086715 -0.638881E-04  0.187E-02    3.46       1.0  T
   5    -57.2086809 -0.934734E-05  0.450E-03    3.46       3.8  T
   6    -57.2086809 -0.429719E-07  0.267E-03    3.46       6.4  T
   7    -57.2086810 -0.736194E-07  0.105E-03    3.46      16.3  T
   8    -57.2086810 -0.160850E-07  0.371E-04    3.46      46.2  T
   9    -57.2086810 -0.178925E-08  0.163E-04    3.46     105.3  T
     SCC iter.                  ...        0 min,  0.028 sec
     gradient                   ...        0 min,  0.002 sec
 * total energy  :   -56.4725240 Eh     change       -0.7799170E-02 Eh
   gradient norm :     0.0585560 Eh/α   predicted    -0.8233472E-02 (   5.57%)
   displ. norm   :     0.2630985 α      lambda       -0.6457764E-02
   maximum displ.:     0.0743691 α      in ANC's #3, #27, #19, ...

........................................................................
.............................. CYCLE    6 ..............................
........................................................................

 iter      E             dE          RMSdq      gap      omega  full diag
   1    -57.2260518 -0.572261E+02  0.175E-01    3.50       0.0  T
   2    -57.2260858 -0.339936E-04  0.104E-01    3.49       1.0  T
   3    -57.2260157  0.700646E-04  0.629E-02    3.50       1.0  T
   4    -57.2261139 -0.981719E-04  0.868E-03    3.49       2.0  T
   5    -57.2261153 -0.136939E-05  0.329E-03    3.49       5.2  T
   6    -57.2261153 -0.471974E-07  0.148E-03    3.49      11.6  T
   7    -57.2261153 -0.125117E-07  0.327E-04    3.49      52.5  T
   8    -57.2261153 -0.636817E-09  0.160E-04    3.49     107.5  T
     SCC iter.                  ...        0 min,  0.020 sec
     gradient                   ...        0 min,  0.001 sec
 * total energy  :   -56.4761894 Eh     change       -0.3665368E-02 Eh
   gradient norm :     0.0392771 Eh/α   predicted    -0.3452417E-02 (  -5.81%)
   displ. norm   :     0.2145115 α      lambda       -0.3368961E-02
   maximum displ.:     0.0734460 α      in ANC's #19, #3, #9, ...

........................................................................
.............................. CYCLE    7 ..............................
........................................................................

 iter      E             dE          RMSdq      gap      omega  full diag
   1    -57.2310041 -0.572310E+02  0.129E-01    3.55       0.0  T
   2    -57.2310233 -0.191973E-04  0.784E-02    3.55       1.0  T
   3    -57.2310079  0.153221E-04  0.252E-02    3.55       1.0  T
   4    -57.2310267 -0.188084E-04  0.786E-03    3.55       2.2  T
   5    -57.2310281 -0.139366E-05  0.270E-03    3.55       6.3  T
   6    -57.2310282 -0.275757E-07  0.126E-03    3.55      13.6  T
   7    -57.2310282 -0.218551E-07  0.443E-04    3.55      38.7  T
   8    -57.2310282 -0.241353E-08  0.155E-04    3.55     110.5  T
     SCC iter.                  ...        0 min,  0.016 sec
     gradient                   ...        0 min,  0.002 sec
 * total energy  :   -56.4778785 Eh     change       -0.1689078E-02 Eh
   gradient norm :     0.0225560 Eh/α   predicted    -0.1762116E-02 (   4.32%)
   displ. norm   :     0.1309478 α      lambda       -0.1011103E-02
   maximum displ.:     0.0669655 α      in ANC's #8, #23, #6, ...

........................................................................
.............................. CYCLE    8 ..............................
........................................................................

 iter      E             dE          RMSdq      gap      omega  full diag
   1    -57.2346456 -0.572346E+02  0.878E-02    3.57       0.0  T
   2    -57.2346521 -0.652774E-05  0.520E-02    3.58       1.0  T
   3    -57.2346455  0.665817E-05  0.183E-02    3.57       1.0  T
   4    -57.2346536 -0.812816E-05  0.441E-03    3.58       3.9  T
   5    -57.2346541 -0.503481E-06  0.136E-03    3.58      12.6  T
   6    -57.2346541 -0.822438E-08  0.530E-04    3.58      32.3  T
   7    -57.2346541 -0.424885E-08  0.189E-04    3.58      90.8  T
     SCC iter.                  ...        0 min,  0.018 sec
     gradient                   ...        0 min,  0.002 sec
 * total energy  :   -56.4784294 Eh     change       -0.5509322E-03 Eh
   gradient norm :     0.0113966 Eh/α   predicted    -0.5142325E-03 (  -6.66%)
   displ. norm   :     0.1014307 α      lambda       -0.4382720E-03
   maximum displ.:     0.0446451 α      in ANC's #8, #12, #7, ...

........................................................................
.............................. CYCLE    9 ..............................
........................................................................

 iter      E             dE          RMSdq      gap      omega  full diag
   1    -57.2357621 -0.572358E+02  0.589E-02    3.58       0.0  T
   2    -57.2357645 -0.243525E-05  0.347E-02    3.58       1.0  T
   3    -57.2357604  0.410850E-05  0.149E-02    3.58       1.2  T
   4    -57.2357656 -0.516529E-05  0.226E-03    3.58       7.6  T
   5    -57.2357657 -0.106065E-06  0.102E-03    3.58      16.9  T
   6    -57.2357657 -0.976330E-08  0.471E-04    3.58      36.4  T
   7    -57.2357657 -0.273570E-08  0.142E-04    3.58     120.8  T
     SCC iter.                  ...        0 min,  0.014 sec
     gradient                   ...        0 min,  0.002 sec
 * total energy  :   -56.4787028 Eh     change       -0.2733495E-03 Eh
   gradient norm :     0.0073296 Eh/α   predicted    -0.2213849E-03 ( -19.01%)
   displ. norm   :     0.0985079 α      lambda       -0.2361550E-03
   maximum displ.:     0.0479788 α      in ANC's #8, #12, #6, ...

........................................................................
.............................. CYCLE   10 ..............................
........................................................................

 iter      E             dE          RMSdq      gap      omega  full diag
   1    -57.2353594 -0.572354E+02  0.509E-02    3.57       0.0  T
   2    -57.2353618 -0.238888E-05  0.302E-02    3.57       1.0  T
   3    -57.2353606  0.121943E-05  0.871E-03    3.57       2.0  T
   4    -57.2353623 -0.178321E-05  0.188E-03    3.57       9.1  T
   5    -57.2353624 -0.527115E-07  0.923E-04    3.57      18.6  T
   6    -57.2353624 -0.232139E-08  0.400E-04    3.57      42.9  T
     SCC iter.                  ...        0 min,  0.013 sec
     gradient                   ...        0 min,  0.002 sec
 * total energy  :   -56.4788221 Eh     change       -0.1192763E-03 Eh
   gradient norm :     0.0059302 Eh/α   predicted    -0.1192389E-03 (  -0.03%)
   displ. norm   :     0.0555882 α      lambda       -0.1072371E-03
   maximum displ.:     0.0258027 α      in ANC's #8, #7, #20, ...

........................................................................
.............................. CYCLE   11 ..............................
........................................................................

 iter      E             dE          RMSdq      gap      omega  full diag
   1    -57.2354318 -0.572354E+02  0.325E-02    3.57       0.0  T
   2    -57.2354327 -0.851474E-06  0.193E-02    3.57       1.0  T
   3    -57.2354320  0.688409E-06  0.553E-03    3.57       3.1  T
   4    -57.2354329 -0.868951E-06  0.150E-03    3.57      11.5  T
   5    -57.2354329 -0.554823E-07  0.567E-04    3.57      30.2  T
   6    -57.2354329 -0.785676E-09  0.273E-04    3.57      62.8  T
     SCC iter.                  ...        0 min,  0.012 sec
     gradient                   ...        0 min,  0.002 sec
 * total energy  :   -56.4788570 Eh     change       -0.3495688E-04 Eh
   gradient norm :     0.0052053 Eh/α   predicted    -0.5379079E-04 (  53.88%)
   displ. norm   :     0.0373119 α      lambda       -0.7141656E-04
   maximum displ.:     0.0167346 α      in ANC's #4, #11, #5, ...

........................................................................
.............................. CYCLE   12 ..............................
........................................................................

 iter      E             dE          RMSdq      gap      omega  full diag
   1    -57.2357622 -0.572358E+02  0.269E-02    3.58       0.0  T
   2    -57.2357628 -0.572604E-06  0.159E-02    3.58       1.1  T
   3    -57.2357619  0.964772E-06  0.643E-03    3.58       2.7  T
   4    -57.2357631 -0.119732E-05  0.109E-03    3.58      15.8  T
   5    -57.2357631 -0.241170E-07  0.414E-04    3.58      41.5  T
   6    -57.2357631 -0.130826E-08  0.224E-04    3.58      76.4  T
     SCC iter.                  ...        0 min,  0.011 sec
     gradient                   ...        0 min,  0.003 sec
 * total energy  :   -56.4788947 Eh     change       -0.3767096E-04 Eh
   gradient norm :     0.0031179 Eh/α   predicted    -0.3575925E-04 (  -5.07%)
   displ. norm   :     0.0344059 α      lambda       -0.3819312E-04
   maximum displ.:     0.0153990 α      in ANC's #4, #17, #7, ...

........................................................................
.............................. CYCLE   13 ..............................
........................................................................

 iter      E             dE          RMSdq      gap      omega  full diag
   1    -57.2353928 -0.572354E+02  0.214E-02    3.58       0.0  T
   2    -57.2353932 -0.394828E-06  0.126E-02    3.58       1.4  T
   3    -57.2353925  0.698945E-06  0.605E-03    3.58       2.8  T
   4    -57.2353934 -0.886077E-06  0.104E-03    3.58      16.5  T
   5    -57.2353934 -0.245131E-07  0.344E-04    3.58      49.8  T
   6    -57.2353934 -0.556689E-09  0.182E-04    3.58      94.2  T
     SCC iter.                  ...        0 min,  0.009 sec
     gradient                   ...        0 min,  0.002 sec
 * total energy  :   -56.4789107 Eh     change       -0.1599135E-04 Eh
   gradient norm :     0.0027912 Eh/α   predicted    -0.1912354E-04 (  19.59%)
   displ. norm   :     0.0245315 α      lambda       -0.1842773E-04
   maximum displ.:     0.0101114 α      in ANC's #12, #4, #15, ...

........................................................................
.............................. CYCLE   14 ..............................
........................................................................

 iter      E             dE          RMSdq      gap      omega  full diag
   1    -57.2354164 -0.572354E+02  0.115E-02    3.58       0.0  T
   2    -57.2354165 -0.767304E-07  0.669E-03    3.58       2.6  T
   3    -57.2354165  0.625370E-07  0.183E-03    3.58       9.4  T
   4    -57.2354165 -0.810361E-07  0.471E-04    3.58      36.4  T
   5    -57.2354165 -0.428644E-08  0.211E-04    3.58      81.1  T
     SCC iter.                  ...        0 min,  0.008 sec
     gradient                   ...        0 min,  0.001 sec
 * total energy  :   -56.4789224 Eh     change       -0.1168610E-04 Eh
   gradient norm :     0.0022177 Eh/α   predicted    -0.9220582E-05 ( -21.10%)
   displ. norm   :     0.0277792 α      lambda       -0.1219601E-04
   maximum displ.:     0.0122615 α      in ANC's #12, #15, #4, ...

........................................................................
.............................. CYCLE   15 ..............................
........................................................................

 iter      E             dE          RMSdq      gap      omega  full diag
   1    -57.2356632 -0.572357E+02  0.107E-02    3.58       0.0  T
   2    -57.2356633 -0.120572E-06  0.629E-03    3.57       2.7  T
   3    -57.2356632  0.119398E-06  0.246E-03    3.57       7.0  T
   4    -57.2356634 -0.149053E-06  0.587E-04    3.58      29.2  T
   5    -57.2356634 -0.795092E-08  0.218E-04    3.57      78.8  T
     SCC iter.                  ...        0 min,  0.012 sec
     gradient                   ...        0 min,  0.001 sec
 * total energy  :   -56.4789298 Eh     change       -0.7465307E-05 Eh
   gradient norm :     0.0013863 Eh/α   predicted    -0.6104125E-05 ( -18.23%)
   displ. norm   :     0.0361062 α      lambda       -0.6176756E-05
   maximum displ.:     0.0146965 α      in ANC's #12, #15, #4, ...

........................................................................
.............................. CYCLE   16 ..............................
........................................................................

 iter      E             dE          RMSdq      gap      omega  full diag
   1    -57.2354260 -0.572354E+02  0.133E-02    3.57       0.0  T
   2    -57.2354262 -0.183158E-06  0.791E-03    3.57       2.2  T
   3    -57.2354261  0.117001E-06  0.248E-03    3.57       6.9  T
   4    -57.2354262 -0.143867E-06  0.772E-04    3.57      22.2  T
   5    -57.2354262 -0.149284E-07  0.261E-04    3.57      65.6  T
     SCC iter.                  ...        0 min,  0.011 sec
     gradient                   ...        0 min,  0.002 sec
 * total energy  :   -56.4789333 Eh     change       -0.3508575E-05 Eh
   gradient norm :     0.0013409 Eh/α   predicted    -0.3090972E-05 ( -11.90%)
   displ. norm   :     0.0151300 α      lambda       -0.3799204E-05
   maximum displ.:     0.0063662 α      in ANC's #15, #5, #3, ...

........................................................................
.............................. CYCLE   17 ..............................
........................................................................

 iter      E             dE          RMSdq      gap      omega  full diag
   1    -57.2355479 -0.572355E+02  0.750E-03    3.57       0.0  T
   2    -57.2355480 -0.648874E-07  0.445E-03    3.57       3.9  T
   3    -57.2355480  0.273611E-07  0.138E-03    3.57      12.4  T
   4    -57.2355480 -0.362248E-07  0.358E-04    3.57      47.9  T
   5    -57.2355480 -0.417798E-08  0.134E-04    3.57     128.1  T
     SCC iter.                  ...        0 min,  0.011 sec
     gradient                   ...        0 min,  0.002 sec
 * total energy  :   -56.4789355 Eh     change       -0.2209006E-05 Eh
   gradient norm :     0.0011795 Eh/α   predicted    -0.1901659E-05 ( -13.91%)
   displ. norm   :     0.0141970 α      lambda       -0.2455785E-05
   maximum displ.:     0.0072568 α      in ANC's #5, #8, #12, ...

........................................................................
.............................. CYCLE   18 ..............................
........................................................................

 iter      E             dE          RMSdq      gap      omega  full diag
   1    -57.2356125 -0.572356E+02  0.604E-03    3.57       0.0  T
   2    -57.2356125 -0.376858E-07  0.356E-03    3.57       4.8  T
   3    -57.2356125  0.633752E-08  0.847E-04    3.57      20.2  T
   4    -57.2356125 -0.114246E-07  0.200E-04    3.57      85.6  T
     SCC iter.                  ...        0 min,  0.006 sec
     gradient                   ...        0 min,  0.001 sec
 * total energy  :   -56.4789376 Eh     change       -0.2103227E-05 Eh
   gradient norm :     0.0009697 Eh/α   predicted    -0.1232441E-05 ( -41.40%)
   displ. norm   :     0.0198269 α      lambda       -0.2086924E-05
   maximum displ.:     0.0116594 α      in ANC's #5, #15, #3, ...

   *** GEOMETRY OPTIMIZATION CONVERGED AFTER 18 ITERATIONS ***

------------------------------------------------------------------------
 total energy gain   :        -0.7328606 Eh     -459.8769 kcal/mol
 total RMSD          :         0.3092657 a0        0.1637 Å
 total power (kW/mol):      -106.8958409 (step)-5371.4815 (real)
------------------------------------------------------------------------

 ANCopt (total)                0 d,  0 h,  0 min,  0.358 sec
 optimizer setup                ...        0 min,  0.000 sec (  0.039%)
 model hessian                  ...        0 min,  0.005 sec (  1.520%)
 ANC generation                 ...        0 min,  0.002 sec (  0.644%)
 coordinate transformation      ...        0 min,  0.000 sec (  0.044%)
 single point calculation       ...        0 min,  0.338 sec ( 94.419%)
 optimization log               ...        0 min,  0.002 sec (  0.588%)
 hessian update                 ...        0 min,  0.004 sec (  1.052%)
 rational function              ...        0 min,  0.003 sec (  0.956%)

================
 final structure:
================
34
 xtb: 6.7.1-6.fc44.fc44
O           -3.83520040726990        2.63517189484073       -0.47917866689848
C           -3.66764725305047        2.45638130898220       -1.77366018161906
O           -3.69189604700253        3.35040811324620       -2.57205229703165
H           -3.74732300708289        1.78392734759638        0.03708912083297
C           -3.47023679249095        0.98661077981444       -2.20901415683308
H           -3.34803828572103        0.95889861431546       -3.29080294727480
H           -4.38298885264637        0.44290380067213       -1.93101742666709
N           -2.32764661580582        0.35097524148827       -1.58519852217374
H           -1.53925117450948        0.05282402951458       -2.14653992556473
C           -2.28043188173729       -0.00141182211653       -0.29717087198757
O           -3.14790417805837        0.29609893858841        0.51887624204632
C           -1.01813613321391       -0.75609107462268        0.09217247668534
H           -1.29619375683101       -1.49523010264681        0.86075343367968
N           -0.40626241761621       -1.34199031301300       -1.09303925166864
H           -0.87137178607030       -2.20719627089058       -1.34657237935263
H            0.56739914278945       -1.55838884112727       -0.90639344355013
C           -0.05497811359526        0.26313452528894        0.74016470259715
H           -0.60135559180867        0.79919637288439        1.51770914402646
H            0.26209702165729        0.97449047963842       -0.02396300232179
C            1.13457331502709       -0.41850850198351        1.32998707913744
C            1.22547716681842       -0.96684959465138        2.57703602809810
H            0.49475232600115       -0.98012446130436        3.36294026719270
N            2.45287188441447       -1.54420903502802        2.75155780277995
H            2.77101286638054       -1.99345456786967        3.59263755324852
C            3.18823061941701       -1.37736152204479        1.61413338775452
C            4.48103979879741       -1.78251292357291        1.30632895585104
H            5.08154747973529       -2.32071794761569        2.02440958073529
C            4.96744587676482       -1.46880704790425        0.05594506617763
H            5.96894094744533       -1.76639929171417       -0.21632009618777
C            4.19084021902882       -0.76588914692898       -0.87002773333451
H            4.61218557836139       -0.53613210176686       -1.83731158170290
C            2.90937005048916       -0.36183408101364       -0.57266215018235
H            2.32066355862800        0.18466242262549       -1.29455281566232
C            2.38614769853659       -0.67065369237204        0.68484617307549

 Bond Distances (Angstroems)
 ---------------------------
O1-C2=1.3175         O1-H4=0.9994         C2-O1=1.3175         C2-O3=1.1989         C2-C5=1.5456         O3-C2=1.1989         
H4-O1=0.9994         C5-C2=1.5456         C5-H6=1.0890         C5-H7=1.0982         C5-N8=1.4487         H6-C5=1.0890         
H7-C5=1.0982         N8-C5=1.4487         N8-H9=1.0127         N8-C10=1.3362        H9-N8=1.0127         C10-N8=1.3362        
C10-O11=1.2276       C10-C12=1.5214       O11-C10=1.2276       C12-C10=1.5214       C12-H13=1.1020       C12-N14=1.4568       
C12-C17=1.5448       H13-C12=1.1020       N14-C12=1.4568       N14-H15=1.0145       N14-H16=1.0147       H15-N14=1.0145       
H16-N14=1.0147       C17-C12=1.5448       C17-H18=1.0911       C17-H19=1.0911       C17-C20=1.4925       H18-C17=1.0911       
H19-C17=1.0911       C20-C17=1.4925       C20-C21=1.3653       C20-C34=1.4305       C21-C20=1.3653       C21-H22=1.0732       
C21-N23=1.3676       H22-C21=1.0732       N23-C21=1.3676       N23-H24=1.0052       N23-C25=1.3647       H24-N23=1.0052       
C25-N23=1.3647       C25-C26=1.3893       C25-C34=1.4165       C26-C25=1.3893       C26-H27=1.0798       C26-C28=1.3778       
H27-C26=1.0798       C28-C26=1.3778       C28-H29=1.0797       C28-C30=1.3981       H29-C28=1.0797       C30-C28=1.3981       
C30-H31=1.0798       C30-C32=1.3762       H31-C30=1.0798       C32-C30=1.3762       C32-H33=1.0800       C32-C34=1.3966       
H33-C32=1.0800       C34-C20=1.4305       C34-C25=1.4165       C34-C32=1.3966       
 C  H  Rav=1.0864 sigma=0.0088  Rmin=1.0732  Rmax=1.1020    10
 C  C  Rav=1.4379 sigma=0.0657  Rmin=1.3653  Rmax=1.5456    12
 N  H  Rav=1.0118 sigma=0.0039  Rmin=1.0052  Rmax=1.0147     4
 N  C  Rav=1.3948 sigma=0.0487  Rmin=1.3362  Rmax=1.4568     5
 O  H  Rav=0.9994 sigma=0.0000  Rmin=0.9994  Rmax=0.9994     1
 O  C  Rav=1.2480 sigma=0.0505  Rmin=1.1989  Rmax=1.3175     3

 selected bond angles (degree)
 --------------------
H4-O1-C2=112.38                O3-C2-O1=123.41                C5-C2-O1=114.97                C5-C2-O3=121.61                
H6-C5-C2=108.56                H7-C5-C2=107.06                H7-C5-H6=109.40                N8-C5-C2=113.37                
N8-C5-H6=109.15                N8-C5-H7=109.23                H9-N8-C5=120.30                C10-N8-C5=123.96               
C10-N8-H9=115.41               O11-C10-N8=123.50              C12-C10-N8=114.01              C12-C10-O11=122.44             

 selected dihedral angles (degree)
 ---------------------------------
O3-C2-O1-H4=182.29            C5-C2-O1-H4=  3.83            H6-C5-C2-O1=179.69            H6-C5-C2-O3=  1.19            
H7-C5-C2-O1= 61.69            H7-C5-C2-O3=243.19            N8-C5-C2-O1=301.17            N8-C5-C2-O3=122.67            
H9-N8-C5-C2=244.96            H9-N8-C5-H6=  6.11            H9-N8-C5-H7=125.68            C10-N8-C5-C2= 71.80           
C10-N8-C5-H6=192.94           C10-N8-C5-H7=312.51           O11-C10-N8-C5=352.53          O11-C10-N8-H9=179.06          
C12-C10-N8-C5=175.18          C12-C10-N8-H9=  1.71          
           -------------------------------------------------
          |                Final Singlepoint                |
           -------------------------------------------------

          ...................................................
          :                      SETUP                      :
          :.................................................:
          :  # basis functions                  91          :
          :  # atomic orbitals                  91          :
          :  # shells                           53          :
          :  # electrons                       100          :
          :  max. iterations                   250          :
          :  Hamiltonian                  GFN2-xTB          :
          :  restarted?                      false          :
          :  GBSA solvation                  false          :
          :  PC potential                    false          :
          :  electronic temp.          300.0000000     K    :
          :  accuracy                    1.0000000          :
          :  -> integral cutoff          0.2500000E+02      :
          :  -> integral neglect         0.1000000E-07      :
          :  -> SCF convergence          0.1000000E-05 Eh   :
          :  -> wf. convergence          0.1000000E-03 e    :
          :  Broyden damping             0.4000000          :
          :  net charge                          0          :
          :  unpaired electrons                  0          :
          ...................................................

 iter      E             dE          RMSdq      gap      omega  full diag
   1    -57.2356125 -0.572356E+02  0.110E-04    3.57       0.0  T
   2    -57.2356125 -0.653486E-10  0.727E-05    3.57     235.8  T
   3    -57.2356125 -0.106340E-09  0.389E-05    3.57     440.8  T

   *** convergence criteria satisfied after 3 iterations ***

         #    Occupation            Energy/Eh            Energy/eV
      -------------------------------------------------------------
         1        2.0000           -0.7337306             -19.9658
       ...           ...                  ...                  ...
        44        2.0000           -0.4281118             -11.6495
        45        2.0000           -0.4247972             -11.5593
        46        2.0000           -0.4204561             -11.4412
        47        2.0000           -0.4017980             -10.9335
        48        2.0000           -0.3947295             -10.7411
        49        2.0000           -0.3913044             -10.6479
        50        2.0000           -0.3732757             -10.1573 (HOMO)
        51                         -0.2419684              -6.5843 (LUMO)
        52                         -0.2331272              -6.3437
        53                         -0.2289180              -6.2292
        54                         -0.2069524              -5.6315
        55                         -0.1683568              -4.5812
       ...                                ...                  ...
        91                          0.7072320              19.2448
      -------------------------------------------------------------
                  HL-Gap            0.1313072 Eh            3.5731 eV
             Fermi-level           -0.3076221 Eh           -8.3708 eV

 SCC (total)                   0 d,  0 h,  0 min,  0.010 sec
 SCC setup                      ...        0 min,  0.003 sec ( 28.012%)
 Dispersion                     ...        0 min,  0.000 sec (  1.113%)
 classical contributions        ...        0 min,  0.000 sec (  0.106%)
 integral evaluation            ...        0 min,  0.001 sec (  4.929%)
 iterations                     ...        0 min,  0.005 sec ( 48.816%)
 molecular gradient             ...        0 min,  0.001 sec ( 13.238%)
 printout                       ...        0 min,  0.000 sec (  3.704%)

         :::::::::::::::::::::::::::::::::::::::::::::::::::::
         ::                     SUMMARY                     ::
         :::::::::::::::::::::::::::::::::::::::::::::::::::::
         :: total energy             -56.478937646017 Eh    ::
         :: gradient norm              0.000970587036 Eh/a0 ::
         :: HOMO-LUMO gap              3.573051478478 eV    ::
         ::.................................................::
         :: SCC energy               -57.235529883486 Eh    ::
         :: -> isotropic ES            0.098470284619 Eh    ::
         :: -> anisotropic ES          0.003366524761 Eh    ::
         :: -> anisotropic XC          0.019364443076 Eh    ::
         :: -> dispersion             -0.034100870934 Eh    ::
         :: repulsion energy           0.756592237469 Eh    ::
         :: add. restraining           0.000000000000 Eh    ::
         :: total charge               0.000000000000 e     ::
         :::::::::::::::::::::::::::::::::::::::::::::::::::::

           -------------------------------------------------
          |                Property Printout                |
           -------------------------------------------------

    * Orbital Energies and Occupations

         #    Occupation            Energy/Eh            Energy/eV
      -------------------------------------------------------------
         1        2.0000           -0.7337306             -19.9658
       ...           ...                  ...                  ...
        38        2.0000           -0.4701005             -12.7921
        39        2.0000           -0.4638577             -12.6222
        40        2.0000           -0.4624252             -12.5832
        41        2.0000           -0.4576893             -12.4544
        42        2.0000           -0.4450309             -12.1099
        43        2.0000           -0.4356546             -11.8548
        44        2.0000           -0.4281118             -11.6495
        45        2.0000           -0.4247972             -11.5593
        46        2.0000           -0.4204561             -11.4412
        47        2.0000           -0.4017980             -10.9335
        48        2.0000           -0.3947295             -10.7411
        49        2.0000           -0.3913044             -10.6479
        50        2.0000           -0.3732757             -10.1573 (HOMO)
        51                         -0.2419684              -6.5843 (LUMO)
        52                         -0.2331272              -6.3437
        53                         -0.2289180              -6.2292
        54                         -0.2069524              -5.6315
        55                         -0.1683568              -4.5812
        56                         -0.0811606              -2.2085
        57                         -0.0191387              -0.5208
        58                          0.0115634               0.3147
        59                          0.0252637               0.6875
        60                          0.0644531               1.7539
        61                          0.0823122               2.2398
       ...                                ...                  ...
        91                          0.7072320              19.2448
      -------------------------------------------------------------
                  HL-Gap            0.1313072 Eh            3.5731 eV
             Fermi-level           -0.3076221 Eh           -8.3708 eV

     #   Z          covCN         q      C6AA      α(0)
     1   8 O        1.655    -0.375    20.378     6.094
     2   6 C        2.684     0.359    20.916     7.484
     3   8 O        0.856    -0.378    21.251     6.181
     4   1 H        0.800     0.365     0.556     1.171
     5   6 C        3.737    -0.039    21.360     6.595
     6   1 H        0.925     0.078     2.003     2.213
     7   1 H        0.923     0.074     2.042     2.235
     8   7 N        2.687    -0.163    24.532     7.356
     9   1 H        0.860     0.207     1.072     1.622
    10   6 C        2.758     0.261    22.600     7.785
    11   8 O        0.858    -0.462    22.965     6.425
    12   6 C        3.789     0.032    20.040     6.376
    13   1 H        0.923     0.035     2.522     2.484
    14   7 N        2.633    -0.357    29.194     8.025
    15   1 H        0.860     0.140     1.473     1.901
    16   1 H        0.860     0.164     1.311     1.794
    17   6 C        3.810    -0.062    21.687     6.629
    18   1 H        0.924     0.053     2.279     2.361
    19   1 H        0.924     0.052     2.291     2.367
    20   6 C        3.055    -0.032    28.737     8.791
    21   6 C        3.033    -0.007    28.171     8.706
    22   1 H        0.926     0.035     2.513     2.479
    23   7 N        2.778    -0.103    23.251     7.162
    24   1 H        0.860     0.160     1.336     1.811
    25   6 C        3.086     0.043    26.929     8.507
    26   6 C        2.908    -0.053    29.306     8.877
    27   1 H        0.926     0.025     2.665     2.553
    28   6 C        2.924    -0.036    28.893     8.815
    29   1 H        0.926     0.030     2.593     2.518
    30   6 C        2.919    -0.042    29.032     8.836
    31   1 H        0.926     0.028     2.612     2.527
    32   6 C        2.911    -0.041    29.007     8.831
    33   1 H        0.926     0.031     2.571     2.508
    34   6 C        3.116    -0.021    28.368     8.724

 Mol. C6AA /au·bohr⁶  :      13331.059278
 Mol. C8AA /au·bohr⁸  :     312416.375617
 Mol. α(0) /au        :        178.741302


Wiberg/Mayer (AO) data.
largest (>0.10) Wiberg bond orders for each atom

 ---------------------------------------------------------------------------
     #   Z sym  total        # sym  WBO       # sym  WBO       # sym  WBO
 ---------------------------------------------------------------------------
     1   8 O    2.233 --     2 C    1.202     4 H    0.768     3 O    0.183
     2   6 C    3.932 --     3 O    1.773     1 O    1.202     5 C    0.925
     3   8 O    2.065 --     2 C    1.773     1 O    0.183
     4   1 H    0.867 --     1 O    0.768
     5   6 C    3.964 --     8 N    0.992     6 H    0.974     7 H    0.952
                             2 C    0.925
     6   1 H    0.994 --     5 C    0.974
     7   1 H    0.994 --     5 C    0.952
     8   7 N    3.478 --    10 C    1.310     5 C    0.992     9 H    0.913
                            11 O    0.193
     9   1 H    0.957 --     8 N    0.913
    10   6 C    3.947 --    11 O    1.600     8 N    1.310    12 C    0.952
    11   8 O    2.006 --    10 C    1.600     8 N    0.193
    12   6 C    3.983 --    14 N    1.017    17 C    0.954    13 H    0.953
                            10 C    0.952
    13   1 H    0.999 --    12 C    0.953
    14   7 N    3.023 --    12 C    1.017    15 H    0.967    16 H    0.949
    15   1 H    0.980 --    14 N    0.967
    16   1 H    0.973 --    14 N    0.949
    17   6 C    3.992 --    20 C    1.016    19 H    0.972    18 H    0.969
                            12 C    0.954
    18   1 H    0.997 --    17 C    0.969
    19   1 H    0.997 --    17 C    0.972
    20   6 C    3.975 --    21 C    1.579    34 C    1.203    17 C    1.016
    21   6 C    3.950 --    20 C    1.579    23 N    1.199    22 H    0.970
    22   1 H    0.998 --    21 C    0.970
    23   7 N    3.545 --    21 C    1.199    25 C    1.177    24 H    0.947
    24   1 H    0.974 --    23 N    0.947
    25   6 C    3.958 --    26 C    1.338    34 C    1.247    23 N    1.177
    26   6 C    3.989 --    28 C    1.495    25 C    1.338    27 H    0.969
                            32 C    0.114
    27   1 H    0.999 --    26 C    0.969
    28   6 C    3.991 --    26 C    1.495    30 C    1.370    29 H    0.972
    29   1 H    0.999 --    28 C    0.972
    30   6 C    3.990 --    32 C    1.506    28 C    1.370    31 H    0.972
    31   1 H    0.999 --    30 C    0.972
    32   6 C    3.992 --    30 C    1.506    34 C    1.327    33 H    0.967
                            26 C    0.114
    33   1 H    0.999 --    32 C    0.967
    34   6 C    3.983 --    32 C    1.327    25 C    1.247    20 C    1.203
 ---------------------------------------------------------------------------

Topologies differ in total number of bonds
Writing topology from bond orders to xtbtopo.mol

molecular dipole:
                 x           y           z       tot (Debye)
 q only:        1.320      -2.021       0.339
   full:        1.622      -2.866       0.733       8.576
molecular quadrupole (traceless):
                xx          xy          yy          xz          yz          zz
 q only:       -5.840      14.248      -8.502       4.744       6.575      14.342
  q+dip:       -5.913      17.221     -11.864       5.063       4.834      17.777
   full:       -5.886      18.695     -10.234       6.042       6.793      16.119

           -------------------------------------------------
          |                Geometry Summary                 |
           -------------------------------------------------

      molecular mass/u    :      261.2770023
   center of mass at/Å    :       -0.0012916      -0.0043873      -0.0341941
  moments of inertia/u·Å² :        0.5531159E+03   0.3169880E+04   0.3418409E+04
rotational constants/cm⁻¹ :        0.3047758E-01   0.5318067E-02   0.4931427E-02

 * 32 selected distances

     #   Z          #   Z                                           value/Å
     1   8 O        2   6 C                                       1.3174683
     2   6 C        3   8 O                                       1.1988754
     1   8 O        4   1 H                                       0.9994360 (min)
     5   6 C        6   1 H                                       1.0890214
     5   6 C        7   1 H                                       1.0981876
     5   6 C        8   7 N                                       1.4486860
     8   7 N        9   1 H                                       1.0127023
     8   7 N       10   6 C                                       1.3361966
    10   6 C       11   8 O                                       1.2275806
    12   6 C       13   1 H                                       1.1019798
    12   6 C       14   7 N                                       1.4568441
    14   7 N       15   1 H                                       1.0144887
    14   7 N       16   1 H                                       1.0147325
    17   6 C       18   1 H                                       1.0910849
    17   6 C       19   1 H                                       1.0910799
    17   6 C       20   6 C                                       1.4925015 (max)
    20   6 C       21   6 C                                       1.3653105
    21   6 C       22   1 H                                       1.0732105
    21   6 C       23   7 N                                       1.3675891
    23   7 N       24   1 H                                       1.0052117
    23   7 N       25   6 C                                       1.3646704
    25   6 C       26   6 C                                       1.3893334
    26   6 C       27   1 H                                       1.0797750
    26   6 C       28   6 C                                       1.3778470
    28   6 C       29   1 H                                       1.0796676
    28   6 C       30   6 C                                       1.3980829
    30   6 C       31   1 H                                       1.0797956
    30   6 C       32   6 C                                       1.3761733
    32   6 C       33   1 H                                       1.0799815
    20   6 C       34   6 C                                       1.4304624
    25   6 C       34   6 C                                       1.4164562
    32   6 C       34   6 C                                       1.3965882

 * 6 distinct bonds (by element types)

   Z      Z             #   av. dist./Å        max./Å        min./Å
   1 H    6 C          10     1.0863784     1.1019798     1.0732105
   6 C    6 C           9     1.4047506     1.4925015     1.3653105
   1 H    7 N           4     1.0117838     1.0147325     1.0052117
   6 C    7 N           5     1.3947972     1.4568441     1.3361966
   1 H    8 O           1     0.9994360     0.9994360     0.9994360
   6 C    8 O           3     1.2479748     1.3174683     1.1988754


optimized geometry written to: xtbopt.xyz


           -------------------------------------------------
          | TOTAL ENERGY              -56.478937646017 Eh   |
          | GRADIENT NORM               0.000970587036 Eh/α |
          | HOMO-LUMO GAP               3.573051478478 eV   |
           -------------------------------------------------

------------------------------------------------------------------------
 * finished run on 2026/10/01 at 18:05:15.242     
------------------------------------------------------------------------
 total:
 * wall-time:     0 d,  0 h,  0 min,  0.412 sec
 *  cpu-time:     0 d,  0 h,  0 min,  6.271 sec
 * ratio c/w:    15.230 speedup
 SCF:
 * wall-time:     0 d,  0 h,  0 min,  0.027 sec
 *  cpu-time:     0 d,  0 h,  0 min,  0.407 sec
 * ratio c/w:    15.055 speedup
 ANC optimizer:
 * wall-time:     0 d,  0 h,  0 min,  0.370 sec
 *  cpu-time:     0 d,  0 h,  0 min,  5.674 sec
 * ratio c/w:    15.329 speedup


--- STDERR ---
normal termination of xtb
Note: The following floating-point exceptions are signalling: IEEE_UNDERFLOW_FLAG IEEE_DENORMAL
