34
 energy: -56.478937646017 gnorm: 0.000970587036 xtb: 6.7.1-6.fc44.fc44
O           -3.83520040726990        2.63517189484073       -0.47917866689848
C           -3.66764725305047        2.45638130898220       -1.77366018161906
O           -3.69189604700253        3.35040811324620       -2.57205229703165
H           -3.74732300708289        1.78392734759638        0.03708912083297
C           -3.47023679249095        0.98661077981444       -2.20901415683308
H           -3.34803828572103        0.95889861431546       -3.29080294727480
H           -4.38298885264637        0.44290380067213       -1.93101742666709
N           -2.32764661580582        0.35097524148827       -1.58519852217374
H           -1.53925117450948        0.05282402951458       -2.14653992556473
C           -2.28043188173729       -0.00141182211653       -0.29717087198757
O           -3.14790417805837        0.29609893858841        0.51887624204632
C           -1.01813613321391       -0.75609107462268        0.09217247668534
H           -1.29619375683101       -1.49523010264681        0.86075343367968
N           -0.40626241761621       -1.34199031301300       -1.09303925166864
H           -0.87137178607030       -2.20719627089058       -1.34657237935263
H            0.56739914278945       -1.55838884112727       -0.90639344355013
C           -0.05497811359526        0.26313452528894        0.74016470259715
H           -0.60135559180867        0.79919637288439        1.51770914402646
H            0.26209702165729        0.97449047963842       -0.02396300232179
C            1.13457331502709       -0.41850850198351        1.32998707913744
C            1.22547716681842       -0.96684959465138        2.57703602809810
H            0.49475232600115       -0.98012446130436        3.36294026719270
N            2.45287188441447       -1.54420903502802        2.75155780277995
H            2.77101286638054       -1.99345456786967        3.59263755324852
C            3.18823061941701       -1.37736152204479        1.61413338775452
C            4.48103979879741       -1.78251292357291        1.30632895585104
H            5.08154747973529       -2.32071794761569        2.02440958073529
C            4.96744587676482       -1.46880704790425        0.05594506617763
H            5.96894094744533       -1.76639929171417       -0.21632009618777
C            4.19084021902882       -0.76588914692898       -0.87002773333451
H            4.61218557836139       -0.53613210176686       -1.83731158170290
C            2.90937005048916       -0.36183408101364       -0.57266215018235
H            2.32066355862800        0.18466242262549       -1.29455281566232
C            2.38614769853659       -0.67065369237204        0.68484617307549
