14
butane illustrative RDKit/MMFF reference
C 0.28290772 0.29550519 1.54864852
C 1.17527495 0.10081392 0.33252271
C 0.52708278 0.55238041 -0.97653244
C 0.26796777 2.04976757 -1.03879771
H -0.68045744 -0.20625588 1.41362718
H 0.76268343 -0.12622230 2.43774754
H 0.09714802 1.35566264 1.74415708
H 1.42320033 -0.96404117 0.24878735
H 2.12026577 0.63515639 0.48483375
H -0.41446853 0.01298426 -1.13228989
H 1.19022424 0.27844122 -1.80574592
H -0.47796124 2.35871223 -0.30068759
H 1.18774612 2.61557928 -0.86010208
H -0.11162568 2.32427539 -2.02828726
