34
frame_0033
O      -1.011879345100000      2.201321505300000      0.114138309600000
C      -0.488966276200000      1.943845046400000     -1.073269545700000
O       0.472743703900000      2.515053360700000     -1.501516201600000
H      -1.801361516200000      1.625694857800000      0.305259795900000
C      -1.238413608700000      0.870429744600000     -1.888558815600000
H      -0.752779276700000      0.763848165400000     -2.857952474000000
H      -2.268993607300000      1.218239101900000     -2.028433460200000
N      -1.279286830500000     -0.425381034400000     -1.236085587100000
H      -0.545710513200000     -1.075053748500000     -1.473404952600000
C      -2.018408170800000     -0.651698845900000     -0.134657290000000
O      -2.736924822800000      0.214784019900000      0.353997604300000
C      -1.965984651700000     -2.075754992800000      0.421895893900000
H      -2.586002036100000     -2.072639107800000      1.323919005400000
N      -2.518946314100000     -3.066203501200000     -0.485325896800000
H      -2.052375298700000     -3.040580701200000     -1.385955161100000
H      -3.508250272600000     -2.905640015500000     -0.635627054000000
C      -0.511936358500000     -2.439347480100000      0.794232018100000
H      -0.035267472600000     -2.925385678000000     -0.058897284700000
H      -0.530534672200000     -3.163020313200000      1.609811222400000
C       0.261143664900000     -1.215403320400000      1.174246979500000
C       0.033760371700000     -0.390424597800000      2.239351543400000
H      -0.683313313200000     -0.492029398800000      3.031014993600000
N       0.885183516600000      0.676499788700000      2.198294877800000
H       0.875764086700000      1.453671336500000      2.835762645200000
C       1.671497319100000      0.578730397400000      1.088324168000000
C       2.656968836300000      1.426987773500000      0.600643967800000
H       2.910916308100000      2.338669382900000      1.118815551800000
C       3.279899812300000      1.072579195900000     -0.574519114000000
H       4.040840067700000      1.714983656900000     -0.989525422700000
C       2.943089122500000     -0.104129926900000     -1.249120555000000
H       3.457652200900000     -0.346527222300000     -2.167369033200000
C       1.971574366000000     -0.951549959100000     -0.769497945800000
H       1.734608717200000     -1.867323499700000     -1.296169195500000
C       1.313359416700000     -0.613881419100000      0.415315009800000
