34
frame_0048
O      -0.129359849200000      1.357088747700000     -1.718759205000000
C      -0.640049195200000      2.260671858900000     -0.907573610600000
O      -0.118441122300000      3.315090450000000     -0.680026293800000
H      -0.696044296900000      0.537576353100000     -1.763696186500000
C      -2.021733720300000      1.900964550100000     -0.313122304400000
H      -2.712971617700000      1.794245321800000     -1.159255214600000
H      -2.348439138600000      2.727702368800000      0.316258739800000
N      -2.051197390000000      0.675316888000000      0.465468374700000
H      -2.169347218000000      0.758861730700000      1.461205214400000
C      -1.958084413500000     -0.542104028500000     -0.090052150800000
O      -1.720555698800000     -0.695553991200000     -1.282099342700000
C      -2.128608058100000     -1.718745027200000      0.861295427500000
H      -2.959187529400000     -1.519621737500000      1.552969277400000
N      -2.472219053600000     -2.883719229500000      0.079036350600000
H      -2.214571609500000     -3.738766630200000      0.556869616600000
H      -1.988850195700000     -2.844626500800000     -0.813042291500000
C      -0.811649027500000     -1.851155212600000      1.685161440100000
H      -0.782098430500000     -2.855221123400000      2.116897936000000
H      -0.821925458200000     -1.133554142900000      2.506895665600000
C       0.384215925100000     -1.600985580300000      0.827135881500000
C       0.907990669400000     -2.419962951200000     -0.131656470700000
H       0.624068757000000     -3.419326563300000     -0.403406309500000
N       1.941381744300000     -1.793380248800000     -0.770508492100000
H       2.472688046300000     -2.176359061000000     -1.533030855600000
C       2.100405416100000     -0.544596729900000     -0.243683814200000
C       2.998021854900000      0.464959135000000     -0.566331983900000
H       3.722042741700000      0.332910632700000     -1.356452392400000
C       2.923381363600000      1.637997164100000      0.150510331600000
H       3.597437656700000      2.448537801200000     -0.079512049600000
C       1.984697082600000      1.806976553400000      1.171613601500000
H       1.957093565000000      2.744392581600000      1.705699987700000
C       1.090756157900000      0.812624455400000      1.492860275300000
H       0.372105532700000      0.957286396900000      2.287979653600000
C       1.135126313200000     -0.385078273300000      0.777817866300000
