      -----------------------------------------------------------      
     |                   =====================                   |     
     |                           x T B                           |     
     |                   =====================                   |     
     |                         S. Grimme                         |     
     |          Mulliken Center for Theoretical Chemistry        |     
     |                    University of Bonn                     |     
      -----------------------------------------------------------      

   * xtb version 6.7.1-6.fc44.fc44 compiled by Fedora project on Sun Jan 18 23:32:34 UTC 2026

   xtb is free software: you can redistribute it and/or modify it under
   the terms of the GNU Lesser General Public License as published by
   the Free Software Foundation, either version 3 of the License, or
   (at your option) any later version.
   
   xtb is distributed in the hope that it will be useful,
   but WITHOUT ANY WARRANTY; without even the implied warranty of
   MERCHANTABILITY or FITNESS FOR A PARTICULAR PURPOSE.  See the
   GNU Lesser General Public License for more details.
   
   Cite this work as:
   * C. Bannwarth, E. Caldeweyher, S. Ehlert, A. Hansen, P. Pracht,
     J. Seibert, S. Spicher, S. Grimme, WIREs Comput. Mol. Sci., 2020, 11,
     e01493. DOI: 10.1002/wcms.1493
   
   for GFN2-xTB:
   * C. Bannwarth, S. Ehlert and S. Grimme., J. Chem. Theory Comput., 2019,
     15, 1652-1671. DOI: 10.1021/acs.jctc.8b01176
   for GFN1-xTB:
   * S. Grimme, C. Bannwarth, P. Shushkov, J. Chem. Theory Comput., 2017,
     13, 1989-2009. DOI: 10.1021/acs.jctc.7b00118
   for GFN0-xTB:
   * P. Pracht, E. Caldeweyher, S. Ehlert, S. Grimme, ChemRxiv, 2019, preprint.
     DOI: 10.26434/chemrxiv.8326202.v1
   for GFN-FF:
   * S. Spicher and S. Grimme, Angew. Chem. Int. Ed., 2020, 59, 15665-15673.
     DOI: 10.1002/anie.202004239
   
   for ALPB and GBSA implicit solvation:
   * S. Ehlert, M. Stahn, S. Spicher, S. Grimme, J. Chem. Theory Comput.,
     2021, 17, 4250-4261. DOI: 10.1021/acs.jctc.1c00471
   
   for ddCOSMO and CPCM-X implicit solvation:
   * M. Stahn, S. Ehlert, S. Grimme, J. Phys. Chem. A,
     2023, XX, XXXX-XXXX. DOI: 10.1021/acs.jpca.3c04382
   
   for DFT-D4:
   * E. Caldeweyher, C. Bannwarth and S. Grimme, J. Chem. Phys., 2017,
     147, 034112. DOI: 10.1063/1.4993215
   * E. Caldeweyher, S. Ehlert, A. Hansen, H. Neugebauer, S. Spicher,
     C. Bannwarth and S. Grimme, J. Chem. Phys., 2019, 150, 154122.
     DOI: 10.1063/1.5090222
   * E. Caldeweyher, J.-M. Mewes, S. Ehlert and S. Grimme, Phys. Chem. Chem. Phys.
     2020, 22, 8499-8512. DOI: 10.1039/D0CP00502A
   
   for sTDA-xTB:
   * S. Grimme and C. Bannwarth, J. Chem. Phys., 2016, 145, 054103.
     DOI: 10.1063/1.4959605
   
   in the mass-spec context:
   * V. Asgeirsson, C. Bauer and S. Grimme, Chem. Sci., 2017, 8, 4879.
     DOI: 10.1039/c7sc00601b
   * J. Koopman and S. Grimme, ACS Omega 2019, 4, 12, 15120-15133.
     DOI: 10.1021/acsomega.9b02011
   
   for metadynamics refer to:
   * S. Grimme, J. Chem. Theory Comput., 2019, 155, 2847-2862
     DOI: 10.1021/acs.jctc.9b00143
   
   for SPH calculations refer to:
   * S. Spicher and S. Grimme, J. Chem. Theory Comput., 2021, 17, 1701-1714
     DOI: 10.1021/acs.jctc.0c01306
   
   for ONIOM refer to:
   * C. Plett, A. Katbashev, S. Ehlert, S. Grimme, M. Bursch,
     Phys. Chem. Chem. Phys., 2023, 25, 17860-17868. DOI: 10.1039/D3CP02178E
   
   for DIPRO refer to:
   * J. Kohn, N. Gildemeister, S. Grimme, D. Fazzi, A. Hansen,
     J. Chem. Phys., 2023, just accepted.
   
   for PTB refer to:
   * S. Grimme, M. Mueller, A. Hansen, J. Chem. Phys., 2023, 158, 124111.
     DOI: 10.1063/5.0137838
   
   with help from (in alphabetical order)
   P. Atkinson, C. Bannwarth, F. Bohle, G. Brandenburg, E. Caldeweyher
   M. Checinski, S. Dohm, S. Ehlert, S. Ehrlich, I. Gerasimov, C. Hölzer
   A. Katbashev, J. Kohn, J. Koopman, C. Lavigne, S. Lehtola, F. März, M. Müller,
   F. Musil, H. Neugebauer, J. Pisarek, C. Plett, P. Pracht, F. Pultar,
   J. Seibert, P. Shushkov, S. Spicher, M. Stahn, M. Steiner, T. Strunk,
   J. Stückrath, T. Rose, and J. Unsleber
   
 * started run on 2026/10/01 at 18:03:37.556     
   ID    Z sym.   atoms
    1    8 O      1, 3, 11
    2    6 C      2, 5, 10, 12, 17, 20, 21, 25, 26, 28, 30, 32, 34
    3    1 H      4, 6, 7, 9, 13, 15, 16, 18, 19, 22, 24, 27, 29, 31, 33
    4    7 N      8, 14, 23

           -------------------------------------------------
          |                Calculation Setup                |
           -------------------------------------------------

          program call               : /usr/bin/xtb input.xyz --opt --gfn 2 --chrg 0 --uhf 0
          hostname                   : fedora
          coordinate file            : input.xyz
          omp threads                :                    16


           -------------------------------------------------
          |                 G F N 2 - x T B                 |
           -------------------------------------------------

        Reference                      10.1021/acs.jctc.8b01176
      * Hamiltonian:
        H0-scaling (s, p, d)           1.850000    2.230000    2.230000
        zeta-weighting                 0.500000
      * Dispersion:
        s8                             2.700000
        a1                             0.520000
        a2                             5.000000
        s9                             5.000000
      * Repulsion:
        kExp                           1.500000    1.000000
        rExp                           1.000000
      * Coulomb:
        alpha                          2.000000
        third order                    shell-resolved
        anisotropic                    true
        a3                             3.000000
        a5                             4.000000
        cn-shift                       1.200000
        cn-exp                         4.000000
        max-rad                        5.000000


          ...................................................
          :                      SETUP                      :
          :.................................................:
          :  # basis functions                  91          :
          :  # atomic orbitals                  91          :
          :  # shells                           53          :
          :  # electrons                       100          :
          :  max. iterations                   250          :
          :  Hamiltonian                  GFN2-xTB          :
          :  restarted?                      false          :
          :  GBSA solvation                  false          :
          :  PC potential                    false          :
          :  electronic temp.          300.0000000     K    :
          :  accuracy                    1.0000000          :
          :  -> integral cutoff          0.2500000E+02      :
          :  -> integral neglect         0.1000000E-07      :
          :  -> SCF convergence          0.1000000E-05 Eh   :
          :  -> wf. convergence          0.1000000E-03 e    :
          :  Broyden damping             0.4000000          :
          :  net charge                          0          :
          :  unpaired electrons                  0          :
          ...................................................

 iter      E             dE          RMSdq      gap      omega  full diag
   1    -57.0932688 -0.570933E+02  0.409E+00    3.00       0.0  T
   2    -57.2237284 -0.130460E+00  0.235E+00    3.51       1.0  T
   3    -57.2311320 -0.740356E-02  0.128E+00    3.54       1.0  T
   4    -57.2315800 -0.447969E-03  0.441E-01    3.32       1.0  T
   5    -57.2371232 -0.554322E-02  0.115E-01    3.29       1.0  T
   6    -57.2373274 -0.204177E-03  0.578E-02    3.30       1.0  T
   7    -57.2373680 -0.405979E-04  0.250E-02    3.30       1.0  T
   8    -57.2373687 -0.755319E-06  0.114E-02    3.30       1.5  T
   9    -57.2373711 -0.240681E-05  0.313E-03    3.30       5.5  T
  10    -57.2373712 -0.347585E-07  0.145E-03    3.30      11.8  T
  11    -57.2373712 -0.187294E-07  0.609E-04    3.30      28.1  T
  12    -57.2373712 -0.349842E-08  0.199E-04    3.30      86.3  T

   *** convergence criteria satisfied after 12 iterations ***

         #    Occupation            Energy/Eh            Energy/eV
      -------------------------------------------------------------
         1        2.0000           -0.7346700             -19.9914
       ...           ...                  ...                  ...
        44        2.0000           -0.4228242             -11.5056
        45        2.0000           -0.4152733             -11.3002
        46        2.0000           -0.4118275             -11.2064
        47        2.0000           -0.4042174             -10.9993
        48        2.0000           -0.3794182             -10.3245
        49        2.0000           -0.3776190             -10.2755
        50        2.0000           -0.3601931              -9.8014 (HOMO)
        51                         -0.2387914              -6.4978 (LUMO)
        52                         -0.2317173              -6.3053
        53                         -0.2263609              -6.1596
        54                         -0.1924958              -5.2381
        55                         -0.1591998              -4.3320
       ...                                ...                  ...
        91                          0.7210243              19.6201
      -------------------------------------------------------------
                  HL-Gap            0.1214017 Eh            3.3035 eV
             Fermi-level           -0.2994923 Eh           -8.1496 eV

 SCC (total)                   0 d,  0 h,  0 min,  0.650 sec
 SCC setup                      ...        0 min,  0.004 sec (  0.644%)
 Dispersion                     ...        0 min,  0.008 sec (  1.292%)
 classical contributions        ...        0 min,  0.004 sec (  0.622%)
 integral evaluation            ...        0 min,  0.019 sec (  2.857%)
 iterations                     ...        0 min,  0.580 sec ( 89.331%)
 molecular gradient             ...        0 min,  0.034 sec (  5.172%)
 printout                       ...        0 min,  0.000 sec (  0.076%)

         :::::::::::::::::::::::::::::::::::::::::::::::::::::
         ::                     SUMMARY                     ::
         :::::::::::::::::::::::::::::::::::::::::::::::::::::
         :: total energy             -56.477636418800 Eh    ::
         :: gradient norm              0.000098638579 Eh/a0 ::
         :: HOMO-LUMO gap              3.303509556943 eV    ::
         ::.................................................::
         :: SCC energy               -57.236367388750 Eh    ::
         :: -> isotropic ES            0.097742906413 Eh    ::
         :: -> anisotropic ES          0.006612133194 Eh    ::
         :: -> anisotropic XC          0.019203039926 Eh    ::
         :: -> dispersion             -0.040953899951 Eh    ::
         :: repulsion energy           0.758730969950 Eh    ::
         :: add. restraining           0.000000000000 Eh    ::
         :: total charge               0.000000000000 e     ::
         :::::::::::::::::::::::::::::::::::::::::::::::::::::

      ----------------------------------------------------------- 
     |                   =====================                   |
     |                        A N C O P T                        |
     |                   =====================                   |
     |               Approximate Normal Coordinate               |
     |                Rational Function Optimizer                |
      ----------------------------------------------------------- 
      ----------------------------------------------------------- 
     |                   =====================                   |
     |                        A N C O P T                        |
     |                   =====================                   |
     |               Approximate Normal Coordinate               |
     |                Rational Function Optimizer                |
      ----------------------------------------------------------- 

          ...................................................
          :                      SETUP                      :
          :.................................................:
          :   optimization level            normal          :
          :   max. optcycles                   200          :
          :   ANC micro-cycles                  20          :
          :   degrees of freedom                96          :
          :.................................................:
          :   RF solver                   davidson          :
          :   write xtbopt.log                true          :
          :   linear?                        false          :
          :   energy convergence         0.5000000E-05 Eh   :
          :   grad. convergence          0.1000000E-02 Eh/α :
          :   maxmium RF displ.          1.0000000          :
          :   Hlow (freq-cutoff)         0.1000000E-01      :
          :   Hmax (freq-cutoff)         5.0000000          :
          :   S6 in model hess.         20.0000000          :
          ...................................................

generating ANC from exact Hessian ...
Using Lindh-Hessian (1995)
 Shifting diagonal of input Hessian by    9.4819929084984638E-003
 Lowest  eigenvalues of input Hessian
    0.000000    0.000000    0.000000    0.000000    0.000000    0.000000
    0.010000    0.010782    0.011154    0.012041    0.012824    0.014776
    0.015702    0.017509    0.019410    0.020285    0.024428    0.026333
 Highest eigenvalues
    2.003028    2.012399    2.101199    2.209341    2.300309    2.369283


........................................................................
.............................. CYCLE    1 ..............................
........................................................................

 iter      E             dE          RMSdq      gap      omega  full diag
   1    -57.2373712 -0.572374E+02  0.946E-05    3.30       0.0  T
   2    -57.2373712 -0.430376E-10  0.556E-05    3.30     308.5  T
   3    -57.2373712 -0.366640E-11  0.346E-05    3.30     495.7  T
     SCC iter.                  ...        0 min,  0.076 sec
     gradient                   ...        0 min,  0.002 sec
 * total energy  :   -56.4776364 Eh     change       -0.4042775E-09 Eh
   gradient norm :     0.0000973 Eh/α   predicted     0.0000000E+00 (-100.00%)
   displ. norm   :     0.0001460 α      lambda        0.0000000E+00
   maximum displ.:     0.0000912 α      in ANC's #96, #94, #93, ...

   *** GEOMETRY OPTIMIZATION CONVERGED AFTER 1 ITERATIONS ***

------------------------------------------------------------------------
 total energy gain   :        -0.0000000 Eh       -0.0000 kcal/mol
 total RMSD          :         0.0000000 a0        0.0000 Å
 total power (kW/mol):        -0.0000011 (step)   -0.0000 (real)
------------------------------------------------------------------------

 ANCopt (total)                0 d,  0 h,  0 min,  0.102 sec
 optimizer setup                ...        0 min,  0.000 sec (  0.143%)
 model hessian                  ...        0 min,  0.011 sec ( 10.498%)
 ANC generation                 ...        0 min,  0.009 sec (  8.604%)
 coordinate transformation      ...        0 min,  0.000 sec (  0.013%)
 single point calculation       ...        0 min,  0.082 sec ( 80.264%)
 optimization log               ...        0 min,  0.000 sec (  0.079%)
 hessian update                 ...        0 min,  0.000 sec (  0.001%)
 rational function              ...        0 min,  0.000 sec (  0.063%)

================
 final structure:
================
34
 xtb: 6.7.1-6.fc44.fc44
O           -0.12935984920000        1.35708874770000       -1.71875920500000
C           -0.64004919520000        2.26067185890000       -0.90757361060000
O           -0.11844112230000        3.31509045000000       -0.68002629380000
H           -0.69604429690000        0.53757635310000       -1.76369618650000
C           -2.02173372030000        1.90096455010000       -0.31312230440000
H           -2.71297161770000        1.79424532180000       -1.15925521460000
H           -2.34843913860000        2.72770236880000        0.31625873980000
N           -2.05119739000000        0.67531688800000        0.46546837470000
H           -2.16934721800000        0.75886173070000        1.46120521440000
C           -1.95808441350000       -0.54210402850000       -0.09005215080000
O           -1.72055569880000       -0.69555399120000       -1.28209934270000
C           -2.12860805810000       -1.71874502720000        0.86129542750000
H           -2.95918752940000       -1.51962173750000        1.55296927740000
N           -2.47221905360000       -2.88371922950000        0.07903635060000
H           -2.21457160950000       -3.73876663020000        0.55686961660000
H           -1.98885019570000       -2.84462650080000       -0.81304229150000
C           -0.81164902750000       -1.85115521260000        1.68516144010000
H           -0.78209843050000       -2.85522112340000        2.11689793600000
H           -0.82192545820000       -1.13355414290000        2.50689566560000
C            0.38421592510000       -1.60098558030000        0.82713588150000
C            0.90799066940000       -2.41996295120000       -0.13165647070000
H            0.62406875700000       -3.41932656330000       -0.40340630950000
N            1.94138174430000       -1.79338024880000       -0.77050849210000
H            2.47268804630000       -2.17635906100000       -1.53303085560000
C            2.10040541610000       -0.54459672990000       -0.24368381420000
C            2.99802185490000        0.46495913500000       -0.56633198390000
H            3.72204274170000        0.33291063270000       -1.35645239240000
C            2.92338136360000        1.63799716410000        0.15051033160000
H            3.59743765670000        2.44853780120000       -0.07951204960000
C            1.98469708260000        1.80697655340000        1.17161360150000
H            1.95709356500000        2.74439258160000        1.70569998770000
C            1.09075615790000        0.81262445540000        1.49286027530000
H            0.37210553270000        0.95728639690000        2.28797965360000
C            1.13512631320000       -0.38507827330000        0.77781786630000

 Bond Distances (Angstroems)
 ---------------------------
O1-C2=1.3173         O1-H4=0.9974         C2-O1=1.3173         C2-O3=1.1982         C2-C5=1.5465         O3-C2=1.1982         
H4-O1=0.9974         C5-C2=1.5465         C5-H6=1.0978         C5-H7=1.0892         C5-N8=1.4523         H6-C5=1.0978         
H7-C5=1.0892         N8-C5=1.4523         N8-H9=1.0062         N8-C10=1.3414        H9-N8=1.0062         C10-N8=1.3414        
C10-O11=1.2251       C10-C12=1.5227       O11-C10=1.2251       C12-C10=1.5227       C12-H13=1.0991       C12-N14=1.4447       
C12-C17=1.5591       H13-C12=1.0991       N14-C12=1.4447       N14-H15=1.0128       N14-H16=1.0154       H15-N14=1.0128       
H16-N14=1.0154       C17-C12=1.5591       C17-H18=1.0934       C17-H19=1.0910       C17-C20=1.4929       H18-C17=1.0934       
H19-C17=1.0910       C20-C17=1.4929       C20-C21=1.3654       C20-C34=1.4299       C21-C20=1.3654       C21-H22=1.0739       
C21-N23=1.3670       H22-C21=1.0739       N23-C21=1.3670       N23-H24=1.0052       N23-C25=1.3647       H24-N23=1.0052       
C25-N23=1.3647       C25-C26=1.3889       C25-C34=1.4145       C26-C25=1.3889       C26-H27=1.0798       C26-C28=1.3768       
H27-C26=1.0798       C28-C26=1.3768       C28-H29=1.0790       C28-C30=1.3973       H29-C28=1.0790       C30-C28=1.3973       
C30-H31=1.0792       C30-C32=1.3752       H31-C30=1.0792       C32-C30=1.3752       C32-H33=1.0815       C32-C34=1.3956       
H33-C32=1.0815       C34-C20=1.4299       C34-C25=1.4145       C34-C32=1.3956       
 C  H  Rav=1.0864 sigma=0.0084  Rmin=1.0739  Rmax=1.0991    10
 C  C  Rav=1.4387 sigma=0.0684  Rmin=1.3654  Rmax=1.5591    12
 N  H  Rav=1.0099 sigma=0.0043  Rmin=1.0052  Rmax=1.0154     4
 N  C  Rav=1.3940 sigma=0.0455  Rmin=1.3414  Rmax=1.4523     5
 O  H  Rav=0.9974 sigma=0.0000  Rmin=0.9974  Rmax=0.9974     1
 O  C  Rav=1.2469 sigma=0.0510  Rmin=1.1982  Rmax=1.3173     3

 selected bond angles (degree)
 --------------------
H4-O1-C2=111.78                O3-C2-O1=123.49                C5-C2-O1=115.06                C5-C2-O3=121.37                
H6-C5-C2=106.79                H7-C5-C2=108.27                H7-C5-H6=109.29                N8-C5-C2=114.86                
N8-C5-H6=108.57                N8-C5-H7=108.95                H9-N8-C5=117.57                C10-N8-C5=122.85               
C10-N8-H9=119.56               O11-C10-N8=122.01              C12-C10-N8=115.77              C12-C10-O11=122.20             

 selected dihedral angles (degree)
 ---------------------------------
O3-C2-O1-H4=178.66            C5-C2-O1-H4=355.45            H6-C5-C2-O1=298.93            H6-C5-C2-O3=115.79            
H7-C5-C2-O1=181.35            H7-C5-C2-O3=358.21            N8-C5-C2-O1= 59.35            N8-C5-C2-O3=236.21            
H9-N8-C5-C2=109.72            H9-N8-C5-H6=229.16            H9-N8-C5-H7=348.09            C10-N8-C5-C2=288.21           
C10-N8-C5-H6= 47.65           C10-N8-C5-H7=166.58           O11-C10-N8-C5=  6.74          O11-C10-N8-H9=185.20          
C12-C10-N8-C5=185.14          C12-C10-N8-H9=  3.60          
           -------------------------------------------------
          |                Final Singlepoint                |
           -------------------------------------------------

          ...................................................
          :                      SETUP                      :
          :.................................................:
          :  # basis functions                  91          :
          :  # atomic orbitals                  91          :
          :  # shells                           53          :
          :  # electrons                       100          :
          :  max. iterations                   250          :
          :  Hamiltonian                  GFN2-xTB          :
          :  restarted?                      false          :
          :  GBSA solvation                  false          :
          :  PC potential                    false          :
          :  electronic temp.          300.0000000     K    :
          :  accuracy                    1.0000000          :
          :  -> integral cutoff          0.2500000E+02      :
          :  -> integral neglect         0.1000000E-07      :
          :  -> SCF convergence          0.1000000E-05 Eh   :
          :  -> wf. convergence          0.1000000E-03 e    :
          :  Broyden damping             0.4000000          :
          :  net charge                          0          :
          :  unpaired electrons                  0          :
          ...................................................

 iter      E             dE          RMSdq      gap      omega  full diag
   1    -57.2373712 -0.572374E+02  0.109E-05    3.30       0.0  T
   2    -57.2373712 -0.660805E-12  0.783E-06    3.30    2191.1  T
   3    -57.2373712 -0.100897E-11  0.466E-06    3.30    3681.8  T

   *** convergence criteria satisfied after 3 iterations ***

         #    Occupation            Energy/Eh            Energy/eV
      -------------------------------------------------------------
         1        2.0000           -0.7346717             -19.9914
       ...           ...                  ...                  ...
        44        2.0000           -0.4228244             -11.5056
        45        2.0000           -0.4152727             -11.3001
        46        2.0000           -0.4118268             -11.2064
        47        2.0000           -0.4042181             -10.9993
        48        2.0000           -0.3794181             -10.3245
        49        2.0000           -0.3776185             -10.2755
        50        2.0000           -0.3601927              -9.8013 (HOMO)
        51                         -0.2387918              -6.4979 (LUMO)
        52                         -0.2317182              -6.3054
        53                         -0.2263608              -6.1596
        54                         -0.1924949              -5.2381
        55                         -0.1591992              -4.3320
       ...                                ...                  ...
        91                          0.7210248              19.6201
      -------------------------------------------------------------
                  HL-Gap            0.1214009 Eh            3.3035 eV
             Fermi-level           -0.2994923 Eh           -8.1496 eV

 SCC (total)                   0 d,  0 h,  0 min,  0.181 sec
 SCC setup                      ...        0 min,  0.001 sec (  0.589%)
 Dispersion                     ...        0 min,  0.000 sec (  0.054%)
 classical contributions        ...        0 min,  0.000 sec (  0.007%)
 integral evaluation            ...        0 min,  0.000 sec (  0.270%)
 iterations                     ...        0 min,  0.164 sec ( 90.614%)
 molecular gradient             ...        0 min,  0.015 sec (  8.200%)
 printout                       ...        0 min,  0.000 sec (  0.258%)

         :::::::::::::::::::::::::::::::::::::::::::::::::::::
         ::                     SUMMARY                     ::
         :::::::::::::::::::::::::::::::::::::::::::::::::::::
         :: total energy             -56.477636419224 Eh    ::
         :: gradient norm              0.000097467638 Eh/a0 ::
         :: HOMO-LUMO gap              3.303486879977 eV    ::
         ::.................................................::
         :: SCC energy               -57.236367389174 Eh    ::
         :: -> isotropic ES            0.097742879136 Eh    ::
         :: -> anisotropic ES          0.006612256579 Eh    ::
         :: -> anisotropic XC          0.019202959911 Eh    ::
         :: -> dispersion             -0.040953923903 Eh    ::
         :: repulsion energy           0.758730969950 Eh    ::
         :: add. restraining           0.000000000000 Eh    ::
         :: total charge               0.000000000000 e     ::
         :::::::::::::::::::::::::::::::::::::::::::::::::::::

           -------------------------------------------------
          |                Property Printout                |
           -------------------------------------------------

    * Orbital Energies and Occupations

         #    Occupation            Energy/Eh            Energy/eV
      -------------------------------------------------------------
         1        2.0000           -0.7346717             -19.9914
       ...           ...                  ...                  ...
        38        2.0000           -0.4638858             -12.6230
        39        2.0000           -0.4602180             -12.5232
        40        2.0000           -0.4518098             -12.2944
        41        2.0000           -0.4505651             -12.2605
        42        2.0000           -0.4477996             -12.1852
        43        2.0000           -0.4235976             -11.5267
        44        2.0000           -0.4228244             -11.5056
        45        2.0000           -0.4152727             -11.3001
        46        2.0000           -0.4118268             -11.2064
        47        2.0000           -0.4042181             -10.9993
        48        2.0000           -0.3794181             -10.3245
        49        2.0000           -0.3776185             -10.2755
        50        2.0000           -0.3601927              -9.8013 (HOMO)
        51                         -0.2387918              -6.4979 (LUMO)
        52                         -0.2317182              -6.3054
        53                         -0.2263608              -6.1596
        54                         -0.1924949              -5.2381
        55                         -0.1591992              -4.3320
        56                         -0.0677346              -1.8432
        57                         -0.0268752              -0.7313
        58                          0.0222477               0.6054
        59                          0.0432881               1.1779
        60                          0.0558396               1.5195
        61                          0.0786792               2.1410
       ...                                ...                  ...
        91                          0.7210248              19.6201
      -------------------------------------------------------------
                  HL-Gap            0.1214009 Eh            3.3035 eV
             Fermi-level           -0.2994923 Eh           -8.1496 eV

     #   Z          covCN         q      C6AA      α(0)
     1   8 O        1.655    -0.376    20.389     6.096
     2   6 C        2.684     0.360    20.899     7.481
     3   8 O        0.856    -0.376    21.217     6.176
     4   1 H        0.800     0.364     0.557     1.173
     5   6 C        3.737    -0.039    21.349     6.594
     6   1 H        0.924     0.078     1.997     2.210
     7   1 H        0.925     0.077     2.009     2.216
     8   7 N        2.685    -0.164    24.549     7.359
     9   1 H        0.860     0.182     1.200     1.716
    10   6 C        2.759     0.274    22.360     7.744
    11   8 O        0.859    -0.448    22.672     6.384
    12   6 C        3.785     0.031    20.067     6.381
    13   1 H        0.923     0.037     2.496     2.471
    14   7 N        2.634    -0.341    28.789     7.969
    15   1 H        0.860     0.145     1.437     1.878
    16   1 H        0.860     0.167     1.292     1.780
    17   6 C        3.805    -0.066    21.757     6.640
    18   1 H        0.924     0.042     2.429     2.437
    19   1 H        0.924     0.035     2.518     2.481
    20   6 C        3.058    -0.040    28.939     8.822
    21   6 C        3.031    -0.004    28.102     8.695
    22   1 H        0.926     0.028     2.610     2.526
    23   7 N        2.780    -0.103    23.253     7.162
    24   1 H        0.860     0.160     1.337     1.811
    25   6 C        3.088     0.048    26.831     8.491
    26   6 C        2.909    -0.047    29.172     8.856
    27   1 H        0.926     0.027     2.628     2.535
    28   6 C        2.925    -0.028    28.702     8.786
    29   1 H        0.926     0.036     2.509     2.477
    30   6 C        2.920    -0.034    28.859     8.809
    31   1 H        0.926     0.033     2.541     2.493
    32   6 C        2.912    -0.041    29.030     8.835
    33   1 H        0.925     0.011     2.871     2.650
    34   6 C        3.117    -0.025    28.460     8.738

 Mol. C6AA /au·bohr⁶  :      13349.508518
 Mol. C8AA /au·bohr⁸  :     312533.659406
 Mol. α(0) /au        :        178.871749


Wiberg/Mayer (AO) data.
largest (>0.10) Wiberg bond orders for each atom

 ---------------------------------------------------------------------------
     #   Z sym  total        # sym  WBO       # sym  WBO       # sym  WBO
 ---------------------------------------------------------------------------
     1   8 O    2.232 --     2 C    1.200     4 H    0.770     3 O    0.182
     2   6 C    3.932 --     3 O    1.773     1 O    1.200     5 C    0.925
     3   8 O    2.066 --     2 C    1.773     1 O    0.182
     4   1 H    0.867 --     1 O    0.770
     5   6 C    3.961 --     8 N    0.988     7 H    0.974     6 H    0.952
                             2 C    0.925
     6   1 H    0.994 --     5 C    0.952
     7   1 H    0.994 --     5 C    0.974
     8   7 N    3.463 --    10 C    1.288     5 C    0.988     9 H    0.939
                            11 O    0.186
     9   1 H    0.967 --     8 N    0.939
    10   6 C    3.942 --    11 O    1.617     8 N    1.288    12 C    0.953
    11   8 O    2.027 --    10 C    1.617     8 N    0.186
    12   6 C    3.988 --    14 N    1.036    13 H    0.954    10 C    0.953
                            17 C    0.937
    13   1 H    0.998 --    12 C    0.954
    14   7 N    3.017 --    12 C    1.036    15 H    0.961    16 H    0.949
    15   1 H    0.978 --    14 N    0.961
    16   1 H    0.972 --    14 N    0.949
    17   6 C    3.995 --    20 C    1.018    19 H    0.974    18 H    0.966
                            12 C    0.937
    18   1 H    0.997 --    17 C    0.966
    19   1 H    0.999 --    17 C    0.974
    20   6 C    3.973 --    21 C    1.576    34 C    1.202    17 C    1.018
    21   6 C    3.951 --    20 C    1.576    23 N    1.199    22 H    0.969
    22   1 H    0.998 --    21 C    0.969
    23   7 N    3.545 --    21 C    1.199    25 C    1.176    24 H    0.947
    24   1 H    0.974 --    23 N    0.947
    25   6 C    3.959 --    26 C    1.336    34 C    1.252    23 N    1.176
    26   6 C    3.990 --    28 C    1.498    25 C    1.336    27 H    0.968
                            32 C    0.114
    27   1 H    0.999 --    26 C    0.968
    28   6 C    3.992 --    26 C    1.498    30 C    1.368    29 H    0.972
    29   1 H    0.998 --    28 C    0.972
    30   6 C    3.990 --    32 C    1.508    28 C    1.368    31 H    0.971
    31   1 H    0.999 --    30 C    0.971
    32   6 C    3.992 --    30 C    1.508    34 C    1.327    33 H    0.967
                            26 C    0.114
    33   1 H    0.999 --    32 C    0.967
    34   6 C    3.984 --    32 C    1.327    25 C    1.252    20 C    1.202
 ---------------------------------------------------------------------------

Topologies differ in total number of bonds
Writing topology from bond orders to xtbtopo.mol

molecular dipole:
                 x           y           z       tot (Debye)
 q only:       -0.559      -1.183       0.771
   full:       -0.486      -1.550       0.964       4.801
molecular quadrupole (traceless):
                xx          xy          yy          xz          yz          zz
 q only:        5.760     -10.051      -6.177      -7.485       4.055       0.418
  q+dip:        3.961     -14.021      -5.987     -12.975       6.954       2.026
   full:        4.539     -15.065      -6.916     -10.582       5.396       2.377

           -------------------------------------------------
          |                Geometry Summary                 |
           -------------------------------------------------

      molecular mass/u    :      261.2770023
   center of mass at/Å    :       -0.0000000       0.0000000       0.0000000
  moments of inertia/u·Å² :        0.9262505E+03   0.1209308E+04   0.1684432E+04
rotational constants/cm⁻¹ :        0.1819986E-01   0.1393990E-01   0.1000791E-01

 * 31 selected distances

     #   Z          #   Z                                           value/Å
     1   8 O        2   6 C                                       1.3173035
     2   6 C        3   8 O                                       1.1981868
     1   8 O        4   1 H                                       0.9973722 (min)
     5   6 C        6   1 H                                       1.0977887
     5   6 C        7   1 H                                       1.0891981
     5   6 C        8   7 N                                       1.4523375 (max)
     8   7 N        9   1 H                                       1.0061964
     8   7 N       10   6 C                                       1.3414124
    10   6 C       11   8 O                                       1.2251300
    12   6 C       13   1 H                                       1.0990565
    12   6 C       14   7 N                                       1.4447017
    14   7 N       15   1 H                                       1.0128243
    14   7 N       16   1 H                                       1.0153710
    17   6 C       18   1 H                                       1.0933518
    17   6 C       19   1 H                                       1.0910107
    20   6 C       21   6 C                                       1.3654109
    21   6 C       22   1 H                                       1.0738657
    21   6 C       23   7 N                                       1.3669803
    23   7 N       24   1 H                                       1.0051864
    23   7 N       25   6 C                                       1.3646587
    25   6 C       26   6 C                                       1.3888918
    26   6 C       27   1 H                                       1.0797840
    26   6 C       28   6 C                                       1.3767544
    28   6 C       29   1 H                                       1.0789989
    28   6 C       30   6 C                                       1.3972596
    30   6 C       31   1 H                                       1.0792401
    30   6 C       32   6 C                                       1.3751604
    32   6 C       33   1 H                                       1.0814809
    20   6 C       34   6 C                                       1.4299404
    25   6 C       34   6 C                                       1.4144525
    32   6 C       34   6 C                                       1.3956169

 * 6 distinct bonds (by element types)

   Z      Z             #   av. dist./Å        max./Å        min./Å
   1 H    6 C          10     1.0863775     1.0990565     1.0738657
   6 C    6 C           8     1.3929359     1.4299404     1.3654109
   1 H    7 N           4     1.0098945     1.0153710     1.0051864
   6 C    7 N           5     1.3940181     1.4523375     1.3414124
   1 H    8 O           1     0.9973722     0.9973722     0.9973722
   6 C    8 O           3     1.2468734     1.3173035     1.1981868


optimized geometry written to: xtbopt.xyz


           -------------------------------------------------
          | TOTAL ENERGY              -56.477636419224 Eh   |
          | GRADIENT NORM               0.000097467638 Eh/α |
          | HOMO-LUMO GAP               3.303486879977 eV   |
           -------------------------------------------------

------------------------------------------------------------------------
 * finished run on 2026/10/01 at 18:03:38.529     
------------------------------------------------------------------------
 total:
 * wall-time:     0 d,  0 h,  0 min,  0.973 sec
 *  cpu-time:     0 d,  0 h,  0 min, 13.222 sec
 * ratio c/w:    13.588 speedup
 SCF:
 * wall-time:     0 d,  0 h,  0 min,  0.650 sec
 *  cpu-time:     0 d,  0 h,  0 min,  8.912 sec
 * ratio c/w:    13.714 speedup
 ANC optimizer:
 * wall-time:     0 d,  0 h,  0 min,  0.284 sec
 *  cpu-time:     0 d,  0 h,  0 min,  3.793 sec
 * ratio c/w:    13.349 speedup


--- STDERR ---
normal termination of xtb
Note: The following floating-point exceptions are signalling: IEEE_UNDERFLOW_FLAG IEEE_DENORMAL
