34
 energy: -56.477636419224 gnorm: 0.000097467638 xtb: 6.7.1-6.fc44.fc44
O           -0.12935984920000        1.35708874770000       -1.71875920500000
C           -0.64004919520000        2.26067185890000       -0.90757361060000
O           -0.11844112230000        3.31509045000000       -0.68002629380000
H           -0.69604429690000        0.53757635310000       -1.76369618650000
C           -2.02173372030000        1.90096455010000       -0.31312230440000
H           -2.71297161770000        1.79424532180000       -1.15925521460000
H           -2.34843913860000        2.72770236880000        0.31625873980000
N           -2.05119739000000        0.67531688800000        0.46546837470000
H           -2.16934721800000        0.75886173070000        1.46120521440000
C           -1.95808441350000       -0.54210402850000       -0.09005215080000
O           -1.72055569880000       -0.69555399120000       -1.28209934270000
C           -2.12860805810000       -1.71874502720000        0.86129542750000
H           -2.95918752940000       -1.51962173750000        1.55296927740000
N           -2.47221905360000       -2.88371922950000        0.07903635060000
H           -2.21457160950000       -3.73876663020000        0.55686961660000
H           -1.98885019570000       -2.84462650080000       -0.81304229150000
C           -0.81164902750000       -1.85115521260000        1.68516144010000
H           -0.78209843050000       -2.85522112340000        2.11689793600000
H           -0.82192545820000       -1.13355414290000        2.50689566560000
C            0.38421592510000       -1.60098558030000        0.82713588150000
C            0.90799066940000       -2.41996295120000       -0.13165647070000
H            0.62406875700000       -3.41932656330000       -0.40340630950000
N            1.94138174430000       -1.79338024880000       -0.77050849210000
H            2.47268804630000       -2.17635906100000       -1.53303085560000
C            2.10040541610000       -0.54459672990000       -0.24368381420000
C            2.99802185490000        0.46495913500000       -0.56633198390000
H            3.72204274170000        0.33291063270000       -1.35645239240000
C            2.92338136360000        1.63799716410000        0.15051033160000
H            3.59743765670000        2.44853780120000       -0.07951204960000
C            1.98469708260000        1.80697655340000        1.17161360150000
H            1.95709356500000        2.74439258160000        1.70569998770000
C            1.09075615790000        0.81262445540000        1.49286027530000
H            0.37210553270000        0.95728639690000        2.28797965360000
C            1.13512631320000       -0.38507827330000        0.77781786630000
