34
frame_0002
O      -2.222774862900000      2.301703136700000      0.595391694000000
C      -1.701050700000000      2.443290435400000     -0.606896253200000
O      -0.919887637700000      3.310884471000000     -0.882743056000000
H      -2.724840419500000      1.437242282100000      0.680659101300000
C      -2.183354992800000      1.407923471400000     -1.645537759100000
H      -1.802873531600000      1.690602256200000     -2.625866965900000
H      -3.280880303700000      1.425049608600000     -1.656536015200000
N      -1.717570571900000      0.072746662600000     -1.325016640200000
H      -1.104227049200000     -0.409543618900000     -1.966826734700000
C      -2.151314927900000     -0.634583086200000     -0.277938989900000
O      -2.953919039200000     -0.196438796100000      0.541919381800000
C      -1.526896687000000     -2.017738605000000     -0.138556774600000
H      -2.348091517100000     -2.735720057600000     -0.043282087200000
N      -0.743705759800000     -2.343941103600000     -1.320583918500000
H      -0.655261037600000     -3.347968348800000     -1.421467063100000
H       0.196623495000000     -1.969377836700000     -1.220666288800000
C      -0.705503425400000     -2.006958099000000      1.180080422000000
H      -0.217932691300000     -2.976560424800000      1.301971689100000
H      -1.393747681900000     -1.850101455200000      2.010869669300000
C       0.304014721400000     -0.905621276200000      1.141371940400000
C       0.109350512500000      0.380624071800000      1.559996317200000
H      -0.734581436200000      0.802302435700000      2.070145413000000
N       1.197296357300000      1.146851198200000      1.257825515300000
H       1.266863110000000      2.137547404800000      1.417458385900000
C       2.126130118000000      0.372874992400000      0.629811008400000
C       3.383017202800000      0.693787923200000      0.132193184900000
H       3.764194159300000      1.701695332900000      0.198632334400000
C       4.121762343300000     -0.317103575000000     -0.442209436600000
H       5.102659955100000     -0.102547713000000     -0.839099940300000
C       3.631493021300000     -1.624565620500000     -0.512450395200000
H       4.248690372400000     -2.391885966900000     -0.956370523400000
C       2.386762689100000     -1.950158394100000     -0.024725794700000
H       2.031595067200000     -2.970674010800000     -0.069484532100000
C       1.603767980000000     -0.943121825900000      0.545971592700000
