34
frame_0022
O      -4.722362782300000      0.530165553200000     -0.430623923200000
C      -4.615718679900000      1.594092966100000     -1.201722692200000
O      -5.395684098000000      2.503946189500000     -1.179722375200000
H      -3.961195503100000     -0.103957779300000     -0.552691895200000
C      -3.413408480400000      1.575157969700000     -2.172029841900000
H      -3.437598068700000      2.481857231800000     -2.774793986800000
H      -3.533260676600000      0.699348016500000     -2.823006104800000
N      -2.135843029400000      1.491561132300000     -1.491763870800000
H      -1.492074314100000      2.271133468700000     -1.524949836100000
C      -1.690329099100000      0.384759943500000     -0.887441291500000
O      -2.373187139200000     -0.625487793700000     -0.752864347400000
C      -0.253592384800000      0.479674473300000     -0.387981569600000
H       0.372684508500000     -0.006372329100000     -1.146976149000000
N       0.153725058100000      1.876535978700000     -0.314464664800000
H       1.159739885200000      1.931303163800000     -0.197832096300000
H      -0.264045025200000      2.309580191700000      0.505140621600000
C      -0.105814108400000     -0.295838255800000      0.938447129500000
H      -0.510507820500000     -1.298311611700000      0.792387652800000
H      -0.698897603400000      0.204663773700000      1.708406031700000
C       1.323715968600000     -0.362730697900000      1.354634907900000
C       1.941843380000000      0.376483968400000      2.320627261600000
H       1.523647350400000      1.103859886300000      2.991196191000000
N       3.274565808300000      0.064426742600000      2.375101960200000
H       3.938119781700000      0.451997864200000      3.023294844200000
C       3.544581766500000     -0.889656401500000      1.436832852400000
C       4.736859087000000     -1.521870174600000      1.107264523100000
H       5.653968741400000     -1.288986495500000      1.628331824700000
C       4.703418006100000     -2.456668353800000      0.095542782000000
H       5.611691159700000     -2.967972996000000     -0.186735477700000
C       3.514740522900000     -2.761919975600000     -0.574018708500000
H       3.533529849700000     -3.504504138100000     -1.358002015800000
C       2.330151854700000     -2.139408129300000     -0.252594979400000
H       1.414872718300000     -2.387365732500000     -0.769439408200000
C       2.334443774900000     -1.184828462900000      0.764585053800000
