34
 energy: -56.479638925973 gnorm: 0.000092303516 xtb: 6.7.1-6.fc44.fc44
O           -4.72236278230000        0.53016555320000       -0.43062392320000
C           -4.61571867990000        1.59409296610000       -1.20172269220000
O           -5.39568409800000        2.50394618950000       -1.17972237520000
H           -3.96119550310000       -0.10395777930000       -0.55269189520000
C           -3.41340848040000        1.57515796970000       -2.17202984190000
H           -3.43759806870000        2.48185723180000       -2.77479398680000
H           -3.53326067660000        0.69934801650000       -2.82300610480000
N           -2.13584302940000        1.49156113230000       -1.49176387080000
H           -1.49207431410000        2.27113346870000       -1.52494983610000
C           -1.69032909910000        0.38475994350000       -0.88744129150000
O           -2.37318713920000       -0.62548779370000       -0.75286434740000
C           -0.25359238480000        0.47967447330000       -0.38798156960000
H            0.37268450850000       -0.00637232910000       -1.14697614900000
N            0.15372505810000        1.87653597870000       -0.31446466480000
H            1.15973988520000        1.93130316380000       -0.19783209630000
H           -0.26404502520000        2.30958019170000        0.50514062160000
C           -0.10581410840000       -0.29583825580000        0.93844712950000
H           -0.51050782050000       -1.29831161170000        0.79238765280000
H           -0.69889760340000        0.20466377370000        1.70840603170000
C            1.32371596860000       -0.36273069790000        1.35463490790000
C            1.94184338000000        0.37648396840000        2.32062726160000
H            1.52364735040000        1.10385988630000        2.99119619100000
N            3.27456580830000        0.06442674260000        2.37510196020000
H            3.93811978170000        0.45199786420000        3.02329484420000
C            3.54458176650000       -0.88965640150000        1.43683285240000
C            4.73685908700000       -1.52187017460000        1.10726452310000
H            5.65396874140000       -1.28898649550000        1.62833182470000
C            4.70341800610000       -2.45666835380000        0.09554278200000
H            5.61169115970000       -2.96797299600000       -0.18673547770000
C            3.51474052290000       -2.76191997560000       -0.57401870850000
H            3.53352984970000       -3.50450413810000       -1.35800201580000
C            2.33015185470000       -2.13940812930000       -0.25259497940000
H            1.41487271830000       -2.38736573250000       -0.76943940820000
C            2.33444377490000       -1.18482846290000        0.76458505380000
