34
frame_0067
O      -4.480309188000000      2.158869803700000     -0.883076035100000
C      -3.893333301300000      2.314544958200000     -2.053076983800000
O      -4.125067735700000      3.228447638700000     -2.792265513000000
H      -4.134967683000000      1.365718614200000     -0.391311590800000
C      -2.892082731300000      1.198338352600000     -2.428160066700000
H      -2.506172495900000      1.396107748700000     -3.427353418800000
H      -3.442918782200000      0.249581893000000     -2.428684671300000
N      -1.779022783800000      1.085910355500000     -1.501083858400000
H      -0.885955619900000      1.445256959600000     -1.795282380600000
C      -1.912864431100000      0.553301075100000     -0.274826201000000
O      -3.005058473300000      0.221817613300000      0.171780962500000
C      -0.626668167700000      0.320477950600000      0.492095329600000
H       0.187175591900000      0.930477195300000      0.081911573400000
N      -0.832085869000000      0.716160213500000      1.867240903400000
H      -0.088749336500000      0.346882816300000      2.451261967400000
H      -1.717743666000000      0.343545054200000      2.196578549300000
C      -0.261414211600000     -1.183637909700000      0.310417899900000
H      -0.183021256900000     -1.405707262800000     -0.755943383900000
H      -1.067812111700000     -1.785828634100000      0.734642768800000
C       1.026973930600000     -1.485640877900000      0.992801877600000
C       1.198502002800000     -2.007144221000000      2.243116796300000
H       0.459074070700000     -2.350570742500000      2.942203035700000
N       2.531479925100000     -2.082753850400000      2.543899999900000
H       2.916644510400000     -2.447375938800000      3.398035108500000
C       3.252414304100000     -1.600925859400000      1.489920420600000
C       4.624632752700000     -1.469375717700000      1.318528386700000
H       5.314502706300000     -1.774654605000000      2.091435735600000
C       5.070266824100000     -0.937237574500000      0.128360758700000
H       6.130483860400000     -0.819873812600000     -0.038849179900000
C       4.176624449800000     -0.545652154700000     -0.872659999200000
H       4.569196100700000     -0.134774488100000     -1.791135141800000
C       2.816313566900000     -0.674105148300000     -0.708935091500000
H       2.134592225300000     -0.373895879500000     -1.491555813500000
C       2.334795744500000     -1.206630866500000      0.486787908100000
