34
 energy: -56.474855498486 gnorm: 0.000100517418 xtb: 6.7.1-6.fc44.fc44
O           -4.48030918800000        2.15886980370000       -0.88307603510000
C           -3.89333330130000        2.31454495820000       -2.05307698380000
O           -4.12506773570000        3.22844763870000       -2.79226551300000
H           -4.13496768300000        1.36571861420000       -0.39131159080000
C           -2.89208273130000        1.19833835260000       -2.42816006670000
H           -2.50617249590000        1.39610774870000       -3.42735341880000
H           -3.44291878220000        0.24958189300000       -2.42868467130000
N           -1.77902278380000        1.08591035550000       -1.50108385840000
H           -0.88595561990000        1.44525695960000       -1.79528238060000
C           -1.91286443110000        0.55330107510000       -0.27482620100000
O           -3.00505847330000        0.22181761330000        0.17178096250000
C           -0.62666816770000        0.32047795060000        0.49209532960000
H            0.18717559190000        0.93047719530000        0.08191157340000
N           -0.83208586900000        0.71616021350000        1.86724090340000
H           -0.08874933650000        0.34688281630000        2.45126196740000
H           -1.71774366600000        0.34354505420000        2.19657854930000
C           -0.26141421160000       -1.18363790970000        0.31041789990000
H           -0.18302125690000       -1.40570726280000       -0.75594338390000
H           -1.06781211170000       -1.78582863410000        0.73464276880000
C            1.02697393060000       -1.48564087790000        0.99280187760000
C            1.19850200280000       -2.00714422100000        2.24311679630000
H            0.45907407070000       -2.35057074250000        2.94220303570000
N            2.53147992510000       -2.08275385040000        2.54389999990000
H            2.91664451040000       -2.44737593880000        3.39803510850000
C            3.25241430410000       -1.60092585940000        1.48992042060000
C            4.62463275270000       -1.46937571770000        1.31852838670000
H            5.31450270630000       -1.77465460500000        2.09143573560000
C            5.07026682410000       -0.93723757450000        0.12836075870000
H            6.13048386040000       -0.81987381260000       -0.03884917990000
C            4.17662444980000       -0.54565215470000       -0.87265999920000
H            4.56919610070000       -0.13477448810000       -1.79113514180000
C            2.81631356690000       -0.67410514830000       -0.70893509150000
H            2.13459222530000       -0.37389587950000       -1.49155581350000
C            2.33479574450000       -1.20663086650000        0.48678790810000
