34
frame_0019
O      -0.808409292900000      1.048550089700000     -2.503001916700000
C      -0.643366690000000      1.946189147400000     -1.551563742300000
O       0.185037825600000      2.810732940100000     -1.595566119900000
H      -1.513973127800000      0.383515790200000     -2.270936686500000
C      -1.645808554500000      1.839735020200000     -0.382177725700000
H      -2.651887907300000      1.951602121400000     -0.805978680000000
H      -1.454032209700000      2.654127000000000      0.315263916500000
N      -1.591265985500000      0.581043659500000      0.340391206100000
H      -1.109913767400000      0.567714006700000      1.225756329500000
C      -2.015945236000000     -0.583508784000000     -0.176605602200000
O      -2.430383835500000     -0.680141217800000     -1.327991939200000
C      -1.986214850400000     -1.779125047500000      0.773986634200000
H      -2.269828520900000     -1.443280438300000      1.778497317100000
N      -2.900530274500000     -2.827147782600000      0.370782735000000
H      -2.701257788900000     -3.093997662700000     -0.589170179800000
H      -3.857759730200000     -2.491089058700000      0.391184163900000
C      -0.553634640200000     -2.359798195300000      0.825479809100000
H      -0.289542423100000     -2.713646749600000     -0.172337393400000
H      -0.583346021900000     -3.220208597400000      1.495389469400000
C       0.454225689500000     -1.363266169300000      1.288039195300000
C       0.730966536300000     -0.995408280000000      2.574583935300000
H       0.317853934000000     -1.372343664100000      3.491161620500000
N       1.682485527200000     -0.010535020400000      2.588886473900000
H       2.089601061300000      0.394960649600000      3.413870277800000
C       2.050227670200000      0.272081853700000      1.302149430400000
C       2.964122521100000      1.192031568800000      0.803771120600000
H       3.532114571200000      1.827761302700000      1.466907293500000
C       3.114533229300000      1.261856757300000     -0.563654921800000
H       3.809579097100000      1.970195614400000     -0.986952596300000
C       2.381553661300000      0.435882102100000     -1.420118965700000
H       2.525676183600000      0.527523820400000     -2.485161628600000
C       1.473422698600000     -0.474718359400000     -0.932914974600000
H       0.908656773200000     -1.104189007200000     -1.604483743200000
C       1.292545450900000     -0.562068302000000      0.447912299800000
