      -----------------------------------------------------------      
     |                   =====================                   |     
     |                           x T B                           |     
     |                   =====================                   |     
     |                         S. Grimme                         |     
     |          Mulliken Center for Theoretical Chemistry        |     
     |                    University of Bonn                     |     
      -----------------------------------------------------------      

   * xtb version 6.7.1-6.fc44.fc44 compiled by Fedora project on Sun Jan 18 23:32:34 UTC 2026

   xtb is free software: you can redistribute it and/or modify it under
   the terms of the GNU Lesser General Public License as published by
   the Free Software Foundation, either version 3 of the License, or
   (at your option) any later version.
   
   xtb is distributed in the hope that it will be useful,
   but WITHOUT ANY WARRANTY; without even the implied warranty of
   MERCHANTABILITY or FITNESS FOR A PARTICULAR PURPOSE.  See the
   GNU Lesser General Public License for more details.
   
   Cite this work as:
   * C. Bannwarth, E. Caldeweyher, S. Ehlert, A. Hansen, P. Pracht,
     J. Seibert, S. Spicher, S. Grimme, WIREs Comput. Mol. Sci., 2020, 11,
     e01493. DOI: 10.1002/wcms.1493
   
   for GFN2-xTB:
   * C. Bannwarth, S. Ehlert and S. Grimme., J. Chem. Theory Comput., 2019,
     15, 1652-1671. DOI: 10.1021/acs.jctc.8b01176
   for GFN1-xTB:
   * S. Grimme, C. Bannwarth, P. Shushkov, J. Chem. Theory Comput., 2017,
     13, 1989-2009. DOI: 10.1021/acs.jctc.7b00118
   for GFN0-xTB:
   * P. Pracht, E. Caldeweyher, S. Ehlert, S. Grimme, ChemRxiv, 2019, preprint.
     DOI: 10.26434/chemrxiv.8326202.v1
   for GFN-FF:
   * S. Spicher and S. Grimme, Angew. Chem. Int. Ed., 2020, 59, 15665-15673.
     DOI: 10.1002/anie.202004239
   
   for ALPB and GBSA implicit solvation:
   * S. Ehlert, M. Stahn, S. Spicher, S. Grimme, J. Chem. Theory Comput.,
     2021, 17, 4250-4261. DOI: 10.1021/acs.jctc.1c00471
   
   for ddCOSMO and CPCM-X implicit solvation:
   * M. Stahn, S. Ehlert, S. Grimme, J. Phys. Chem. A,
     2023, XX, XXXX-XXXX. DOI: 10.1021/acs.jpca.3c04382
   
   for DFT-D4:
   * E. Caldeweyher, C. Bannwarth and S. Grimme, J. Chem. Phys., 2017,
     147, 034112. DOI: 10.1063/1.4993215
   * E. Caldeweyher, S. Ehlert, A. Hansen, H. Neugebauer, S. Spicher,
     C. Bannwarth and S. Grimme, J. Chem. Phys., 2019, 150, 154122.
     DOI: 10.1063/1.5090222
   * E. Caldeweyher, J.-M. Mewes, S. Ehlert and S. Grimme, Phys. Chem. Chem. Phys.
     2020, 22, 8499-8512. DOI: 10.1039/D0CP00502A
   
   for sTDA-xTB:
   * S. Grimme and C. Bannwarth, J. Chem. Phys., 2016, 145, 054103.
     DOI: 10.1063/1.4959605
   
   in the mass-spec context:
   * V. Asgeirsson, C. Bauer and S. Grimme, Chem. Sci., 2017, 8, 4879.
     DOI: 10.1039/c7sc00601b
   * J. Koopman and S. Grimme, ACS Omega 2019, 4, 12, 15120-15133.
     DOI: 10.1021/acsomega.9b02011
   
   for metadynamics refer to:
   * S. Grimme, J. Chem. Theory Comput., 2019, 155, 2847-2862
     DOI: 10.1021/acs.jctc.9b00143
   
   for SPH calculations refer to:
   * S. Spicher and S. Grimme, J. Chem. Theory Comput., 2021, 17, 1701-1714
     DOI: 10.1021/acs.jctc.0c01306
   
   for ONIOM refer to:
   * C. Plett, A. Katbashev, S. Ehlert, S. Grimme, M. Bursch,
     Phys. Chem. Chem. Phys., 2023, 25, 17860-17868. DOI: 10.1039/D3CP02178E
   
   for DIPRO refer to:
   * J. Kohn, N. Gildemeister, S. Grimme, D. Fazzi, A. Hansen,
     J. Chem. Phys., 2023, just accepted.
   
   for PTB refer to:
   * S. Grimme, M. Mueller, A. Hansen, J. Chem. Phys., 2023, 158, 124111.
     DOI: 10.1063/5.0137838
   
   with help from (in alphabetical order)
   P. Atkinson, C. Bannwarth, F. Bohle, G. Brandenburg, E. Caldeweyher
   M. Checinski, S. Dohm, S. Ehlert, S. Ehrlich, I. Gerasimov, C. Hölzer
   A. Katbashev, J. Kohn, J. Koopman, C. Lavigne, S. Lehtola, F. März, M. Müller,
   F. Musil, H. Neugebauer, J. Pisarek, C. Plett, P. Pracht, F. Pultar,
   J. Seibert, P. Shushkov, S. Spicher, M. Stahn, M. Steiner, T. Strunk,
   J. Stückrath, T. Rose, and J. Unsleber
   
 * started run on 2026/10/01 at 18:03:16.998     
   ID    Z sym.   atoms
    1    8 O      1, 3, 11
    2    6 C      2, 5, 10, 12, 17, 20, 21, 25, 26, 28, 30, 32, 34
    3    1 H      4, 6, 7, 9, 13, 15, 16, 18, 19, 22, 24, 27, 29, 31, 33
    4    7 N      8, 14, 23

           -------------------------------------------------
          |                Calculation Setup                |
           -------------------------------------------------

          program call               : /usr/bin/xtb input.xyz --opt --gfn 2 --chrg 0 --uhf 0
          hostname                   : fedora
          coordinate file            : input.xyz
          omp threads                :                    16


           -------------------------------------------------
          |                 G F N 2 - x T B                 |
           -------------------------------------------------

        Reference                      10.1021/acs.jctc.8b01176
      * Hamiltonian:
        H0-scaling (s, p, d)           1.850000    2.230000    2.230000
        zeta-weighting                 0.500000
      * Dispersion:
        s8                             2.700000
        a1                             0.520000
        a2                             5.000000
        s9                             5.000000
      * Repulsion:
        kExp                           1.500000    1.000000
        rExp                           1.000000
      * Coulomb:
        alpha                          2.000000
        third order                    shell-resolved
        anisotropic                    true
        a3                             3.000000
        a5                             4.000000
        cn-shift                       1.200000
        cn-exp                         4.000000
        max-rad                        5.000000


          ...................................................
          :                      SETUP                      :
          :.................................................:
          :  # basis functions                  91          :
          :  # atomic orbitals                  91          :
          :  # shells                           53          :
          :  # electrons                       100          :
          :  max. iterations                   250          :
          :  Hamiltonian                  GFN2-xTB          :
          :  restarted?                      false          :
          :  GBSA solvation                  false          :
          :  PC potential                    false          :
          :  electronic temp.          300.0000000     K    :
          :  accuracy                    1.0000000          :
          :  -> integral cutoff          0.2500000E+02      :
          :  -> integral neglect         0.1000000E-07      :
          :  -> SCF convergence          0.1000000E-05 Eh   :
          :  -> wf. convergence          0.1000000E-03 e    :
          :  Broyden damping             0.4000000          :
          :  net charge                          0          :
          :  unpaired electrons                  0          :
          ...................................................

 iter      E             dE          RMSdq      gap      omega  full diag
   1    -57.0923494 -0.570923E+02  0.414E+00    3.10       0.0  T
   2    -57.2231497 -0.130800E+00  0.242E+00    3.59       1.0  T
   3    -57.2300983 -0.694861E-02  0.132E+00    3.63       1.0  T
   4    -57.2301486 -0.503142E-04  0.508E-01    3.47       1.0  T
   5    -57.2377975 -0.764883E-02  0.118E-01    3.45       1.0  T
   6    -57.2379701 -0.172646E-03  0.594E-02    3.47       1.0  T
   7    -57.2380105 -0.404042E-04  0.251E-02    3.47       1.0  T
   8    -57.2380108 -0.327763E-06  0.114E-02    3.47       1.5  T
   9    -57.2380133 -0.242700E-05  0.346E-03    3.47       5.0  T
  10    -57.2380133 -0.568002E-07  0.151E-03    3.47      11.4  T
  11    -57.2380133 -0.142672E-07  0.647E-04    3.47      26.5  T
  12    -57.2380133 -0.412513E-08  0.219E-04    3.47      78.4  T

   *** convergence criteria satisfied after 12 iterations ***

         #    Occupation            Energy/Eh            Energy/eV
      -------------------------------------------------------------
         1        2.0000           -0.7360410             -20.0287
       ...           ...                  ...                  ...
        44        2.0000           -0.4247076             -11.5569
        45        2.0000           -0.4190010             -11.4016
        46        2.0000           -0.4166861             -11.3386
        47        2.0000           -0.4043695             -11.0035
        48        2.0000           -0.3849037             -10.4738
        49        2.0000           -0.3815953             -10.3837
        50        2.0000           -0.3684843             -10.0270 (HOMO)
        51                         -0.2408558              -6.5540 (LUMO)
        52                         -0.2347523              -6.3879
        53                         -0.2303740              -6.2688
        54                         -0.1986000              -5.4042
        55                         -0.1668982              -4.5415
       ...                                ...                  ...
        91                          0.7132520              19.4086
      -------------------------------------------------------------
                  HL-Gap            0.1276284 Eh            3.4729 eV
             Fermi-level           -0.3046700 Eh           -8.2905 eV

 SCC (total)                   0 d,  0 h,  0 min,  0.287 sec
 SCC setup                      ...        0 min,  0.000 sec (  0.104%)
 Dispersion                     ...        0 min,  0.008 sec (  2.776%)
 classical contributions        ...        0 min,  0.000 sec (  0.129%)
 integral evaluation            ...        0 min,  0.003 sec (  1.004%)
 iterations                     ...        0 min,  0.273 sec ( 95.319%)
 molecular gradient             ...        0 min,  0.002 sec (  0.545%)
 printout                       ...        0 min,  0.000 sec (  0.118%)

         :::::::::::::::::::::::::::::::::::::::::::::::::::::
         ::                     SUMMARY                     ::
         :::::::::::::::::::::::::::::::::::::::::::::::::::::
         :: total energy             -56.480064644030 Eh    ::
         :: gradient norm              0.000138392348 Eh/a0 ::
         :: HOMO-LUMO gap              3.472946422239 eV    ::
         ::.................................................::
         :: SCC energy               -57.237054637955 Eh    ::
         :: -> isotropic ES            0.097271586235 Eh    ::
         :: -> anisotropic ES          0.005719822459 Eh    ::
         :: -> anisotropic XC          0.019656628894 Eh    ::
         :: -> dispersion             -0.039409237820 Eh    ::
         :: repulsion energy           0.756989993925 Eh    ::
         :: add. restraining           0.000000000000 Eh    ::
         :: total charge              -0.000000000000 e     ::
         :::::::::::::::::::::::::::::::::::::::::::::::::::::

      ----------------------------------------------------------- 
     |                   =====================                   |
     |                        A N C O P T                        |
     |                   =====================                   |
     |               Approximate Normal Coordinate               |
     |                Rational Function Optimizer                |
      ----------------------------------------------------------- 
      ----------------------------------------------------------- 
     |                   =====================                   |
     |                        A N C O P T                        |
     |                   =====================                   |
     |               Approximate Normal Coordinate               |
     |                Rational Function Optimizer                |
      ----------------------------------------------------------- 

          ...................................................
          :                      SETUP                      :
          :.................................................:
          :   optimization level            normal          :
          :   max. optcycles                   200          :
          :   ANC micro-cycles                  20          :
          :   degrees of freedom                96          :
          :.................................................:
          :   RF solver                   davidson          :
          :   write xtbopt.log                true          :
          :   linear?                        false          :
          :   energy convergence         0.5000000E-05 Eh   :
          :   grad. convergence          0.1000000E-02 Eh/α :
          :   maxmium RF displ.          1.0000000          :
          :   Hlow (freq-cutoff)         0.1000000E-01      :
          :   Hmax (freq-cutoff)         5.0000000          :
          :   S6 in model hess.         20.0000000          :
          ...................................................

generating ANC from exact Hessian ...
Using Lindh-Hessian (1995)
 Shifting diagonal of input Hessian by    9.4887271988954840E-003
 Lowest  eigenvalues of input Hessian
    0.000000    0.000000    0.000000    0.000000    0.000000    0.000000
    0.010000    0.010645    0.011094    0.011850    0.012391    0.014954
    0.017310    0.019167    0.019885    0.020869    0.022700    0.026193
 Highest eigenvalues
    2.000444    2.007537    2.091922    2.199000    2.284613    2.369863


........................................................................
.............................. CYCLE    1 ..............................
........................................................................

 iter      E             dE          RMSdq      gap      omega  full diag
   1    -57.2380133 -0.572380E+02  0.935E-05    3.47       0.0  T
   2    -57.2380133 -0.398828E-10  0.544E-05    3.47     315.3  T
   3    -57.2380133 -0.973444E-12  0.338E-05    3.47     507.9  T
     SCC iter.                  ...        0 min,  0.326 sec
     gradient                   ...        0 min,  0.008 sec
 * total energy  :   -56.4800646 Eh     change       -0.6627729E-09 Eh
   gradient norm :     0.0001405 Eh/α   predicted     0.0000000E+00 (-100.00%)
   displ. norm   :     0.0028476 α      lambda       -0.1689527E-07
   maximum displ.:     0.0024404 α      in ANC's #1, #13, #17, ...

   *** GEOMETRY OPTIMIZATION CONVERGED AFTER 1 ITERATIONS ***

------------------------------------------------------------------------
 total energy gain   :        -0.0000000 Eh       -0.0000 kcal/mol
 total RMSD          :         0.0000001 a0        0.0000 Å
 total power (kW/mol):        -0.0000017 (step)   -0.0000 (real)
------------------------------------------------------------------------

 ANCopt (total)                0 d,  0 h,  0 min,  0.373 sec
 optimizer setup                ...        0 min,  0.000 sec (  0.038%)
 model hessian                  ...        0 min,  0.009 sec (  2.351%)
 ANC generation                 ...        0 min,  0.023 sec (  6.231%)
 coordinate transformation      ...        0 min,  0.000 sec (  0.005%)
 single point calculation       ...        0 min,  0.341 sec ( 91.253%)
 optimization log               ...        0 min,  0.000 sec (  0.022%)
 hessian update                 ...        0 min,  0.000 sec (  0.000%)
 rational function              ...        0 min,  0.000 sec (  0.029%)

================
 final structure:
================
34
 xtb: 6.7.1-6.fc44.fc44
O           -0.80840929290000        1.04855008970000       -2.50300191670000
C           -0.64336669000000        1.94618914740000       -1.55156374230000
O            0.18503782560000        2.81073294010000       -1.59556611990000
H           -1.51397312780000        0.38351579020000       -2.27093668650000
C           -1.64580855450000        1.83973502020000       -0.38217772570000
H           -2.65188790730000        1.95160212140000       -0.80597868000000
H           -1.45403220970000        2.65412700000000        0.31526391650000
N           -1.59126598550000        0.58104365950000        0.34039120610000
H           -1.10991376740000        0.56771400670000        1.22575632950000
C           -2.01594523600000       -0.58350878400000       -0.17660560220000
O           -2.43038383550000       -0.68014121780000       -1.32799193920000
C           -1.98621485040000       -1.77912504750000        0.77398663420000
H           -2.26982852090000       -1.44328043830000        1.77849731710000
N           -2.90053027450000       -2.82714778260000        0.37078273500000
H           -2.70125778890000       -3.09399766270000       -0.58917017980000
H           -3.85775973020000       -2.49108905870000        0.39118416390000
C           -0.55363464020000       -2.35979819530000        0.82547980910000
H           -0.28954242310000       -2.71364674960000       -0.17233739340000
H           -0.58334602190000       -3.22020859740000        1.49538946940000
C            0.45422568950000       -1.36326616930000        1.28803919530000
C            0.73096653630000       -0.99540828000000        2.57458393530000
H            0.31785393400000       -1.37234366410000        3.49116162050000
N            1.68248552720000       -0.01053502040000        2.58888647390000
H            2.08960106130000        0.39496064960000        3.41387027780000
C            2.05022767020000        0.27208185370000        1.30214943040000
C            2.96412252110000        1.19203156880000        0.80377112060000
H            3.53211457120000        1.82776130270000        1.46690729350000
C            3.11453322930000        1.26185675730000       -0.56365492180000
H            3.80957909710000        1.97019561440000       -0.98695259630000
C            2.38155366130000        0.43588210210000       -1.42011896570000
H            2.52567618360000        0.52752382040000       -2.48516162860000
C            1.47342269860000       -0.47471835940000       -0.93291497460000
H            0.90865677320000       -1.10418900720000       -1.60448374320000
C            1.29254545090000       -0.56206830200000        0.44791229980000

 Bond Distances (Angstroems)
 ---------------------------
O1-C2=1.3184         O1-H4=0.9970         C2-O1=1.3184         C2-O3=1.1982         C2-C5=1.5439         O3-C2=1.1982         
H4-O1=0.9970         C5-C2=1.5439         C5-H6=1.0974         C5-H7=1.0892         C5-N8=1.4524         H6-C5=1.0974         
H7-C5=1.0892         N8-C5=1.4524         N8-H9=1.0078         N8-C10=1.3431        H9-N8=1.0078         C10-N8=1.3431        
C10-O11=1.2275       C10-C12=1.5277       O11-C10=1.2275       C12-C10=1.5277       C12-H13=1.0965       C12-N14=1.4481       
C12-C17=1.5466       H13-C12=1.0965       N14-C12=1.4481       N14-H15=1.0161       N14-H16=1.0147       H15-N14=1.0161       
H16-N14=1.0147       C17-C12=1.5466       C17-H18=1.0911       C17-H19=1.0909       C17-C20=1.4909       H18-C17=1.0911       
H19-C17=1.0909       C20-C17=1.4909       C20-C21=1.3664       C20-C34=1.4320       C21-C20=1.3664       C21-H22=1.0737       
C21-N23=1.3695       H22-C21=1.0737       N23-C21=1.3695       N23-H24=1.0054       N23-C25=1.3678       H24-N23=1.0054       
C25-N23=1.3678       C25-C26=1.3892       C25-C34=1.4141       C26-C25=1.3892       C26-H27=1.0801       C26-C28=1.3774       
H27-C26=1.0801       C28-C26=1.3774       C28-H29=1.0789       C28-C30=1.3975       H29-C28=1.0789       C30-C28=1.3975       
C30-H31=1.0786       C30-C32=1.3752       H31-C30=1.0786       C32-C30=1.3752       C32-H33=1.0799       C32-C34=1.3954       
H33-C32=1.0799       C34-C20=1.4320       C34-C25=1.4141       C34-C32=1.3954       
 C  H  Rav=1.0856 sigma=0.0079  Rmin=1.0737  Rmax=1.0974    10
 C  C  Rav=1.4380 sigma=0.0665  Rmin=1.3664  Rmax=1.5466    12
 N  H  Rav=1.0110 sigma=0.0045  Rmin=1.0054  Rmax=1.0161     4
 N  C  Rav=1.3962 sigma=0.0451  Rmin=1.3431  Rmax=1.4524     5
 O  H  Rav=0.9970 sigma=0.0000  Rmin=0.9970  Rmax=0.9970     1
 O  C  Rav=1.2480 sigma=0.0512  Rmin=1.1982  Rmax=1.3184     3

 selected bond angles (degree)
 --------------------
H4-O1-C2=112.01                O3-C2-O1=123.46                C5-C2-O1=114.73                C5-C2-O3=121.77                
H6-C5-C2=107.20                H7-C5-C2=108.61                H7-C5-H6=109.42                N8-C5-C2=114.34                
N8-C5-H6=108.35                N8-C5-H7=108.83                H9-N8-C5=117.80                C10-N8-C5=123.23               
C10-N8-H9=118.54               O11-C10-N8=122.42              C12-C10-N8=115.65              C12-C10-O11=121.91             

 selected dihedral angles (degree)
 ---------------------------------
O3-C2-O1-H4=177.17            C5-C2-O1-H4=354.79            H6-C5-C2-O1=301.07            H6-C5-C2-O3=118.73            
H7-C5-C2-O1=182.94            H7-C5-C2-O3=  0.60            N8-C5-C2-O1= 61.19            N8-C5-C2-O3=238.86            
H9-N8-C5-C2=101.74            H9-N8-C5-H6=221.21            H9-N8-C5-H7=340.11            C10-N8-C5-C2=289.34           
C10-N8-C5-H6= 48.82           C10-N8-C5-H7=167.72           O11-C10-N8-C5=  3.29          O11-C10-N8-H9=190.95          
C12-C10-N8-C5=184.88          C12-C10-N8-H9= 12.53          
           -------------------------------------------------
          |                Final Singlepoint                |
           -------------------------------------------------

          ...................................................
          :                      SETUP                      :
          :.................................................:
          :  # basis functions                  91          :
          :  # atomic orbitals                  91          :
          :  # shells                           53          :
          :  # electrons                       100          :
          :  max. iterations                   250          :
          :  Hamiltonian                  GFN2-xTB          :
          :  restarted?                      false          :
          :  GBSA solvation                  false          :
          :  PC potential                    false          :
          :  electronic temp.          300.0000000     K    :
          :  accuracy                    1.0000000          :
          :  -> integral cutoff          0.2500000E+02      :
          :  -> integral neglect         0.1000000E-07      :
          :  -> SCF convergence          0.1000000E-05 Eh   :
          :  -> wf. convergence          0.1000000E-03 e    :
          :  Broyden damping             0.4000000          :
          :  net charge                          0          :
          :  unpaired electrons                  0          :
          ...................................................

 iter      E             dE          RMSdq      gap      omega  full diag
   1    -57.2380133 -0.572380E+02  0.112E-05    3.47       0.0  T
   2    -57.2380133 -0.575540E-12  0.828E-06    3.47    2070.1  T
   3    -57.2380133 -0.120792E-11  0.462E-06    3.47    3712.5  T

   *** convergence criteria satisfied after 3 iterations ***

         #    Occupation            Energy/Eh            Energy/eV
      -------------------------------------------------------------
         1        2.0000           -0.7360427             -20.0287
       ...           ...                  ...                  ...
        44        2.0000           -0.4247078             -11.5569
        45        2.0000           -0.4190004             -11.4016
        46        2.0000           -0.4166854             -11.3386
        47        2.0000           -0.4043694             -11.0035
        48        2.0000           -0.3849028             -10.4737
        49        2.0000           -0.3815958             -10.3837
        50        2.0000           -0.3684837             -10.0270 (HOMO)
        51                         -0.2408558              -6.5540 (LUMO)
        52                         -0.2347524              -6.3879
        53                         -0.2303744              -6.2688
        54                         -0.1985988              -5.4041
        55                         -0.1668978              -4.5415
       ...                                ...                  ...
        91                          0.7132524              19.4086
      -------------------------------------------------------------
                  HL-Gap            0.1276279 Eh            3.4729 eV
             Fermi-level           -0.3046697 Eh           -8.2905 eV

 SCC (total)                   0 d,  0 h,  0 min,  0.069 sec
 SCC setup                      ...        0 min,  0.000 sec (  0.247%)
 Dispersion                     ...        0 min,  0.002 sec (  2.472%)
 classical contributions        ...        0 min,  0.000 sec (  0.016%)
 integral evaluation            ...        0 min,  0.003 sec (  4.993%)
 iterations                     ...        0 min,  0.054 sec ( 78.721%)
 molecular gradient             ...        0 min,  0.009 sec ( 13.077%)
 printout                       ...        0 min,  0.000 sec (  0.461%)

         :::::::::::::::::::::::::::::::::::::::::::::::::::::
         ::                     SUMMARY                     ::
         :::::::::::::::::::::::::::::::::::::::::::::::::::::
         :: total energy             -56.480064644712 Eh    ::
         :: gradient norm              0.000140279428 Eh/a0 ::
         :: HOMO-LUMO gap              3.472933089645 eV    ::
         ::.................................................::
         :: SCC energy               -57.237054638637 Eh    ::
         :: -> isotropic ES            0.097269682111 Eh    ::
         :: -> anisotropic ES          0.005719979797 Eh    ::
         :: -> anisotropic XC          0.019656468179 Eh    ::
         :: -> dispersion             -0.039409271639 Eh    ::
         :: repulsion energy           0.756989993925 Eh    ::
         :: add. restraining           0.000000000000 Eh    ::
         :: total charge               0.000000000000 e     ::
         :::::::::::::::::::::::::::::::::::::::::::::::::::::

           -------------------------------------------------
          |                Property Printout                |
           -------------------------------------------------

    * Orbital Energies and Occupations

         #    Occupation            Energy/Eh            Energy/eV
      -------------------------------------------------------------
         1        2.0000           -0.7360427             -20.0287
       ...           ...                  ...                  ...
        38        2.0000           -0.4651922             -12.6585
        39        2.0000           -0.4641462             -12.6301
        40        2.0000           -0.4563018             -12.4166
        41        2.0000           -0.4517621             -12.2931
        42        2.0000           -0.4505079             -12.2589
        43        2.0000           -0.4296866             -11.6924
        44        2.0000           -0.4247078             -11.5569
        45        2.0000           -0.4190004             -11.4016
        46        2.0000           -0.4166854             -11.3386
        47        2.0000           -0.4043694             -11.0035
        48        2.0000           -0.3849028             -10.4737
        49        2.0000           -0.3815958             -10.3837
        50        2.0000           -0.3684837             -10.0270 (HOMO)
        51                         -0.2408558              -6.5540 (LUMO)
        52                         -0.2347524              -6.3879
        53                         -0.2303744              -6.2688
        54                         -0.1985988              -5.4041
        55                         -0.1668978              -4.5415
        56                         -0.0733746              -1.9966
        57                         -0.0221369              -0.6024
        58                          0.0094255               0.2565
        59                          0.0429247               1.1680
        60                          0.0604273               1.6443
        61                          0.0794871               2.1630
       ...                                ...                  ...
        91                          0.7132524              19.4086
      -------------------------------------------------------------
                  HL-Gap            0.1276279 Eh            3.4729 eV
             Fermi-level           -0.3046697 Eh           -8.2905 eV

     #   Z          covCN         q      C6AA      α(0)
     1   8 O        1.655    -0.373    20.343     6.089
     2   6 C        2.684     0.358    20.923     7.486
     3   8 O        0.856    -0.378    21.244     6.180
     4   1 H        0.800     0.364     0.557     1.173
     5   6 C        3.737    -0.037    21.316     6.588
     6   1 H        0.924     0.077     2.010     2.217
     7   1 H        0.925     0.073     2.049     2.239
     8   7 N        2.685    -0.173    24.750     7.389
     9   1 H        0.860     0.183     1.197     1.714
    10   6 C        2.753     0.260    22.622     7.788
    11   8 O        0.859    -0.458    22.868     6.412
    12   6 C        3.786     0.033    20.036     6.376
    13   1 H        0.924     0.036     2.500     2.473
    14   7 N        2.633    -0.334    28.598     7.942
    15   1 H        0.860     0.160     1.333     1.809
    16   1 H        0.860     0.145     1.439     1.879
    17   6 C        3.808    -0.068    21.787     6.644
    18   1 H        0.924     0.054     2.270     2.356
    19   1 H        0.924     0.060     2.199     2.319
    20   6 C        3.053    -0.043    29.003     8.832
    21   6 C        3.026    -0.015    28.360     8.735
    22   1 H        0.926     0.029     2.601     2.522
    23   7 N        2.777    -0.110    23.406     7.185
    24   1 H        0.860     0.158     1.348     1.819
    25   6 C        3.082     0.042    26.978     8.515
    26   6 C        2.909    -0.052    29.292     8.875
    27   1 H        0.926     0.025     2.656     2.548
    28   6 C        2.925    -0.028    28.706     8.786
    29   1 H        0.926     0.037     2.483     2.464
    30   6 C        2.920    -0.032    28.800     8.801
    31   1 H        0.926     0.041     2.441     2.443
    32   6 C        2.912    -0.038    28.937     8.821
    33   1 H        0.926     0.029     2.593     2.518
    34   6 C        3.115    -0.026    28.486     8.743

 Mol. C6AA /au·bohr⁶  :      13320.812623
 Mol. C8AA /au·bohr⁸  :     312246.447123
 Mol. α(0) /au        :        178.678687


Wiberg/Mayer (AO) data.
largest (>0.10) Wiberg bond orders for each atom

 ---------------------------------------------------------------------------
     #   Z sym  total        # sym  WBO       # sym  WBO       # sym  WBO
 ---------------------------------------------------------------------------
     1   8 O    2.232 --     2 C    1.198     4 H    0.773     3 O    0.182
     2   6 C    3.931 --     3 O    1.774     1 O    1.198     5 C    0.925
     3   8 O    2.066 --     2 C    1.774     1 O    0.182
     4   1 H    0.867 --     1 O    0.773
     5   6 C    3.964 --     8 N    0.988     7 H    0.975     6 H    0.954
                             2 C    0.925
     6   1 H    0.994 --     5 C    0.954
     7   1 H    0.994 --     5 C    0.975
     8   7 N    3.458 --    10 C    1.284     5 C    0.988     9 H    0.931
                            11 O    0.186
     9   1 H    0.967 --     8 N    0.931
    10   6 C    3.938 --    11 O    1.615     8 N    1.284    12 C    0.944
    11   8 O    2.012 --    10 C    1.615     8 N    0.186
    12   6 C    3.987 --    14 N    1.030    13 H    0.958    17 C    0.950
                            10 C    0.944
    13   1 H    0.999 --    12 C    0.958
    14   7 N    3.017 --    12 C    1.030    16 H    0.963    15 H    0.957
    15   1 H    0.974 --    14 N    0.957
    16   1 H    0.978 --    14 N    0.963
    17   6 C    3.991 --    20 C    1.020    18 H    0.971    19 H    0.966
                            12 C    0.950
    18   1 H    0.997 --    17 C    0.971
    19   1 H    0.995 --    17 C    0.966
    20   6 C    3.975 --    21 C    1.575    34 C    1.198    17 C    1.020
    21   6 C    3.949 --    20 C    1.575    23 N    1.195    22 H    0.970
    22   1 H    0.998 --    21 C    0.970
    23   7 N    3.536 --    21 C    1.195    25 C    1.168    24 H    0.947
    24   1 H    0.974 --    23 N    0.947
    25   6 C    3.957 --    26 C    1.336    34 C    1.256    23 N    1.168
    26   6 C    3.989 --    28 C    1.497    25 C    1.336    27 H    0.968
                            32 C    0.116
    27   1 H    0.999 --    26 C    0.968
    28   6 C    3.991 --    26 C    1.497    30 C    1.370    29 H    0.971
    29   1 H    0.998 --    28 C    0.971
    30   6 C    3.990 --    32 C    1.509    28 C    1.370    31 H    0.971
    31   1 H    0.998 --    30 C    0.971
    32   6 C    3.993 --    30 C    1.509    34 C    1.327    33 H    0.968
                            26 C    0.116
    33   1 H    0.999 --    32 C    0.968
    34   6 C    3.984 --    32 C    1.327    25 C    1.256    20 C    1.198
 ---------------------------------------------------------------------------

Topologies differ in total number of bonds
Writing topology from bond orders to xtbtopo.mol

molecular dipole:
                 x           y           z       tot (Debye)
 q only:       -0.301      -0.458       1.929
   full:       -0.480      -0.262       2.351       6.134
molecular quadrupole (traceless):
                xx          xy          yy          xz          yz          zz
 q only:        3.136      -4.600      -5.699       1.140       7.280       2.563
  q+dip:        5.021      -4.686     -12.878       3.742      11.555       7.857
   full:        6.592      -7.074     -12.067       4.011      11.281       5.474

           -------------------------------------------------
          |                Geometry Summary                 |
           -------------------------------------------------

      molecular mass/u    :      261.2770023
   center of mass at/Å    :        0.0000000       0.0000000       0.0000000
  moments of inertia/u·Å² :        0.9951263E+03   0.1255347E+04   0.1836955E+04
rotational constants/cm⁻¹ :        0.1694019E-01   0.1342867E-01   0.9176943E-02

 * 32 selected distances

     #   Z          #   Z                                           value/Å
     1   8 O        2   6 C                                       1.3184195
     2   6 C        3   8 O                                       1.1981763
     1   8 O        4   1 H                                       0.9969681 (min)
     5   6 C        6   1 H                                       1.0974140
     5   6 C        7   1 H                                       1.0892371
     5   6 C        8   7 N                                       1.4523722
     8   7 N        9   1 H                                       1.0078439
     8   7 N       10   6 C                                       1.3430640
    10   6 C       11   8 O                                       1.2275129
    12   6 C       13   1 H                                       1.0964808
    12   6 C       14   7 N                                       1.4480670
    14   7 N       15   1 H                                       1.0160847
    14   7 N       16   1 H                                       1.0147118
    17   6 C       18   1 H                                       1.0911429
    17   6 C       19   1 H                                       1.0908565
    17   6 C       20   6 C                                       1.4909125 (max)
    20   6 C       21   6 C                                       1.3664196
    21   6 C       22   1 H                                       1.0737119
    21   6 C       23   7 N                                       1.3695140
    23   7 N       24   1 H                                       1.0053697
    23   7 N       25   6 C                                       1.3677716
    25   6 C       26   6 C                                       1.3892057
    26   6 C       27   1 H                                       1.0800542
    26   6 C       28   6 C                                       1.3774445
    28   6 C       29   1 H                                       1.0788947
    28   6 C       30   6 C                                       1.3975064
    30   6 C       31   1 H                                       1.0786499
    30   6 C       32   6 C                                       1.3752320
    32   6 C       33   1 H                                       1.0799068
    20   6 C       34   6 C                                       1.4319608
    25   6 C       34   6 C                                       1.4140758
    32   6 C       34   6 C                                       1.3953605

 * 6 distinct bonds (by element types)

   Z      Z             #   av. dist./Å        max./Å        min./Å
   1 H    6 C          10     1.0856349     1.0974140     1.0737119
   6 C    6 C           9     1.4042353     1.4909125     1.3664196
   1 H    7 N           4     1.0110025     1.0160847     1.0053697
   6 C    7 N           5     1.3961578     1.4523722     1.3430640
   1 H    8 O           1     0.9969681     0.9969681     0.9969681
   6 C    8 O           3     1.2480362     1.3184195     1.1981763


optimized geometry written to: xtbopt.xyz


           -------------------------------------------------
          | TOTAL ENERGY              -56.480064644712 Eh   |
          | GRADIENT NORM               0.000140279428 Eh/α |
          | HOMO-LUMO GAP               3.472933089645 eV   |
           -------------------------------------------------

------------------------------------------------------------------------
 * finished run on 2026/10/01 at 18:03:17.739     
------------------------------------------------------------------------
 total:
 * wall-time:     0 d,  0 h,  0 min,  0.741 sec
 *  cpu-time:     0 d,  0 h,  0 min, 10.197 sec
 * ratio c/w:    13.767 speedup
 SCF:
 * wall-time:     0 d,  0 h,  0 min,  0.287 sec
 *  cpu-time:     0 d,  0 h,  0 min,  4.038 sec
 * ratio c/w:    14.079 speedup
 ANC optimizer:
 * wall-time:     0 d,  0 h,  0 min,  0.444 sec
 *  cpu-time:     0 d,  0 h,  0 min,  5.994 sec
 * ratio c/w:    13.507 speedup


--- STDERR ---
normal termination of xtb
Note: The following floating-point exceptions are signalling: IEEE_UNDERFLOW_FLAG IEEE_DENORMAL
