34
 energy: -56.480064644712 gnorm: 0.000140279428 xtb: 6.7.1-6.fc44.fc44
O           -0.80840929290000        1.04855008970000       -2.50300191670000
C           -0.64336669000000        1.94618914740000       -1.55156374230000
O            0.18503782560000        2.81073294010000       -1.59556611990000
H           -1.51397312780000        0.38351579020000       -2.27093668650000
C           -1.64580855450000        1.83973502020000       -0.38217772570000
H           -2.65188790730000        1.95160212140000       -0.80597868000000
H           -1.45403220970000        2.65412700000000        0.31526391650000
N           -1.59126598550000        0.58104365950000        0.34039120610000
H           -1.10991376740000        0.56771400670000        1.22575632950000
C           -2.01594523600000       -0.58350878400000       -0.17660560220000
O           -2.43038383550000       -0.68014121780000       -1.32799193920000
C           -1.98621485040000       -1.77912504750000        0.77398663420000
H           -2.26982852090000       -1.44328043830000        1.77849731710000
N           -2.90053027450000       -2.82714778260000        0.37078273500000
H           -2.70125778890000       -3.09399766270000       -0.58917017980000
H           -3.85775973020000       -2.49108905870000        0.39118416390000
C           -0.55363464020000       -2.35979819530000        0.82547980910000
H           -0.28954242310000       -2.71364674960000       -0.17233739340000
H           -0.58334602190000       -3.22020859740000        1.49538946940000
C            0.45422568950000       -1.36326616930000        1.28803919530000
C            0.73096653630000       -0.99540828000000        2.57458393530000
H            0.31785393400000       -1.37234366410000        3.49116162050000
N            1.68248552720000       -0.01053502040000        2.58888647390000
H            2.08960106130000        0.39496064960000        3.41387027780000
C            2.05022767020000        0.27208185370000        1.30214943040000
C            2.96412252110000        1.19203156880000        0.80377112060000
H            3.53211457120000        1.82776130270000        1.46690729350000
C            3.11453322930000        1.26185675730000       -0.56365492180000
H            3.80957909710000        1.97019561440000       -0.98695259630000
C            2.38155366130000        0.43588210210000       -1.42011896570000
H            2.52567618360000        0.52752382040000       -2.48516162860000
C            1.47342269860000       -0.47471835940000       -0.93291497460000
H            0.90865677320000       -1.10418900720000       -1.60448374320000
C            1.29254545090000       -0.56206830200000        0.44791229980000
