34
frame_0069
O      -4.318629517600000      2.356385117700000     -0.971935212200000
C      -3.593723706500000      2.488361869500000     -2.065909227700000
O      -3.636954971900000      3.453999397200000     -2.773511054800000
H      -4.120990495300000      1.506842795500000     -0.490528744100000
C      -2.690150495300000      1.278066482900000     -2.391623052800000
H      -2.178173820900000      1.467302352400000     -3.334030018900000
H      -3.339475404500000      0.399801012200000     -2.496569599700000
N      -1.703875526400000      1.008959677500000     -1.357790904500000
H      -0.741098859700000      1.221006964300000     -1.561907851100000
C      -2.020936564600000      0.449512311900000     -0.177212500900000
O      -3.183991769000000      0.251784179400000      0.159198754900000
C      -0.843156647300000      0.049505619100000      0.706500546800000
H      -0.055120153100000      0.807647186600000      0.633709065200000
N      -1.215330740100000     -0.091654661000000      2.096779312600000
H      -2.036899448400000     -0.685702122300000      2.163738145800000
H      -1.461368004400000      0.808124513900000      2.494836722700000
C      -0.286734494700000     -1.298529660700000      0.188076723500000
H      -0.152325281900000     -1.245667296600000     -0.894387004400000
H      -1.015396944200000     -2.078907949600000      0.412651758200000
C       1.014340266100000     -1.604683523800000      0.846576792000000
C       1.214835676000000     -2.332297735100000      1.982282683000000
H       0.494976578900000     -2.845696746200000      2.588966199000000
N       2.543429206300000     -2.345834894700000      2.304205566800000
H       2.945285109500000     -2.810258445500000      3.100277196400000
C       3.232783523500000     -1.613713819600000      1.382532653500000
C       4.589396550700000     -1.333634006500000      1.280692592400000
H       5.293046296300000     -1.714573000300000      2.006302297200000
C       5.003336446400000     -0.553548470700000      0.222852170100000
H       6.050687859100000     -0.314601406000000      0.113806237700000
C       4.092743180800000     -0.063812888800000     -0.717543946400000
H       4.459468679600000      0.542737495000000     -1.532693317700000
C       2.747689351400000     -0.339713914200000     -0.622827729200000
H       2.055403467000000      0.040303457400000     -1.360885986500000
C       2.296603787100000     -1.123607160800000      0.439207544800000
