      -----------------------------------------------------------      
     |                   =====================                   |     
     |                           x T B                           |     
     |                   =====================                   |     
     |                         S. Grimme                         |     
     |          Mulliken Center for Theoretical Chemistry        |     
     |                    University of Bonn                     |     
      -----------------------------------------------------------      

   * xtb version 6.7.1-6.fc44.fc44 compiled by Fedora project on Sun Jan 18 23:32:34 UTC 2026

   xtb is free software: you can redistribute it and/or modify it under
   the terms of the GNU Lesser General Public License as published by
   the Free Software Foundation, either version 3 of the License, or
   (at your option) any later version.
   
   xtb is distributed in the hope that it will be useful,
   but WITHOUT ANY WARRANTY; without even the implied warranty of
   MERCHANTABILITY or FITNESS FOR A PARTICULAR PURPOSE.  See the
   GNU Lesser General Public License for more details.
   
   Cite this work as:
   * C. Bannwarth, E. Caldeweyher, S. Ehlert, A. Hansen, P. Pracht,
     J. Seibert, S. Spicher, S. Grimme, WIREs Comput. Mol. Sci., 2020, 11,
     e01493. DOI: 10.1002/wcms.1493
   
   for GFN2-xTB:
   * C. Bannwarth, S. Ehlert and S. Grimme., J. Chem. Theory Comput., 2019,
     15, 1652-1671. DOI: 10.1021/acs.jctc.8b01176
   for GFN1-xTB:
   * S. Grimme, C. Bannwarth, P. Shushkov, J. Chem. Theory Comput., 2017,
     13, 1989-2009. DOI: 10.1021/acs.jctc.7b00118
   for GFN0-xTB:
   * P. Pracht, E. Caldeweyher, S. Ehlert, S. Grimme, ChemRxiv, 2019, preprint.
     DOI: 10.26434/chemrxiv.8326202.v1
   for GFN-FF:
   * S. Spicher and S. Grimme, Angew. Chem. Int. Ed., 2020, 59, 15665-15673.
     DOI: 10.1002/anie.202004239
   
   for ALPB and GBSA implicit solvation:
   * S. Ehlert, M. Stahn, S. Spicher, S. Grimme, J. Chem. Theory Comput.,
     2021, 17, 4250-4261. DOI: 10.1021/acs.jctc.1c00471
   
   for ddCOSMO and CPCM-X implicit solvation:
   * M. Stahn, S. Ehlert, S. Grimme, J. Phys. Chem. A,
     2023, XX, XXXX-XXXX. DOI: 10.1021/acs.jpca.3c04382
   
   for DFT-D4:
   * E. Caldeweyher, C. Bannwarth and S. Grimme, J. Chem. Phys., 2017,
     147, 034112. DOI: 10.1063/1.4993215
   * E. Caldeweyher, S. Ehlert, A. Hansen, H. Neugebauer, S. Spicher,
     C. Bannwarth and S. Grimme, J. Chem. Phys., 2019, 150, 154122.
     DOI: 10.1063/1.5090222
   * E. Caldeweyher, J.-M. Mewes, S. Ehlert and S. Grimme, Phys. Chem. Chem. Phys.
     2020, 22, 8499-8512. DOI: 10.1039/D0CP00502A
   
   for sTDA-xTB:
   * S. Grimme and C. Bannwarth, J. Chem. Phys., 2016, 145, 054103.
     DOI: 10.1063/1.4959605
   
   in the mass-spec context:
   * V. Asgeirsson, C. Bauer and S. Grimme, Chem. Sci., 2017, 8, 4879.
     DOI: 10.1039/c7sc00601b
   * J. Koopman and S. Grimme, ACS Omega 2019, 4, 12, 15120-15133.
     DOI: 10.1021/acsomega.9b02011
   
   for metadynamics refer to:
   * S. Grimme, J. Chem. Theory Comput., 2019, 155, 2847-2862
     DOI: 10.1021/acs.jctc.9b00143
   
   for SPH calculations refer to:
   * S. Spicher and S. Grimme, J. Chem. Theory Comput., 2021, 17, 1701-1714
     DOI: 10.1021/acs.jctc.0c01306
   
   for ONIOM refer to:
   * C. Plett, A. Katbashev, S. Ehlert, S. Grimme, M. Bursch,
     Phys. Chem. Chem. Phys., 2023, 25, 17860-17868. DOI: 10.1039/D3CP02178E
   
   for DIPRO refer to:
   * J. Kohn, N. Gildemeister, S. Grimme, D. Fazzi, A. Hansen,
     J. Chem. Phys., 2023, just accepted.
   
   for PTB refer to:
   * S. Grimme, M. Mueller, A. Hansen, J. Chem. Phys., 2023, 158, 124111.
     DOI: 10.1063/5.0137838
   
   with help from (in alphabetical order)
   P. Atkinson, C. Bannwarth, F. Bohle, G. Brandenburg, E. Caldeweyher
   M. Checinski, S. Dohm, S. Ehlert, S. Ehrlich, I. Gerasimov, C. Hölzer
   A. Katbashev, J. Kohn, J. Koopman, C. Lavigne, S. Lehtola, F. März, M. Müller,
   F. Musil, H. Neugebauer, J. Pisarek, C. Plett, P. Pracht, F. Pultar,
   J. Seibert, P. Shushkov, S. Spicher, M. Stahn, M. Steiner, T. Strunk,
   J. Stückrath, T. Rose, and J. Unsleber
   
 * started run on 2026/10/01 at 18:03:53.834     
   ID    Z sym.   atoms
    1    8 O      1, 3, 11
    2    6 C      2, 5, 10, 12, 17, 20, 21, 25, 26, 28, 30, 32, 34
    3    1 H      4, 6, 7, 9, 13, 15, 16, 18, 19, 22, 24, 27, 29, 31, 33
    4    7 N      8, 14, 23

           -------------------------------------------------
          |                Calculation Setup                |
           -------------------------------------------------

          program call               : /usr/bin/xtb input.xyz --opt --gfn 2 --chrg 0 --uhf 0
          hostname                   : fedora
          coordinate file            : input.xyz
          omp threads                :                    16


           -------------------------------------------------
          |                 G F N 2 - x T B                 |
           -------------------------------------------------

        Reference                      10.1021/acs.jctc.8b01176
      * Hamiltonian:
        H0-scaling (s, p, d)           1.850000    2.230000    2.230000
        zeta-weighting                 0.500000
      * Dispersion:
        s8                             2.700000
        a1                             0.520000
        a2                             5.000000
        s9                             5.000000
      * Repulsion:
        kExp                           1.500000    1.000000
        rExp                           1.000000
      * Coulomb:
        alpha                          2.000000
        third order                    shell-resolved
        anisotropic                    true
        a3                             3.000000
        a5                             4.000000
        cn-shift                       1.200000
        cn-exp                         4.000000
        max-rad                        5.000000


          ...................................................
          :                      SETUP                      :
          :.................................................:
          :  # basis functions                  91          :
          :  # atomic orbitals                  91          :
          :  # shells                           53          :
          :  # electrons                       100          :
          :  max. iterations                   250          :
          :  Hamiltonian                  GFN2-xTB          :
          :  restarted?                      false          :
          :  GBSA solvation                  false          :
          :  PC potential                    false          :
          :  electronic temp.          300.0000000     K    :
          :  accuracy                    1.0000000          :
          :  -> integral cutoff          0.2500000E+02      :
          :  -> integral neglect         0.1000000E-07      :
          :  -> SCF convergence          0.1000000E-05 Eh   :
          :  -> wf. convergence          0.1000000E-03 e    :
          :  Broyden damping             0.4000000          :
          :  net charge                          0          :
          :  unpaired electrons                  0          :
          ...................................................

 iter      E             dE          RMSdq      gap      omega  full diag
   1    -57.0891695 -0.570892E+02  0.412E+00    3.02       0.0  T
   2    -57.2169893 -0.127820E+00  0.239E+00    3.51       1.0  T
   3    -57.2249766 -0.798736E-02  0.132E+00    3.59       1.0  T
   4    -57.2258962 -0.919591E-03  0.494E-01    3.31       1.0  T
   5    -57.2329979 -0.710173E-02  0.122E-01    3.32       1.0  T
   6    -57.2331931 -0.195188E-03  0.605E-02    3.34       1.0  T
   7    -57.2332325 -0.393351E-04  0.252E-02    3.33       1.0  T
   8    -57.2332331 -0.632449E-06  0.112E-02    3.34       1.5  T
   9    -57.2332351 -0.201879E-05  0.346E-03    3.34       5.0  T
  10    -57.2332352 -0.527026E-07  0.152E-03    3.34      11.3  T
  11    -57.2332352 -0.150306E-07  0.681E-04    3.34      25.2  T
  12    -57.2332352 -0.473381E-08  0.213E-04    3.34      80.5  T

   *** convergence criteria satisfied after 12 iterations ***

         #    Occupation            Energy/Eh            Energy/eV
      -------------------------------------------------------------
         1        2.0000           -0.7414842             -20.1768
       ...           ...                  ...                  ...
        44        2.0000           -0.4328602             -11.7787
        45        2.0000           -0.4215151             -11.4700
        46        2.0000           -0.4203711             -11.4389
        47        2.0000           -0.4098551             -11.1527
        48        2.0000           -0.3872382             -10.5373
        49        2.0000           -0.3816343             -10.3848
        50        2.0000           -0.3681037             -10.0166 (HOMO)
        51                         -0.2454331              -6.6786 (LUMO)
        52                         -0.2373754              -6.4593
        53                         -0.2349803              -6.3941
        54                         -0.2026681              -5.5149
        55                         -0.1623258              -4.4171
       ...                                ...                  ...
        91                          0.7146068              19.4454
      -------------------------------------------------------------
                  HL-Gap            0.1226705 Eh            3.3380 eV
             Fermi-level           -0.3067684 Eh           -8.3476 eV

 SCC (total)                   0 d,  0 h,  0 min,  0.168 sec
 SCC setup                      ...        0 min,  0.002 sec (  0.941%)
 Dispersion                     ...        0 min,  0.011 sec (  6.724%)
 classical contributions        ...        0 min,  0.003 sec (  1.867%)
 integral evaluation            ...        0 min,  0.013 sec (  7.990%)
 iterations                     ...        0 min,  0.122 sec ( 72.359%)
 molecular gradient             ...        0 min,  0.017 sec (  9.874%)
 printout                       ...        0 min,  0.000 sec (  0.232%)

         :::::::::::::::::::::::::::::::::::::::::::::::::::::
         ::                     SUMMARY                     ::
         :::::::::::::::::::::::::::::::::::::::::::::::::::::
         :: total energy             -56.474637436402 Eh    ::
         :: gradient norm              0.000184794069 Eh/a0 ::
         :: HOMO-LUMO gap              3.338034380130 eV    ::
         ::.................................................::
         :: SCC energy               -57.233176234698 Eh    ::
         :: -> isotropic ES            0.096757496882 Eh    ::
         :: -> anisotropic ES          0.007681406626 Eh    ::
         :: -> anisotropic XC          0.019411721734 Eh    ::
         :: -> dispersion             -0.033738712403 Eh    ::
         :: repulsion energy           0.758538798295 Eh    ::
         :: add. restraining           0.000000000000 Eh    ::
         :: total charge               0.000000000000 e     ::
         :::::::::::::::::::::::::::::::::::::::::::::::::::::

      ----------------------------------------------------------- 
     |                   =====================                   |
     |                        A N C O P T                        |
     |                   =====================                   |
     |               Approximate Normal Coordinate               |
     |                Rational Function Optimizer                |
      ----------------------------------------------------------- 
      ----------------------------------------------------------- 
     |                   =====================                   |
     |                        A N C O P T                        |
     |                   =====================                   |
     |               Approximate Normal Coordinate               |
     |                Rational Function Optimizer                |
      ----------------------------------------------------------- 

          ...................................................
          :                      SETUP                      :
          :.................................................:
          :   optimization level            normal          :
          :   max. optcycles                   200          :
          :   ANC micro-cycles                  20          :
          :   degrees of freedom                96          :
          :.................................................:
          :   RF solver                   davidson          :
          :   write xtbopt.log                true          :
          :   linear?                        false          :
          :   energy convergence         0.5000000E-05 Eh   :
          :   grad. convergence          0.1000000E-02 Eh/α :
          :   maxmium RF displ.          1.0000000          :
          :   Hlow (freq-cutoff)         0.1000000E-01      :
          :   Hmax (freq-cutoff)         5.0000000          :
          :   S6 in model hess.         20.0000000          :
          ...................................................

generating ANC from exact Hessian ...
Using Lindh-Hessian (1995)
 Shifting diagonal of input Hessian by    9.5802203115405195E-003
 Lowest  eigenvalues of input Hessian
    0.000000    0.000000    0.000000    0.000000    0.000000    0.000000
    0.010000    0.010245    0.010314    0.011578    0.012010    0.015263
    0.015798    0.017756    0.019048    0.021369    0.022618    0.026016
 Highest eigenvalues
    2.004904    2.015456    2.101140    2.208871    2.285470    2.369362


........................................................................
.............................. CYCLE    1 ..............................
........................................................................

 iter      E             dE          RMSdq      gap      omega  full diag
   1    -57.2332352 -0.572332E+02  0.958E-05    3.34       0.0  T
   2    -57.2332352 -0.456524E-10  0.568E-05    3.34     301.9  T
   3    -57.2332352 -0.569855E-11  0.362E-05    3.34     473.8  T
     SCC iter.                  ...        0 min,  0.192 sec
     gradient                   ...        0 min,  0.043 sec
 * total energy  :   -56.4746374 Eh     change       -0.5660752E-09 Eh
   gradient norm :     0.0001850 Eh/α   predicted     0.0000000E+00 (-100.00%)
   displ. norm   :     0.0030062 α      lambda       -0.5841737E-07
   maximum displ.:     0.0013012 α      in ANC's #40, #5, #26, ...

   *** GEOMETRY OPTIMIZATION CONVERGED AFTER 1 ITERATIONS ***

------------------------------------------------------------------------
 total energy gain   :        -0.0000000 Eh       -0.0000 kcal/mol
 total RMSD          :         0.0000000 a0        0.0000 Å
 total power (kW/mol):        -0.0000015 (step)   -0.0000 (real)
------------------------------------------------------------------------

 ANCopt (total)                0 d,  0 h,  0 min,  0.330 sec
 optimizer setup                ...        0 min,  0.000 sec (  0.027%)
 model hessian                  ...        0 min,  0.006 sec (  1.718%)
 ANC generation                 ...        0 min,  0.054 sec ( 16.363%)
 coordinate transformation      ...        0 min,  0.000 sec (  0.006%)
 single point calculation       ...        0 min,  0.270 sec ( 81.651%)
 optimization log               ...        0 min,  0.000 sec (  0.037%)
 hessian update                 ...        0 min,  0.000 sec (  0.000%)
 rational function              ...        0 min,  0.000 sec (  0.042%)

================
 final structure:
================
34
 xtb: 6.7.1-6.fc44.fc44
O           -4.31862951760000        2.35638511770000       -0.97193521220000
C           -3.59372370650000        2.48836186950000       -2.06590922770000
O           -3.63695497190000        3.45399939720000       -2.77351105480000
H           -4.12099049530000        1.50684279550000       -0.49052874410000
C           -2.69015049530000        1.27806648290000       -2.39162305280000
H           -2.17817382090000        1.46730235240000       -3.33403001890000
H           -3.33947540450000        0.39980101220000       -2.49656959970000
N           -1.70387552640000        1.00895967750000       -1.35779090450000
H           -0.74109885970000        1.22100696430000       -1.56190785110000
C           -2.02093656460000        0.44951231190000       -0.17721250090000
O           -3.18399176900000        0.25178417940000        0.15919875490000
C           -0.84315664730000        0.04950561910000        0.70650054680000
H           -0.05512015310000        0.80764718660000        0.63370906520000
N           -1.21533074010000       -0.09165466100000        2.09677931260000
H           -2.03689944840000       -0.68570212230000        2.16373814580000
H           -1.46136800440000        0.80812451390000        2.49483672270000
C           -0.28673449470000       -1.29852966070000        0.18807672350000
H           -0.15232528190000       -1.24566729660000       -0.89438700440000
H           -1.01539694420000       -2.07890794960000        0.41265175820000
C            1.01434026610000       -1.60468352380000        0.84657679200000
C            1.21483567600000       -2.33229773510000        1.98228268300000
H            0.49497657890000       -2.84569674620000        2.58896619900000
N            2.54342920630000       -2.34583489470000        2.30420556680000
H            2.94528510950000       -2.81025844550000        3.10027719640000
C            3.23278352350000       -1.61371381960000        1.38253265350000
C            4.58939655070000       -1.33363400650000        1.28069259240000
H            5.29304629630000       -1.71457300030000        2.00630229720000
C            5.00333644640000       -0.55354847070000        0.22285217010000
H            6.05068785910000       -0.31460140600000        0.11380623770000
C            4.09274318080000       -0.06381288880000       -0.71754394640000
H            4.45946867960000        0.54273749500000       -1.53269331770000
C            2.74768935140000       -0.33971391420000       -0.62282772920000
H            2.05540346700000        0.04030345740000       -1.36088598650000
C            2.29660378710000       -1.12360716080000        0.43920754480000

 Bond Distances (Angstroems)
 ---------------------------
O1-C2=1.3190         O1-H4=0.9963         C2-O1=1.3190         C2-O3=1.1979         C2-C5=1.5451         O3-C2=1.1979         
H4-O1=0.9963         C5-C2=1.5451         C5-H6=1.0891         C5-H7=1.0973         C5-N8=1.4539         H6-C5=1.0891         
H7-C5=1.0973         N8-C5=1.4539         N8-H9=1.0068         N8-C10=1.3443        H9-N8=1.0068         C10-N8=1.3443        
C10-O11=1.2268       C10-C12=1.5258       O11-C10=1.2268       C12-C10=1.5258       C12-H13=1.0959       C12-N14=1.4461       
C12-C17=1.5478       H13-C12=1.0959       N14-C12=1.4461       N14-H15=1.0160       N14-H16=1.0142       H15-N14=1.0160       
H16-N14=1.0142       C17-C12=1.5478       C17-H18=1.0921       C17-H19=1.0910       C17-C20=1.4900       H18-C17=1.0921       
H19-C17=1.0910       C20-C17=1.4900       C20-C21=1.3636       C20-C34=1.4288       C21-C20=1.3636       C21-H22=1.0723       
C21-N23=1.3671       H22-C21=1.0723       N23-C21=1.3671       N23-H24=1.0054       N23-C25=1.3641       H24-N23=1.0054       
C25-N23=1.3641       C25-C26=1.3890       C25-C34=1.4165       C26-C25=1.3890       C26-H27=1.0802       C26-C28=1.3780       
H27-C26=1.0802       C28-C26=1.3780       C28-H29=1.0798       C28-C30=1.3976       H29-C28=1.0798       C30-C28=1.3976       
C30-H31=1.0802       C30-C32=1.3763       H31-C30=1.0802       C32-C30=1.3763       C32-H33=1.0809       C32-C34=1.3950       
H33-C32=1.0809       C34-C20=1.4288       C34-C25=1.4165       C34-C32=1.3950       
 C  H  Rav=1.0859 sigma=0.0079  Rmin=1.0723  Rmax=1.0973    10
 C  C  Rav=1.4378 sigma=0.0666  Rmin=1.3636  Rmax=1.5478    12
 N  H  Rav=1.0106 sigma=0.0046  Rmin=1.0054  Rmax=1.0160     4
 N  C  Rav=1.3951 sigma=0.0456  Rmin=1.3443  Rmax=1.4539     5
 O  H  Rav=0.9963 sigma=0.0000  Rmin=0.9963  Rmax=0.9963     1
 O  C  Rav=1.2479 sigma=0.0516  Rmin=1.1979  Rmax=1.3190     3

 selected bond angles (degree)
 --------------------
H4-O1-C2=112.15                O3-C2-O1=123.42                C5-C2-O1=114.70                C5-C2-O3=121.87                
H6-C5-C2=108.74                H7-C5-C2=107.52                H7-C5-H6=109.54                N8-C5-C2=113.07                
N8-C5-H6=109.18                N8-C5-H7=108.74                H9-N8-C5=117.75                C10-N8-C5=122.78               
C10-N8-H9=119.42               O11-C10-N8=122.11              C12-C10-N8=115.83              C12-C10-O11=122.05             

 selected dihedral angles (degree)
 ---------------------------------
O3-C2-O1-H4=182.55            C5-C2-O1-H4=  3.72            H6-C5-C2-O1=177.09            H6-C5-C2-O3=358.24            
H7-C5-C2-O1= 58.57            H7-C5-C2-O3=239.72            N8-C5-C2-O1=298.53            N8-C5-C2-O3=119.67            
H9-N8-C5-C2=251.78            H9-N8-C5-H6= 12.96            H9-N8-C5-H7=132.44            C10-N8-C5-C2= 74.31           
C10-N8-C5-H6=195.49           C10-N8-C5-H7=314.97           O11-C10-N8-C5=352.51          O11-C10-N8-H9=175.08          
C12-C10-N8-C5=171.31          C12-C10-N8-H9=353.88          
           -------------------------------------------------
          |                Final Singlepoint                |
           -------------------------------------------------

          ...................................................
          :                      SETUP                      :
          :.................................................:
          :  # basis functions                  91          :
          :  # atomic orbitals                  91          :
          :  # shells                           53          :
          :  # electrons                       100          :
          :  max. iterations                   250          :
          :  Hamiltonian                  GFN2-xTB          :
          :  restarted?                      false          :
          :  GBSA solvation                  false          :
          :  PC potential                    false          :
          :  electronic temp.          300.0000000     K    :
          :  accuracy                    1.0000000          :
          :  -> integral cutoff          0.2500000E+02      :
          :  -> integral neglect         0.1000000E-07      :
          :  -> SCF convergence          0.1000000E-05 Eh   :
          :  -> wf. convergence          0.1000000E-03 e    :
          :  Broyden damping             0.4000000          :
          :  net charge                          0          :
          :  unpaired electrons                  0          :
          ...................................................

 iter      E             dE          RMSdq      gap      omega  full diag
   1    -57.2332352 -0.572332E+02  0.109E-05    3.34       0.0  T
   2    -57.2332352 -0.731859E-12  0.778E-06    3.34    2203.1  T
   3    -57.2332352 -0.102318E-11  0.463E-06    3.34    3701.4  T

   *** convergence criteria satisfied after 3 iterations ***

         #    Occupation            Energy/Eh            Energy/eV
      -------------------------------------------------------------
         1        2.0000           -0.7414859             -20.1769
       ...           ...                  ...                  ...
        44        2.0000           -0.4328605             -11.7787
        45        2.0000           -0.4215144             -11.4700
        46        2.0000           -0.4203704             -11.4389
        47        2.0000           -0.4098553             -11.1527
        48        2.0000           -0.3872377             -10.5373
        49        2.0000           -0.3816346             -10.3848
        50        2.0000           -0.3681032             -10.0166 (HOMO)
        51                         -0.2454329              -6.6786 (LUMO)
        52                         -0.2373764              -6.4593
        53                         -0.2349797              -6.3941
        54                         -0.2026673              -5.5149
        55                         -0.1623252              -4.4171
       ...                                ...                  ...
        91                          0.7146072              19.4455
      -------------------------------------------------------------
                  HL-Gap            0.1226703 Eh            3.3380 eV
             Fermi-level           -0.3067681 Eh           -8.3476 eV

 SCC (total)                   0 d,  0 h,  0 min,  0.194 sec
 SCC setup                      ...        0 min,  0.001 sec (  0.332%)
 Dispersion                     ...        0 min,  0.005 sec (  2.449%)
 classical contributions        ...        0 min,  0.005 sec (  2.367%)
 integral evaluation            ...        0 min,  0.016 sec (  8.475%)
 iterations                     ...        0 min,  0.140 sec ( 72.108%)
 molecular gradient             ...        0 min,  0.027 sec ( 13.991%)
 printout                       ...        0 min,  0.001 sec (  0.265%)

         :::::::::::::::::::::::::::::::::::::::::::::::::::::
         ::                     SUMMARY                     ::
         :::::::::::::::::::::::::::::::::::::::::::::::::::::
         :: total energy             -56.474637436989 Eh    ::
         :: gradient norm              0.000185048520 Eh/a0 ::
         :: HOMO-LUMO gap              3.338028714766 eV    ::
         ::.................................................::
         :: SCC energy               -57.233176235285 Eh    ::
         :: -> isotropic ES            0.096756702547 Eh    ::
         :: -> anisotropic ES          0.007681625198 Eh    ::
         :: -> anisotropic XC          0.019411595688 Eh    ::
         :: -> dispersion             -0.033738739947 Eh    ::
         :: repulsion energy           0.758538798295 Eh    ::
         :: add. restraining           0.000000000000 Eh    ::
         :: total charge               0.000000000000 e     ::
         :::::::::::::::::::::::::::::::::::::::::::::::::::::

           -------------------------------------------------
          |                Property Printout                |
           -------------------------------------------------

    * Orbital Energies and Occupations

         #    Occupation            Energy/Eh            Energy/eV
      -------------------------------------------------------------
         1        2.0000           -0.7414859             -20.1769
       ...           ...                  ...                  ...
        38        2.0000           -0.4702425             -12.7959
        39        2.0000           -0.4658850             -12.6774
        40        2.0000           -0.4598765             -12.5139
        41        2.0000           -0.4567630             -12.4292
        42        2.0000           -0.4537316             -12.3467
        43        2.0000           -0.4348390             -11.8326
        44        2.0000           -0.4328605             -11.7787
        45        2.0000           -0.4215144             -11.4700
        46        2.0000           -0.4203704             -11.4389
        47        2.0000           -0.4098553             -11.1527
        48        2.0000           -0.3872377             -10.5373
        49        2.0000           -0.3816346             -10.3848
        50        2.0000           -0.3681032             -10.0166 (HOMO)
        51                         -0.2454329              -6.6786 (LUMO)
        52                         -0.2373764              -6.4593
        53                         -0.2349797              -6.3941
        54                         -0.2026673              -5.5149
        55                         -0.1623252              -4.4171
        56                         -0.0767476              -2.0884
        57                         -0.0308303              -0.8389
        58                          0.0169383               0.4609
        59                          0.0387583               1.0547
        60                          0.0560378               1.5249
        61                          0.0728841               1.9833
       ...                                ...                  ...
        91                          0.7146072              19.4455
      -------------------------------------------------------------
                  HL-Gap            0.1226703 Eh            3.3380 eV
             Fermi-level           -0.3067681 Eh           -8.3476 eV

     #   Z          covCN         q      C6AA      α(0)
     1   8 O        1.655    -0.374    20.346     6.089
     2   6 C        2.684     0.358    20.930     7.487
     3   8 O        0.856    -0.374    21.168     6.168
     4   1 H        0.800     0.363     0.559     1.174
     5   6 C        3.737    -0.037    21.321     6.589
     6   1 H        0.925     0.076     2.019     2.222
     7   1 H        0.924     0.077     2.014     2.219
     8   7 N        2.685    -0.172    24.727     7.385
     9   1 H        0.860     0.181     1.209     1.723
    10   6 C        2.755     0.256    22.688     7.800
    11   8 O        0.859    -0.455    22.800     6.402
    12   6 C        3.788     0.034    20.017     6.372
    13   1 H        0.924     0.042     2.427     2.436
    14   7 N        2.633    -0.332    28.540     7.934
    15   1 H        0.860     0.160     1.335     1.810
    16   1 H        0.860     0.144     1.442     1.881
    17   6 C        3.809    -0.059    21.634     6.621
    18   1 H        0.924     0.037     2.494     2.469
    19   1 H        0.924     0.050     2.318     2.381
    20   6 C        3.060    -0.027    28.604     8.771
    21   6 C        3.034    -0.001    28.028     8.684
    22   1 H        0.926     0.040     2.444     2.445
    23   7 N        2.780    -0.099    23.182     7.151
    24   1 H        0.860     0.160     1.335     1.810
    25   6 C        3.088     0.045    26.895     8.501
    26   6 C        2.908    -0.052    29.284     8.873
    27   1 H        0.926     0.025     2.663     2.552
    28   6 C        2.924    -0.036    28.907     8.817
    29   1 H        0.926     0.029     2.601     2.522
    30   6 C        2.919    -0.042    29.039     8.837
    31   1 H        0.926     0.026     2.644     2.543
    32   6 C        2.912    -0.037    28.930     8.820
    33   1 H        0.926     0.015     2.814     2.623
    34   6 C        3.118    -0.020    28.335     8.719

 Mol. C6AA /au·bohr⁶  :      13342.939081
 Mol. C8AA /au·bohr⁸  :     312428.844312
 Mol. α(0) /au        :        178.830783


Wiberg/Mayer (AO) data.
largest (>0.10) Wiberg bond orders for each atom

 ---------------------------------------------------------------------------
     #   Z sym  total        # sym  WBO       # sym  WBO       # sym  WBO
 ---------------------------------------------------------------------------
     1   8 O    2.233 --     2 C    1.197     4 H    0.775     3 O    0.183
     2   6 C    3.931 --     3 O    1.777     1 O    1.197     5 C    0.925
     3   8 O    2.069 --     2 C    1.777     1 O    0.183
     4   1 H    0.868 --     1 O    0.775
     5   6 C    3.962 --     8 N    0.986     6 H    0.974     7 H    0.954
                             2 C    0.925
     6   1 H    0.994 --     5 C    0.974
     7   1 H    0.994 --     5 C    0.954
     8   7 N    3.456 --    10 C    1.279     5 C    0.986     9 H    0.940
                            11 O    0.186
     9   1 H    0.967 --     8 N    0.940
    10   6 C    3.936 --    11 O    1.618     8 N    1.279    12 C    0.943
    11   8 O    2.014 --    10 C    1.618     8 N    0.186
    12   6 C    3.988 --    14 N    1.034    13 H    0.956    17 C    0.947
                            10 C    0.943
    13   1 H    0.998 --    12 C    0.956
    14   7 N    3.020 --    12 C    1.034    16 H    0.964    15 H    0.956
    15   1 H    0.974 --    14 N    0.956
    16   1 H    0.979 --    14 N    0.964
    17   6 C    3.993 --    20 C    1.016    19 H    0.972    18 H    0.971
                            12 C    0.947
    18   1 H    0.999 --    17 C    0.971
    19   1 H    0.997 --    17 C    0.972
    20   6 C    3.974 --    21 C    1.580    34 C    1.205    17 C    1.016
    21   6 C    3.951 --    20 C    1.580    23 N    1.201    22 H    0.969
    22   1 H    0.998 --    21 C    0.969
    23   7 N    3.547 --    21 C    1.201    25 C    1.178    24 H    0.947
    24   1 H    0.974 --    23 N    0.947
    25   6 C    3.959 --    26 C    1.340    34 C    1.245    23 N    1.178
    26   6 C    3.989 --    28 C    1.493    25 C    1.340    27 H    0.968
                            32 C    0.113
    27   1 H    0.999 --    26 C    0.968
    28   6 C    3.991 --    26 C    1.493    30 C    1.372    29 H    0.972
    29   1 H    0.999 --    28 C    0.972
    30   6 C    3.991 --    32 C    1.504    28 C    1.372    31 H    0.972
    31   1 H    0.999 --    30 C    0.972
    32   6 C    3.992 --    30 C    1.504    34 C    1.332    33 H    0.969
                            26 C    0.113
    33   1 H    0.999 --    32 C    0.969
    34   6 C    3.984 --    32 C    1.332    25 C    1.245    20 C    1.205
 ---------------------------------------------------------------------------

Topologies differ in total number of bonds
Writing topology from bond orders to xtbtopo.mol

molecular dipole:
                 x           y           z       tot (Debye)
 q only:        1.552      -1.625       0.697
   full:        1.689      -1.848       0.750       6.644
molecular quadrupole (traceless):
                xx          xy          yy          xz          yz          zz
 q only:      -10.206      13.491      -3.303      -1.570       4.133      13.509
  q+dip:       -9.404      18.327      -5.723      -1.888       2.785      15.127
   full:      -10.771      17.863      -4.297      -1.825       5.405      15.068

           -------------------------------------------------
          |                Geometry Summary                 |
           -------------------------------------------------

      molecular mass/u    :      261.2770023
   center of mass at/Å    :       -0.0000000      -0.0000000       0.0000000
  moments of inertia/u·Å² :        0.6064156E+03   0.3085487E+04   0.3541751E+04
rotational constants/cm⁻¹ :        0.2779881E-01   0.5463525E-02   0.4759689E-02

 * 32 selected distances

     #   Z          #   Z                                           value/Å
     1   8 O        2   6 C                                       1.3189715
     2   6 C        3   8 O                                       1.1979255
     1   8 O        4   1 H                                       0.9962609 (min)
     5   6 C        6   1 H                                       1.0890645
     5   6 C        7   1 H                                       1.0972634
     5   6 C        8   7 N                                       1.4539484
     8   7 N        9   1 H                                       1.0067606
     8   7 N       10   6 C                                       1.3443492
    10   6 C       11   8 O                                       1.2267708
    12   6 C       13   1 H                                       1.0959375
    12   6 C       14   7 N                                       1.4461380
    14   7 N       15   1 H                                       1.0160469
    14   7 N       16   1 H                                       1.0141927
    17   6 C       18   1 H                                       1.0920569
    17   6 C       19   1 H                                       1.0910423
    17   6 C       20   6 C                                       1.4900163 (max)
    20   6 C       21   6 C                                       1.3636162
    21   6 C       22   1 H                                       1.0723063
    21   6 C       23   7 N                                       1.3671060
    23   7 N       24   1 H                                       1.0054390
    23   7 N       25   6 C                                       1.3640718
    25   6 C       26   6 C                                       1.3889620
    26   6 C       27   1 H                                       1.0801607
    26   6 C       28   6 C                                       1.3780081
    28   6 C       29   1 H                                       1.0797833
    28   6 C       30   6 C                                       1.3976288
    30   6 C       31   1 H                                       1.0802128
    30   6 C       32   6 C                                       1.3763222
    32   6 C       33   1 H                                       1.0809270
    20   6 C       34   6 C                                       1.4288402
    25   6 C       34   6 C                                       1.4165097
    32   6 C       34   6 C                                       1.3949502

 * 6 distinct bonds (by element types)

   Z      Z             #   av. dist./Å        max./Å        min./Å
   1 H    6 C          10     1.0858755     1.0972634     1.0723063
   6 C    6 C           9     1.4038726     1.4900163     1.3636162
   1 H    7 N           4     1.0106098     1.0160469     1.0054390
   6 C    7 N           5     1.3951227     1.4539484     1.3443492
   1 H    8 O           1     0.9962609     0.9962609     0.9962609
   6 C    8 O           3     1.2478892     1.3189715     1.1979255


optimized geometry written to: xtbopt.xyz


           -------------------------------------------------
          | TOTAL ENERGY              -56.474637436989 Eh   |
          | GRADIENT NORM               0.000185048520 Eh/α |
          | HOMO-LUMO GAP               3.338028714766 eV   |
           -------------------------------------------------

------------------------------------------------------------------------
 * finished run on 2026/10/01 at 18:03:54.543     
------------------------------------------------------------------------
 total:
 * wall-time:     0 d,  0 h,  0 min,  0.709 sec
 *  cpu-time:     0 d,  0 h,  0 min,  9.748 sec
 * ratio c/w:    13.740 speedup
 SCF:
 * wall-time:     0 d,  0 h,  0 min,  0.169 sec
 *  cpu-time:     0 d,  0 h,  0 min,  2.397 sec
 * ratio c/w:    14.214 speedup
 ANC optimizer:
 * wall-time:     0 d,  0 h,  0 min,  0.526 sec
 *  cpu-time:     0 d,  0 h,  0 min,  7.145 sec
 * ratio c/w:    13.586 speedup


--- STDERR ---
normal termination of xtb
Note: The following floating-point exceptions are signalling: IEEE_UNDERFLOW_FLAG IEEE_DENORMAL
