34
 energy: -56.474637436989 gnorm: 0.000185048520 xtb: 6.7.1-6.fc44.fc44
O           -4.31862951760000        2.35638511770000       -0.97193521220000
C           -3.59372370650000        2.48836186950000       -2.06590922770000
O           -3.63695497190000        3.45399939720000       -2.77351105480000
H           -4.12099049530000        1.50684279550000       -0.49052874410000
C           -2.69015049530000        1.27806648290000       -2.39162305280000
H           -2.17817382090000        1.46730235240000       -3.33403001890000
H           -3.33947540450000        0.39980101220000       -2.49656959970000
N           -1.70387552640000        1.00895967750000       -1.35779090450000
H           -0.74109885970000        1.22100696430000       -1.56190785110000
C           -2.02093656460000        0.44951231190000       -0.17721250090000
O           -3.18399176900000        0.25178417940000        0.15919875490000
C           -0.84315664730000        0.04950561910000        0.70650054680000
H           -0.05512015310000        0.80764718660000        0.63370906520000
N           -1.21533074010000       -0.09165466100000        2.09677931260000
H           -2.03689944840000       -0.68570212230000        2.16373814580000
H           -1.46136800440000        0.80812451390000        2.49483672270000
C           -0.28673449470000       -1.29852966070000        0.18807672350000
H           -0.15232528190000       -1.24566729660000       -0.89438700440000
H           -1.01539694420000       -2.07890794960000        0.41265175820000
C            1.01434026610000       -1.60468352380000        0.84657679200000
C            1.21483567600000       -2.33229773510000        1.98228268300000
H            0.49497657890000       -2.84569674620000        2.58896619900000
N            2.54342920630000       -2.34583489470000        2.30420556680000
H            2.94528510950000       -2.81025844550000        3.10027719640000
C            3.23278352350000       -1.61371381960000        1.38253265350000
C            4.58939655070000       -1.33363400650000        1.28069259240000
H            5.29304629630000       -1.71457300030000        2.00630229720000
C            5.00333644640000       -0.55354847070000        0.22285217010000
H            6.05068785910000       -0.31460140600000        0.11380623770000
C            4.09274318080000       -0.06381288880000       -0.71754394640000
H            4.45946867960000        0.54273749500000       -1.53269331770000
C            2.74768935140000       -0.33971391420000       -0.62282772920000
H            2.05540346700000        0.04030345740000       -1.36088598650000
C            2.29660378710000       -1.12360716080000        0.43920754480000
