68
frame_0004
O       1.192020150397819     -0.186920667561103      1.586226270457996
O       1.071570910924011     -1.057737384484094     -1.713221315991539
O      -3.592010326834596     -2.538505550009426     -0.191430057092580
O      -3.102421864038171      3.019853827109124      0.543386456889152
O      -1.233836823424084      1.574309992014217     -1.397375679331591
O       2.250314396081051      2.913138273694326      1.112032928587549
N       0.417834910515602     -2.294448781690945     -0.362088965667098
N      -2.202931762796246     -0.909910031618009     -0.954967945480148
N      -4.017484987271621      0.793639541637866      0.308279560691417
N      -0.600081191996816      2.221610539249098      0.661593821142973
N       1.933237114161016      1.826103136765634     -0.886289014486331
N       3.157157755234250     -0.601126650901704      0.518282990258626
C       2.219091139415670     -0.734043595930374      0.627482072817220
C       1.631829351610794     -2.292037323741072      0.492259021606424
C       1.518481861496167     -3.283141875959061      1.792824496431062
C       0.282323330237612     -4.088335163343059      1.456120694322649
C      -0.611040587292403     -3.155737574302106      0.726334607825994
C      -0.018616216947780     -1.505077411782087     -1.151738310153915
C      -1.261319800416200     -1.608858536958688     -1.817170574969197
C      -1.289409007832174     -1.107529519175928     -3.281831807796154
C      -3.211465046116442     -1.428565145751901     -0.226048879046468
C      -3.955457127057880     -0.733303940905857      0.503671526914983
C      -5.526168909739300     -0.810987218589981      0.674876272938478
C      -2.990119130264540      2.046400554587133      0.715669395351342
C      -1.662803238856789      1.475188456198214      1.396489683763894
C      -1.635069728619928      1.902573480318939      2.768994400902181
C      -0.505681566188101      2.158058987047233     -0.478922077224321
C       0.808767753229880      2.689982635051082     -1.128079865675046
C       0.829985729479060      2.785236057415069     -2.655690323732157
C       2.514216484739223      1.894760444134343      0.531192989981710
C       3.576972806783409      0.920608102698315      0.917460731985816
C       4.724545931502743      1.069989663533322     -0.055907152104063
C       5.437986420117086     -0.230540688783867     -0.265241465388297
C       4.156591010667254     -1.127739136370260     -0.126763286070571
H       2.234326371412920     -2.964782769297019     -0.196854180963623
H       2.431650677190844     -3.808647261442035      2.002450147278769
H       1.420758693689989     -2.516636459900616      2.528543337565949
H       0.493041443881929     -4.859768428506200      0.876698096636867
H      -0.029427609490286     -4.417185161906990      2.444581682320385
H      -1.253525324932103     -3.723369768448683      0.252076666403799
H      -1.197036117918606     -2.456536492308194      1.468145112650647
H      -2.144743264312293      0.302330627479554     -1.041180521276093
H      -1.677600431062606     -2.734600516233115     -1.943303515061673
H      -0.712210918389350     -1.453337780129546     -3.717956035711091
H      -1.160174108615592      0.159463667500320     -3.314615063757126
H      -2.101154760188938     -1.093767578122375     -3.660277881805796
H      -4.728484719624851      1.301214256637830     -0.336101375884536
H      -3.637384971712285     -0.463801865690753      1.509329346696386
H      -6.020666346197310     -0.157411667269314      1.506674169972334
H      -5.568274570847080     -1.836315333482584      0.827241829588949
H      -5.673475105312956     -0.764133040654675     -0.470954861278341
H       0.100424498835462      2.377891310848525      1.288226657174067
H      -1.499637067340607      0.294026806635066      1.406067975340209
H      -2.409967029684113      1.394186083210563      3.216801432675882
H      -1.962572013745549      2.960508976719688      2.848348675274615
H      -0.894656112255246      1.641482520373251      3.314506718115826
H       1.998171431123503      0.894443189538806     -1.293120064093777
H       0.820172006592003      3.785450242799101     -0.734643295735546
H       0.014921724678760      3.423971417777525     -3.061167209296485
H       0.850789838680072      1.650559645964670     -2.908826882057303
H       1.854932892828411      3.280909959854689     -2.956794655548256
H       3.924395934799802      1.078617815187659      1.994594561238490
H       5.511440153067562      1.801213881690756      0.349395265831378
H       4.544112886516403      1.388597642808100     -1.147116555484412
H       5.977656033556048     -0.485145466454962      0.700160098624687
H       6.101413814191700     -0.373673440032919     -0.902557353673610
H       4.068689555754386     -1.415578211253497     -1.314438068732148
H       4.400179198989874     -2.160702761379310      0.108557370222285
