68
 energy: -106.573605377871 gnorm: 0.000766677511 xtb: 6.7.1-6.fc44.fc44
O            1.21575301593631       -0.18277722299281        1.45605059997517
O            1.00470768610775       -0.90583938942595       -1.64560767211683
O           -3.44702792231279       -2.61974803595551       -0.22222972822724
O           -3.20166363865509        3.08292039581562        0.40835906682262
O           -1.33202217344521        1.65217058638226       -1.37728376068060
O            2.26607538777234        2.84228739265733        1.25115692365217
N            0.30287480352629       -2.34052092079154       -0.09527259170851
N           -2.21468580556501       -0.88380531400329       -0.97882885167805
N           -3.86571319651712        0.95600695336382        0.25984447748575
N           -0.58541482833647        2.08989182416606        0.70306682788273
N            1.92444301169520        1.77022158445702       -0.70845258896402
N            3.22423948101988       -0.46207663346121        0.50013599632252
C            2.00394408472724       -0.89214248624124        0.85245092741135
C            1.63434132754465       -2.33413882964430        0.50291269807001
C            1.49529660615401       -3.20268521229438        1.75628680188944
C            0.30146545094075       -4.09750493273885        1.43121910366830
C           -0.61957163546058       -3.14152142715748        0.68171746156087
C            0.09506723550817       -1.58625888568162       -1.18203273977438
C           -1.30302722534674       -1.64175057485653       -1.81100365625466
C           -1.27693323706862       -1.05848326209538       -3.21855122727592
C           -3.19723897851543       -1.42682149168522       -0.25892561914473
C           -3.98090155749998       -0.43482497574363        0.63446802996011
C           -5.45401538291918       -0.83670192177816        0.64941632956585
C           -2.98601505078852        1.91319479987245        0.63924049325367
C           -1.71221252202438        1.47011642955916        1.37720940680719
C           -1.75840927537128        1.94904692563629        2.82269964099118
C           -0.47409488868852        2.09357251586172       -0.62426614144988
C            0.85530350757216        2.65482870818605       -1.13988307808587
C            0.85828001357178        2.75891010788930       -2.65674353986036
C            2.50574786001935        1.91955044939666        0.49457461461000
C            3.61547179695310        0.91111845717216        0.79227984909867
C            4.84790030230885        1.13886834229642       -0.08577073290375
C            5.45991124673613       -0.25554054461022       -0.18120907099592
C            4.23438453141944       -1.16388918672437       -0.27067765853994
H            2.33616880014772       -2.75865893459344       -0.22046867910347
H            2.40493581762545       -3.76044934396642        1.96990828990533
H            1.26035104872133       -2.56441182573408        2.60942372131880
H            0.60714240334684       -4.91520715228684        0.77684396222421
H           -0.16819699995755       -4.51345652444592        2.31919920402331
H           -1.35359153230229       -3.64759560785524        0.05613623914970
H           -1.15846485357653       -2.50194845116714        1.39028776981472
H           -2.09666189648436        0.13176640138400       -1.04356025944889
H           -1.65324781519409       -2.68019287184651       -1.82876931699691
H           -0.51314550002106       -1.55043736686299       -3.81455073965006
H           -1.05372710780000        0.00353123561306       -3.16173227887926
H           -2.24530969374919       -1.19198740850145       -3.69344887063839
H           -4.63684772655016        1.31959466268991       -0.28521235879191
H           -3.57482270350186       -0.56925310198737        1.64609306036294
H           -5.99994451077989       -0.26773154602652        1.39757200711814
H           -5.53082577664818       -1.89694032825893        0.87363637983742
H           -5.89859004281618       -0.66133633594650       -0.32786501349671
H            0.18067106825509        2.42567089447306        1.27304672768824
H           -1.58584023209093        0.38129927760348        1.34053414092064
H           -2.57301482904607        1.46502137862878        3.35668968984396
H           -1.91543779208636        3.02480999973614        2.84419207975827
H           -0.81979143587392        1.70968259483780        3.31675331871314
H            1.94480533256550        0.86911863777609       -1.17498130998886
H            1.03390515032965        3.62954683892584       -0.67221856077281
H            0.01763953990496        3.36427827769986       -2.98285636194085
H            0.75804839108973        1.76637723361652       -3.08921681838409
H            1.78409226828304        3.20985189851753       -3.00424741573034
H            3.85857874847567        1.00726094131287        1.85840001658762
H            5.52384587730994        1.87298401817764        0.34547932847007
H            4.53669567156954        1.48321328046319       -1.07290945613182
H            6.02418653664241       -0.47900079887268        0.72475560674225
H            6.11766256504566       -0.36864061352712       -1.03988646959081
H            3.89966741265621       -1.27412331384028       -1.30935411922985
H            4.43590021057127       -2.15192873445954        0.14887872084108
