34
frame_0053
O       0.197744894200000      1.798771961600000     -1.140364754000000
C      -0.972434490100000      2.337328916800000     -1.482581165000000
O      -1.052844209300000      3.258738539300000     -2.241675770400000
H       0.111268071700000      1.111577213200000     -0.454270062900000
C      -2.194856164500000      1.673736138100000     -0.843549726600000
H      -3.083647365400000      1.945283253000000     -1.420202869200000
H      -2.307404766700000      2.052286067500000      0.180080845700000
N      -2.027963913400000      0.245304348500000     -0.748950476700000
H      -2.057376295800000     -0.316081669800000     -1.589706245900000
C      -2.100840902500000     -0.424996332200000      0.421031643700000
O      -2.239676016100000      0.119514565700000      1.496061463100000
C      -1.938936888700000     -1.939616024900000      0.278588047200000
H      -2.847572344900000     -2.386452804100000      0.695855637200000
N      -1.830825808800000     -2.323002363700000     -1.120750691100000
H      -2.080801112400000     -3.297887617700000     -1.239492293700000
H      -0.863427553200000     -2.221230568200000     -1.421736005100000
C      -0.730150120800000     -2.381718877000000      1.145373351600000
H      -0.699965518300000     -3.473623398300000      1.175930930900000
H      -0.883618820600000     -2.004450944100000      2.156297627700000
C       0.548932868600000     -1.852553923200000      0.587773843000000
C       1.345191505400000     -2.455464663100000     -0.345650972500000
H       1.249091974700000     -3.425894346100000     -0.797286368900000
N       2.406888821000000     -1.649003816700000     -0.656282425500000
H       3.146103186600000     -1.877394583600000     -1.298149197500000
C       2.321062884400000     -0.501444827300000      0.077497441800000
C       3.160508883400000      0.604786680900000      0.122457277600000
H       4.046899743300000      0.655106651900000     -0.491617345700000
C       2.823014411900000      1.626198760000000      0.982200382200000
H       3.454149973600000      2.499256832100000      1.045103776800000
C       1.679233560900000      1.554002486500000      1.783151896300000
H       1.455386350000000      2.373604369000000      2.449076812500000
C       0.839695947500000      0.463143651200000      1.743644521900000
H      -0.042102075100000      0.417994518100000      2.363686728900000
C       1.153025615900000     -0.586674969800000      0.874525726800000
