68
frame_0008
O       2.174894937350103     -1.696946149232715      1.373832077726588
O      -1.279918832916637     -4.444447030462077      1.379393146711886
O      -0.933665991849932      0.113075689310694     -0.805632291563225
O      -0.811173731218759      2.929428517272502     -2.799030985266092
O      -2.092449250401669      1.295306522613971      1.758861934216058
O       1.882528866451163      2.795117601695091      0.288061979650626
N       0.341544168401988     -3.264153869809923      0.185454080884570
N      -1.974254247231109     -1.140302391716372      0.316033607817739
N      -2.386287549439341      1.526468335741819     -2.008339606089784
N      -0.972778429656823      2.559980988527235      0.620881678491411
N       1.279841245392347      0.953002519592592      1.681920307764415
N       2.254853492704965     -0.541244889511181     -0.606188199725149
C       1.829304642010694     -1.510577159689497      0.023591841236629
C       1.038943226717998     -2.437826046527590     -0.817267715825999
C       2.175359598120227     -3.471057565655795     -1.808975512582758
C       2.273839651174385     -4.535494826091007     -0.756513151593445
C       0.780882578599092     -4.872746444796729     -0.054635688859427
C      -0.705677287900625     -3.237793019123233      1.062748415904407
C      -1.090532245082560     -1.739563509922359      1.235610257696146
C      -1.794458806214426     -1.857005360809307      2.616297825496898
C      -1.874806949576325     -0.297810423659978     -0.570885683916197
C      -3.116853770982144      0.415955993162674     -0.928447042652763
C      -3.904085711467818     -0.592369205597516     -1.922076827165953
C      -1.618984807941945      2.532771075319446     -1.742618795526363
C      -1.784853159561620      3.015546454222865     -0.353731115664774
C      -2.051640607411466      4.534369114595999     -0.529831953562647
C      -1.110812338360774      1.912135103332145      1.596879494125069
C       0.073723269055288      1.753192926907889      2.512662047399465
C       0.369788113706227      3.125256834982167      3.113876756723043
C       2.007915781458931      1.574495822942685      0.783650852361700
C       3.070147409470294      0.783676109701248      0.192839097809489
C       3.807153702298129      1.281934559702766     -1.164342994356588
C       2.686244428791906      1.388455182462557     -2.160746742125124
C       2.023765501955850     -0.039454778217277     -1.915584954615644
H       0.290514395052618     -1.767631478752932     -1.380400444682472
H       1.384646520234620     -3.621670554163025     -2.642087967819290
H       3.136014322600392     -2.599974184388632     -1.876277579471356
H       2.697872810830440     -5.437320629103355     -1.133439045720400
H       3.097238746230352     -4.248321854896077      0.145431698399158
H       0.182673280726595     -5.525105518473699     -0.767757095224072
H       0.936726679768023     -5.308811799525669      0.860545726468802
H      -2.998147295069271     -1.543885106038813      0.597860399181512
H      -0.331876697786656     -1.299425484529650      1.036566745187844
H      -0.763819797754478     -1.994514562358497      3.435115977789069
H      -2.501876342051191     -2.468382803594742      2.660502703847043
H      -2.154309521238100     -0.758530050510198      2.910661919677225
H      -2.156145718541006      1.056153593183845     -2.964559983377284
H      -3.700206119824132      0.905285805916516     -0.397707295658942
H      -4.383297025981176     -1.172359932905543     -1.139832424756407
H      -3.335452376429918     -1.118972482626885     -2.640683012754315
H      -4.821568109934764     -0.000487144821779     -2.404111251885322
H       0.004436242684588      3.288733490556528      0.416322390531956
H      -3.085861146372329      2.719738591169577      0.016415976923126
H      -2.030352784010842      5.155282444803156      0.465379342437772
H      -2.694566732922110      5.004808572235013     -1.208650668660642
H      -1.043936405574297      4.805947394116436     -1.151468594904536
H       1.418474680599136     -0.045946055934182      1.630527388409608
H      -0.044688386470833      1.011721144372093      3.303740634086061
H       1.330580370717631      2.799242770193027      3.880551604992787
H      -0.351797961063965      3.304254614018709      3.754003738207941
H       0.872935994928446      3.845313144646987      2.358288232687102
H       3.651031097521934      0.305913902062331      1.025455386107492
H       4.489646696603771      0.946478213645822     -1.408859589876790
H       4.080300067845116      2.446905914954129     -0.687616915186001
H       3.304521503329923      1.485049504864443     -3.120251618582461
H       2.171791450233950      2.203814536151981     -2.060828587732973
H       1.248822956353850      0.095090362680241     -2.283311014714593
H       2.621593204583444     -0.694494451169813     -2.627584396164541
