34
frame_0019
O      -0.739354150644199      1.016750011708074     -2.336624766508177
C      -0.565967712775799      1.982543226259387     -1.615239603466061
O       0.077560112590192      2.773171284416841     -1.587269765749887
H      -1.595017779544789      0.448578120391871     -2.208325593341129
C      -1.811844179324836      1.791802854233997     -0.344426492908909
H      -2.707355164487858      1.876800513397450     -0.972781257856128
H      -1.492319336244875      2.600894154538067      0.418081789888720
N      -1.617922282562975      0.682896833597192      0.348018022091458
H      -1.014167126306914      0.563788352692574      1.450728416154380
C      -2.235969268707801     -0.412172784444428     -0.089578069922993
O      -2.487555981649724     -0.703009707483841     -1.425229828809381
C      -2.207043654231395     -1.856798731203777      0.908330989755803
H      -2.203732786539908     -1.341579437991643      1.769220559219352
N      -2.892545818644545     -2.769717216603102      0.296510491175419
H      -2.554517087456005     -3.068959994402038     -0.386771542573444
H      -4.030148022185742     -2.472371819902596      0.406524358910766
C      -0.654589744812194     -2.420233405042437      0.860896196941105
H      -0.185311771372752     -2.643154284823139     -0.162005729400320
H      -0.690700807250671     -3.257223516988346      1.613206837861454
C       0.389015354678145     -1.364795266354292      1.317913044777448
C       0.785604913587273     -1.104179024956393      2.807363086033790
H       0.415055604717350     -1.447881947666932      3.514523369267891
N       1.805334156389137      0.115663538882920      2.711795387576677
H       2.036862862837846      0.278458547776693      3.344192925336567
C       2.048723886458431      0.177300575070579      1.371522647793235
C       3.101906523145007      1.190047825848998      0.910705654126672
H       3.590562706039673      1.957616030684869      1.378842189421577
C       3.225700085347286      1.351647308073069     -0.538282566094730
H       3.893681696796726      1.876685257227889     -0.832044261940236
C       2.322888177966538      0.321016134958875     -1.333689769641976
H       2.410859419031836      0.303040626957321     -2.522928864392381
C       1.405921209608982     -0.566037131557668     -1.089155671023865
H       1.066075781885553     -0.994135612716480     -1.420216815779813
C       1.183197517541363     -0.595026477343856      0.536097365088502
