34
 energy: -56.480060787600 gnorm: 0.000387377243 xtb: 6.7.1-6.fc44.fc44
O           -0.81672648244473        1.03275410312718       -2.46890053270917
C           -0.64458702972264        1.93536441878578       -1.52363334371966
O            0.18744460521093        2.79603366035442       -1.57560546131678
H           -1.52424890289535        0.37177993834559       -2.23000759758773
C           -1.64323045985000        1.84070369590130       -0.34976349505710
H           -2.65001770561167        1.95620223728355       -0.77102676260795
H           -1.44442056094188        2.65794916821944        0.34235282049297
N           -1.59413794294306        0.58600558847592        0.38008115478756
H           -1.11496893037456        0.57621502514918        1.26662543751286
C           -2.02715548299727       -0.57909114546948       -0.12852648927057
O           -2.44165440531976       -0.68100109422547       -1.27948582686782
C           -2.00916715602140       -1.76777166568131        0.83111379184651
H           -2.29242224464728       -1.42116468638678        1.83221426214779
N           -2.93270527474113       -2.81039051233536        0.43464788764248
H           -2.72219412538038       -3.09992405065701       -0.51617271126619
H           -3.88483812359662       -2.45953700413283        0.43252530715955
C           -0.58286151203271       -2.36226356385396        0.89111963913053
H           -0.32034489972776       -2.72812032162576       -0.10286313462135
H           -0.62251540961229       -3.21595695764335        1.56910353583186
C            0.43470065883629       -1.37212051311947        1.34603414566783
C            0.72273382042066       -1.00432317562546        2.63002562687471
H            0.31240884652409       -1.37630148352265        3.54981628418607
N            1.68178118668524       -0.02683841228952        2.63638712761542
H            2.10039399238823        0.37549294930253        3.45719504051329
C            2.04407165788776        0.24997262526134        1.34680037962941
C            2.96192050504052        1.16180796872983        0.84095123094613
H            3.53892676153210        1.79437418499069        1.49932489347296
C            3.10402598760367        1.22810142225292       -0.52755717644567
H            3.80171949471551        1.93033530914475       -0.95673551467157
C            2.35915777943591        0.40634492069055       -1.37781325410797
H            2.49695792715890        0.49523194537726       -2.44393476402993
C            1.44711126766459       -0.49633033487791       -0.88316887174739
H            0.87345017865961       -1.12258988474531       -1.55018115643200
C            1.27427931297467       -0.57951951796475        0.49896025901277
