34
frame_0029
O      -3.331515680999377      2.226236851600754     -0.099607807666667
C      -2.050676445128619      2.945886711546409     -0.150474271180856
O      -1.778777246973587      4.034816442761761      0.317366834975171
H      -3.477611576891660      1.496720324674188     -0.294775147647483
C      -0.854324810165172      2.065619804792090     -0.617098813815236
H      -0.112772931208470      2.337078576575653     -0.654236052643843
H      -1.213917249328521      1.693807960187564     -1.463338354044549
N      -0.916447369105327      0.746895169419748      0.360551766307454
H      -0.075302925651529      0.569292377093644      0.849320397619465
C      -1.898756056672567     -0.378662496216281      0.225318982809711
O      -3.049281358397772     -0.305734619371545     -0.583828011411612
C      -1.575394291322751     -1.619279921868479      0.953879619407359
H      -1.055842380341067     -1.221937146861776      1.638621133466806
N      -2.492056835837305     -2.396247390675074      1.298624400944819
H      -3.144474336108189     -2.495160973943326      0.440501035756586
H      -3.067761810311191     -1.828095772071145      2.039085154238704
C      -0.393284714428559     -2.445516696029617     -0.111501269315462
H      -1.013696700782692     -2.879905550026735     -0.726084212969777
H       0.016620483697964     -3.489827003927754      0.352255444511643
C       0.711567561232120     -1.530930778746272     -0.757666545737075
C       0.668951727746214     -1.005833865374260     -1.974510986628314
H       0.158608335306164     -1.184816372260342     -2.655024523225465
N       1.971733924457044     -0.388725450232863     -2.177832749790754
H       2.206946151796295      0.031995015383684     -2.971917357104953
C       2.550072610594621     -0.196121113099210     -0.713405467753510
C       3.461266919476201      0.592836091281698     -0.268274308007949
H       4.379270700783099      1.011161639989581     -0.960717047734352
C       3.923529005010525      0.340060927461414      0.913525050756028
H       4.933439655032765      0.844678145091945      1.375949304819096
C       3.195789963452215     -0.400694942850862      1.658864733765897
H       3.711645876895602     -0.647149081494854      2.919429254447717
C       2.395877987358840     -1.007873578117621      1.749634684230560
H       1.612376689765076     -1.712571037729428      2.133859843087402
C       1.626740965006219     -0.827121648266718      0.264252146691282
