      -----------------------------------------------------------      
     |                   =====================                   |     
     |                           x T B                           |     
     |                   =====================                   |     
     |                         S. Grimme                         |     
     |          Mulliken Center for Theoretical Chemistry        |     
     |                    University of Bonn                     |     
      -----------------------------------------------------------      

   * xtb version 6.7.1-6.fc44.fc44 compiled by Fedora project on Sun Jan 18 23:32:34 UTC 2026

   xtb is free software: you can redistribute it and/or modify it under
   the terms of the GNU Lesser General Public License as published by
   the Free Software Foundation, either version 3 of the License, or
   (at your option) any later version.
   
   xtb is distributed in the hope that it will be useful,
   but WITHOUT ANY WARRANTY; without even the implied warranty of
   MERCHANTABILITY or FITNESS FOR A PARTICULAR PURPOSE.  See the
   GNU Lesser General Public License for more details.
   
   Cite this work as:
   * C. Bannwarth, E. Caldeweyher, S. Ehlert, A. Hansen, P. Pracht,
     J. Seibert, S. Spicher, S. Grimme, WIREs Comput. Mol. Sci., 2020, 11,
     e01493. DOI: 10.1002/wcms.1493
   
   for GFN2-xTB:
   * C. Bannwarth, S. Ehlert and S. Grimme., J. Chem. Theory Comput., 2019,
     15, 1652-1671. DOI: 10.1021/acs.jctc.8b01176
   for GFN1-xTB:
   * S. Grimme, C. Bannwarth, P. Shushkov, J. Chem. Theory Comput., 2017,
     13, 1989-2009. DOI: 10.1021/acs.jctc.7b00118
   for GFN0-xTB:
   * P. Pracht, E. Caldeweyher, S. Ehlert, S. Grimme, ChemRxiv, 2019, preprint.
     DOI: 10.26434/chemrxiv.8326202.v1
   for GFN-FF:
   * S. Spicher and S. Grimme, Angew. Chem. Int. Ed., 2020, 59, 15665-15673.
     DOI: 10.1002/anie.202004239
   
   for ALPB and GBSA implicit solvation:
   * S. Ehlert, M. Stahn, S. Spicher, S. Grimme, J. Chem. Theory Comput.,
     2021, 17, 4250-4261. DOI: 10.1021/acs.jctc.1c00471
   
   for ddCOSMO and CPCM-X implicit solvation:
   * M. Stahn, S. Ehlert, S. Grimme, J. Phys. Chem. A,
     2023, XX, XXXX-XXXX. DOI: 10.1021/acs.jpca.3c04382
   
   for DFT-D4:
   * E. Caldeweyher, C. Bannwarth and S. Grimme, J. Chem. Phys., 2017,
     147, 034112. DOI: 10.1063/1.4993215
   * E. Caldeweyher, S. Ehlert, A. Hansen, H. Neugebauer, S. Spicher,
     C. Bannwarth and S. Grimme, J. Chem. Phys., 2019, 150, 154122.
     DOI: 10.1063/1.5090222
   * E. Caldeweyher, J.-M. Mewes, S. Ehlert and S. Grimme, Phys. Chem. Chem. Phys.
     2020, 22, 8499-8512. DOI: 10.1039/D0CP00502A
   
   for sTDA-xTB:
   * S. Grimme and C. Bannwarth, J. Chem. Phys., 2016, 145, 054103.
     DOI: 10.1063/1.4959605
   
   in the mass-spec context:
   * V. Asgeirsson, C. Bauer and S. Grimme, Chem. Sci., 2017, 8, 4879.
     DOI: 10.1039/c7sc00601b
   * J. Koopman and S. Grimme, ACS Omega 2019, 4, 12, 15120-15133.
     DOI: 10.1021/acsomega.9b02011
   
   for metadynamics refer to:
   * S. Grimme, J. Chem. Theory Comput., 2019, 155, 2847-2862
     DOI: 10.1021/acs.jctc.9b00143
   
   for SPH calculations refer to:
   * S. Spicher and S. Grimme, J. Chem. Theory Comput., 2021, 17, 1701-1714
     DOI: 10.1021/acs.jctc.0c01306
   
   for ONIOM refer to:
   * C. Plett, A. Katbashev, S. Ehlert, S. Grimme, M. Bursch,
     Phys. Chem. Chem. Phys., 2023, 25, 17860-17868. DOI: 10.1039/D3CP02178E
   
   for DIPRO refer to:
   * J. Kohn, N. Gildemeister, S. Grimme, D. Fazzi, A. Hansen,
     J. Chem. Phys., 2023, just accepted.
   
   for PTB refer to:
   * S. Grimme, M. Mueller, A. Hansen, J. Chem. Phys., 2023, 158, 124111.
     DOI: 10.1063/5.0137838
   
   with help from (in alphabetical order)
   P. Atkinson, C. Bannwarth, F. Bohle, G. Brandenburg, E. Caldeweyher
   M. Checinski, S. Dohm, S. Ehlert, S. Ehrlich, I. Gerasimov, C. Hölzer
   A. Katbashev, J. Kohn, J. Koopman, C. Lavigne, S. Lehtola, F. März, M. Müller,
   F. Musil, H. Neugebauer, J. Pisarek, C. Plett, P. Pracht, F. Pultar,
   J. Seibert, P. Shushkov, S. Spicher, M. Stahn, M. Steiner, T. Strunk,
   J. Stückrath, T. Rose, and J. Unsleber
   
 * started run on 2026/10/01 at 18:05:28.826     
   ID    Z sym.   atoms
    1    8 O      1, 3, 11
    2    6 C      2, 5, 10, 12, 17, 20, 21, 25, 26, 28, 30, 32, 34
    3    1 H      4, 6, 7, 9, 13, 15, 16, 18, 19, 22, 24, 27, 29, 31, 33
    4    7 N      8, 14, 23

           -------------------------------------------------
          |                Calculation Setup                |
           -------------------------------------------------

          program call               : /usr/bin/xtb input.xyz --opt --gfn 2 --chrg 0 --uhf 0
          hostname                   : fedora
          coordinate file            : input.xyz
          omp threads                :                    16


           -------------------------------------------------
          |                 G F N 2 - x T B                 |
           -------------------------------------------------

        Reference                      10.1021/acs.jctc.8b01176
      * Hamiltonian:
        H0-scaling (s, p, d)           1.850000    2.230000    2.230000
        zeta-weighting                 0.500000
      * Dispersion:
        s8                             2.700000
        a1                             0.520000
        a2                             5.000000
        s9                             5.000000
      * Repulsion:
        kExp                           1.500000    1.000000
        rExp                           1.000000
      * Coulomb:
        alpha                          2.000000
        third order                    shell-resolved
        anisotropic                    true
        a3                             3.000000
        a5                             4.000000
        cn-shift                       1.200000
        cn-exp                         4.000000
        max-rad                        5.000000


          ...................................................
          :                      SETUP                      :
          :.................................................:
          :  # basis functions                  91          :
          :  # atomic orbitals                  91          :
          :  # shells                           53          :
          :  # electrons                       100          :
          :  max. iterations                   250          :
          :  Hamiltonian                  GFN2-xTB          :
          :  restarted?                      false          :
          :  GBSA solvation                  false          :
          :  PC potential                    false          :
          :  electronic temp.          300.0000000     K    :
          :  accuracy                    1.0000000          :
          :  -> integral cutoff          0.2500000E+02      :
          :  -> integral neglect         0.1000000E-07      :
          :  -> SCF convergence          0.1000000E-05 Eh   :
          :  -> wf. convergence          0.1000000E-03 e    :
          :  Broyden damping             0.4000000          :
          :  net charge                          0          :
          :  unpaired electrons                  0          :
          ...................................................

 iter      E             dE          RMSdq      gap      omega  full diag
   1    -56.7262101 -0.567262E+02  0.450E+00    2.43       0.0  T
   2    -56.8552723 -0.129062E+00  0.283E+00    2.51       1.0  T
   3    -56.8912690 -0.359967E-01  0.179E+00    2.55       1.0  T
   4    -56.8892580  0.201100E-02  0.116E+00    2.36       1.0  T
   5    -56.9359651 -0.467071E-01  0.185E-01    2.38       1.0  T
   6    -56.9366699 -0.704801E-03  0.102E-01    2.42       1.0  T
   7    -56.9368629 -0.193015E-03  0.430E-02    2.40       1.0  T
   8    -56.9368713 -0.838758E-05  0.189E-02    2.41       1.0  T
   9    -56.9368757 -0.433982E-05  0.544E-03    2.41       3.2  T
  10    -56.9368759 -0.231684E-06  0.288E-03    2.41       5.9  T
  11    -56.9368760 -0.526541E-07  0.126E-03    2.41      13.6  T
  12    -56.9368760 -0.237638E-07  0.514E-04    2.41      33.4  T
  13    -56.9368760 -0.286281E-08  0.218E-04    2.41      78.8  T

   *** convergence criteria satisfied after 13 iterations ***

         #    Occupation            Energy/Eh            Energy/eV
      -------------------------------------------------------------
         1        2.0000           -0.7293512             -19.8467
       ...           ...                  ...                  ...
        44        2.0000           -0.4249423             -11.5633
        45        2.0000           -0.4214383             -11.4679
        46        2.0000           -0.4114304             -11.1956
        47        2.0000           -0.4014834             -10.9249
        48        2.0000           -0.3901077             -10.6154
        49        2.0000           -0.3827407             -10.4149
        50        2.0000           -0.3772070             -10.2643 (HOMO)
        51                         -0.2887675              -7.8578 (LUMO)
        52                         -0.2783593              -7.5745
        53                         -0.2732698              -7.4361
        54                         -0.2039185              -5.5489
        55                         -0.1883455              -5.1251
       ...                                ...                  ...
        91                          3.1962413              86.9742
      -------------------------------------------------------------
                  HL-Gap            0.0884395 Eh            2.4066 eV
             Fermi-level           -0.3329873 Eh           -9.0610 eV

 SCC (total)                   0 d,  0 h,  0 min,  0.058 sec
 SCC setup                      ...        0 min,  0.004 sec (  7.571%)
 Dispersion                     ...        0 min,  0.004 sec (  6.885%)
 classical contributions        ...        0 min,  0.002 sec (  3.213%)
 integral evaluation            ...        0 min,  0.010 sec ( 18.086%)
 iterations                     ...        0 min,  0.032 sec ( 55.893%)
 molecular gradient             ...        0 min,  0.005 sec (  7.911%)
 printout                       ...        0 min,  0.000 sec (  0.428%)

         :::::::::::::::::::::::::::::::::::::::::::::::::::::
         ::                     SUMMARY                     ::
         :::::::::::::::::::::::::::::::::::::::::::::::::::::
         :: total energy             -55.569005921268 Eh    ::
         :: gradient norm              1.845501152713 Eh/a0 ::
         :: HOMO-LUMO gap              2.406561395494 eV    ::
         ::.................................................::
         :: SCC energy               -56.936147109033 Eh    ::
         :: -> isotropic ES            0.104773503894 Eh    ::
         :: -> anisotropic ES          0.004344030244 Eh    ::
         :: -> anisotropic XC          0.020919507447 Eh    ::
         :: -> dispersion             -0.036109333060 Eh    ::
         :: repulsion energy           1.367141187765 Eh    ::
         :: add. restraining           0.000000000000 Eh    ::
         :: total charge              -0.000000000000 e     ::
         :::::::::::::::::::::::::::::::::::::::::::::::::::::

      ----------------------------------------------------------- 
     |                   =====================                   |
     |                        A N C O P T                        |
     |                   =====================                   |
     |               Approximate Normal Coordinate               |
     |                Rational Function Optimizer                |
      ----------------------------------------------------------- 
      ----------------------------------------------------------- 
     |                   =====================                   |
     |                        A N C O P T                        |
     |                   =====================                   |
     |               Approximate Normal Coordinate               |
     |                Rational Function Optimizer                |
      ----------------------------------------------------------- 

          ...................................................
          :                      SETUP                      :
          :.................................................:
          :   optimization level            normal          :
          :   max. optcycles                   200          :
          :   ANC micro-cycles                  20          :
          :   degrees of freedom                96          :
          :.................................................:
          :   RF solver                   davidson          :
          :   write xtbopt.log                true          :
          :   linear?                        false          :
          :   energy convergence         0.5000000E-05 Eh   :
          :   grad. convergence          0.1000000E-02 Eh/α :
          :   maxmium RF displ.          1.0000000          :
          :   Hlow (freq-cutoff)         0.1000000E-01      :
          :   Hmax (freq-cutoff)         5.0000000          :
          :   S6 in model hess.         20.0000000          :
          ...................................................

generating ANC from exact Hessian ...
Using Lindh-Hessian (1995)
 Shifting diagonal of input Hessian by    9.8202917115693261E-003
 Lowest  eigenvalues of input Hessian
    0.000000    0.000000    0.000000    0.000000    0.000000    0.000000
    0.010000    0.010282    0.010379    0.011065    0.011393    0.012158
    0.013269    0.013892    0.015313    0.016107    0.018968    0.019279
 Highest eigenvalues
    2.243020    2.255804    2.265441    2.312966    2.680705    3.684300


........................................................................
.............................. CYCLE    1 ..............................
........................................................................

 iter      E             dE          RMSdq      gap      omega  full diag
   1    -56.9368760 -0.569369E+02  0.797E-05    2.41       0.0  T
   2    -56.9368760 -0.336229E-10  0.501E-05    2.41     342.2  T
   3    -56.9368760 -0.306670E-10  0.363E-05    2.41     472.2  T
     SCC iter.                  ...        0 min,  0.007 sec
     gradient                   ...        0 min,  0.004 sec
 * total energy  :   -55.5690059 Eh     change       -0.6592416E-09 Eh
   gradient norm :     1.8455025 Eh/α   predicted     0.0000000E+00 (-100.00%)
   displ. norm   :     0.5855462 α      lambda       -0.1015397E+01
   maximum displ.:     0.2620225 α      in ANC's #96, #93, #82, ...

........................................................................
.............................. CYCLE    2 ..............................
........................................................................

 iter      E             dE          RMSdq      gap      omega  full diag
   1    -56.9725205 -0.569725E+02  0.786E-01    2.68       0.0  T
   2    -56.9786986 -0.617816E-02  0.610E-01    2.69       1.0  T
   3    -56.9853000 -0.660139E-02  0.316E-01    2.68       1.0  T
   4    -56.9855701 -0.270065E-03  0.149E-01    2.65       1.0  T
   5    -56.9858659 -0.295832E-03  0.330E-02    2.64       1.0  T
   6    -56.9858874 -0.215102E-04  0.191E-02    2.65       1.0  T
   7    -56.9858939 -0.642865E-05  0.814E-03    2.65       2.1  T
   8    -56.9858944 -0.516666E-06  0.352E-03    2.65       4.9  T
   9    -56.9858946 -0.195151E-06  0.137E-03    2.65      12.5  T
  10    -56.9858946 -0.161189E-07  0.659E-04    2.65      26.0  T
  11    -56.9858946 -0.297159E-08  0.252E-04    2.65      68.0  T
     SCC iter.                  ...        0 min,  0.015 sec
     gradient                   ...        0 min,  0.002 sec
 * total energy  :   -56.1508958 Eh     change       -0.5818899E+00 Eh
   gradient norm :     0.5729547 Eh/α   predicted    -0.6817749E+00 (  17.17%)
   displ. norm   :     0.5587870 α      lambda       -0.2628132E+00
   maximum displ.:     0.1615179 α      in ANC's #82, #53, #44, ...

........................................................................
.............................. CYCLE    3 ..............................
........................................................................

 iter      E             dE          RMSdq      gap      omega  full diag
   1    -57.0954981 -0.570955E+02  0.607E-01    2.96       0.0  T
   2    -57.0999648 -0.446675E-02  0.407E-01    3.08       1.0  T
   3    -57.1009968 -0.103195E-02  0.231E-01    3.05       1.0  T
   4    -57.1010591 -0.623049E-04  0.115E-01    3.05       1.0  T
   5    -57.1013012 -0.242090E-03  0.231E-02    3.05       1.0  T
   6    -57.1013094 -0.819883E-05  0.112E-02    3.05       1.5  T
   7    -57.1013108 -0.145951E-05  0.508E-03    3.05       3.4  T
   8    -57.1013111 -0.255569E-06  0.241E-03    3.05       7.1  T
   9    -57.1013112 -0.943925E-07  0.921E-04    3.05      18.6  T
  10    -57.1013112 -0.702077E-08  0.432E-04    3.05      39.7  T
     SCC iter.                  ...        0 min,  0.014 sec
     gradient                   ...        0 min,  0.001 sec
 * total energy  :   -56.3521282 Eh     change       -0.2012324E+00 Eh
   gradient norm :     0.3184546 Eh/α   predicted    -0.1724377E+00 ( -14.31%)
   displ. norm   :     0.5641019 α      lambda       -0.1428552E+00
   maximum displ.:     0.1557500 α      in ANC's #32, #30, #95, ...

........................................................................
.............................. CYCLE    4 ..............................
........................................................................

 iter      E             dE          RMSdq      gap      omega  full diag
   1    -57.1784230 -0.571784E+02  0.574E-01    3.21       0.0  T
   2    -57.1812857 -0.286267E-02  0.366E-01    3.30       1.0  T
   3    -57.1816802 -0.394453E-03  0.198E-01    3.28       1.0  T
   4    -57.1818726 -0.192403E-03  0.660E-02    3.28       1.0  T
   5    -57.1819680 -0.954428E-04  0.159E-02    3.28       1.1  T
   6    -57.1819718 -0.383295E-05  0.769E-03    3.28       2.2  T
   7    -57.1819722 -0.372925E-06  0.331E-03    3.28       5.2  T
   8    -57.1819723 -0.779360E-07  0.164E-03    3.28      10.5  T
   9    -57.1819723 -0.537803E-07  0.659E-04    3.28      26.0  T
  10    -57.1819723 -0.367444E-08  0.315E-04    3.28      54.5  T
     SCC iter.                  ...        0 min,  0.014 sec
     gradient                   ...        0 min,  0.002 sec
 * total energy  :   -56.4446821 Eh     change       -0.9255387E-01 Eh
   gradient norm :     0.1487197 Eh/α   predicted    -0.9415666E-01 (   1.73%)
   displ. norm   :     0.4765218 α      lambda       -0.3786049E-01
   maximum displ.:     0.1923610 α      in ANC's #30, #12, #23, ...

........................................................................
.............................. CYCLE    5 ..............................
........................................................................

 iter      E             dE          RMSdq      gap      omega  full diag
   1    -57.1930192 -0.571930E+02  0.444E-01    3.42       0.0  T
   2    -57.1940549 -0.103574E-02  0.285E-01    3.42       1.0  T
   3    -57.1940682 -0.132188E-04  0.146E-01    3.41       1.0  T
   4    -57.1942145 -0.146295E-03  0.575E-02    3.42       1.0  T
   5    -57.1943262 -0.111702E-03  0.839E-03    3.42       2.0  T
   6    -57.1943275 -0.132728E-05  0.423E-03    3.42       4.1  T
   7    -57.1943276 -0.157070E-06  0.177E-03    3.42       9.7  T
   8    -57.1943277 -0.294614E-07  0.711E-04    3.42      24.1  T
   9    -57.1943277 -0.594056E-08  0.204E-04    3.42      84.0  T
     SCC iter.                  ...        0 min,  0.013 sec
     gradient                   ...        0 min,  0.002 sec
 * total energy  :   -56.4666278 Eh     change       -0.2194564E-01 Eh
   gradient norm :     0.0836761 Eh/α   predicted    -0.2322879E-01 (   5.85%)
   displ. norm   :     0.3476304 α      lambda       -0.1115468E-01
   maximum displ.:     0.1121158 α      in ANC's #17, #13, #10, ...

........................................................................
.............................. CYCLE    6 ..............................
........................................................................

 iter      E             dE          RMSdq      gap      omega  full diag
   1    -57.2144749 -0.572145E+02  0.267E-01    3.48       0.0  T
   2    -57.2145623 -0.874072E-04  0.159E-01    3.47       1.0  T
   3    -57.2145069  0.553603E-04  0.530E-02    3.47       1.0  T
   4    -57.2145821 -0.751586E-04  0.106E-02    3.47       1.6  T
   5    -57.2145850 -0.293781E-05  0.457E-03    3.47       3.8  T
   6    -57.2145852 -0.199150E-06  0.243E-03    3.47       7.1  T
   7    -57.2145853 -0.728423E-07  0.791E-04    3.47      21.7  T
   8    -57.2145853 -0.795630E-08  0.339E-04    3.47      50.6  T
     SCC iter.                  ...        0 min,  0.012 sec
     gradient                   ...        0 min,  0.001 sec
 * total energy  :   -56.4731110 Eh     change       -0.6483294E-02 Eh
   gradient norm :     0.0599171 Eh/α   predicted    -0.6251382E-02 (  -3.58%)
   displ. norm   :     0.2575823 α      lambda       -0.6198933E-02
   maximum displ.:     0.0993793 α      in ANC's #10, #21, #13, ...

........................................................................
.............................. CYCLE    7 ..............................
........................................................................

 iter      E             dE          RMSdq      gap      omega  full diag
   1    -57.2268798 -0.572269E+02  0.217E-01    3.48       0.0  T
   2    -57.2269073 -0.275630E-04  0.129E-01    3.48       1.0  T
   3    -57.2268608  0.465241E-04  0.447E-02    3.49       1.0  T
   4    -57.2269161 -0.553081E-04  0.869E-03    3.48       2.0  T
   5    -57.2269180 -0.185091E-05  0.270E-03    3.48       6.4  T
   6    -57.2269180 -0.463190E-07  0.142E-03    3.48      12.0  T
   7    -57.2269180 -0.246842E-07  0.582E-04    3.48      29.5  T
   8    -57.2269181 -0.462629E-08  0.171E-04    3.48     100.4  T
     SCC iter.                  ...        0 min,  0.014 sec
     gradient                   ...        0 min,  0.002 sec
 * total energy  :   -56.4765092 Eh     change       -0.3398182E-02 Eh
   gradient norm :     0.0388703 Eh/α   predicted    -0.3305128E-02 (  -2.74%)
   displ. norm   :     0.2116792 α      lambda       -0.2594728E-02
   maximum displ.:     0.1057897 α      in ANC's #7, #23, #6, ...

........................................................................
.............................. CYCLE    8 ..............................
........................................................................

 iter      E             dE          RMSdq      gap      omega  full diag
   1    -57.2302614 -0.572303E+02  0.169E-01    3.47       0.0  T
   2    -57.2302776 -0.162493E-04  0.100E-01    3.47       1.0  T
   3    -57.2302429  0.347265E-04  0.368E-02    3.48       1.0  T
   4    -57.2302839 -0.409760E-04  0.573E-03    3.47       3.0  T
   5    -57.2302849 -0.972376E-06  0.233E-03    3.47       7.4  T
   6    -57.2302849 -0.379120E-07  0.108E-03    3.47      15.8  T
   7    -57.2302849 -0.130950E-07  0.341E-04    3.47      50.3  T
   8    -57.2302849 -0.151508E-08  0.137E-04    3.47     125.6  T
     SCC iter.                  ...        0 min,  0.010 sec
     gradient                   ...        0 min,  0.004 sec
 * total energy  :   -56.4773407 Eh     change       -0.8314584E-03 Eh
   gradient norm :     0.0331190 Eh/α   predicted    -0.1355502E-02 (  63.03%)
   displ. norm   :     0.1636082 α      lambda       -0.2037833E-02
   maximum displ.:     0.0884480 α      in ANC's #7, #23, #5, ...

........................................................................
.............................. CYCLE    9 ..............................
........................................................................

 iter      E             dE          RMSdq      gap      omega  full diag
   1    -57.2379954 -0.572380E+02  0.119E-01    3.48       0.0  T
   2    -57.2380154 -0.199816E-04  0.706E-02    3.49       1.0  T
   3    -57.2379930  0.223664E-04  0.381E-02    3.49       1.0  T
   4    -57.2380235 -0.304825E-04  0.642E-03    3.49       2.7  T
   5    -57.2380248 -0.125116E-05  0.194E-03    3.49       8.8  T
   6    -57.2380248 -0.368323E-07  0.115E-03    3.49      14.9  T
   7    -57.2380248 -0.116157E-07  0.310E-04    3.49      55.3  T
   8    -57.2380248 -0.883233E-09  0.105E-04    3.49     162.8  T
     SCC iter.                  ...        0 min,  0.011 sec
     gradient                   ...        0 min,  0.004 sec
 * total energy  :   -56.4781350 Eh     change       -0.7942921E-03 Eh
   gradient norm :     0.0205779 Eh/α   predicted    -0.1046193E-02 (  31.71%)
   displ. norm   :     0.0969920 α      lambda       -0.7111308E-03
   maximum displ.:     0.0379839 α      in ANC's #30, #4, #18, ...

........................................................................
.............................. CYCLE   10 ..............................
........................................................................

 iter      E             dE          RMSdq      gap      omega  full diag
   1    -57.2351662 -0.572352E+02  0.752E-02    3.48       0.0  T
   2    -57.2351747 -0.844025E-05  0.451E-02    3.48       1.0  T
   3    -57.2351708  0.384226E-05  0.162E-02    3.48       1.1  T
   4    -57.2351760 -0.517236E-05  0.393E-03    3.48       4.4  T
   5    -57.2351764 -0.439104E-06  0.117E-03    3.48      14.6  T
   6    -57.2351764 -0.316079E-08  0.632E-04    3.48      27.2  T
   7    -57.2351765 -0.695507E-08  0.166E-04    3.48     103.3  T
     SCC iter.                  ...        0 min,  0.007 sec
     gradient                   ...        0 min,  0.002 sec
 * total energy  :   -56.4784484 Eh     change       -0.3134273E-03 Eh
   gradient norm :     0.0158298 Eh/α   predicted    -0.3589144E-03 (  14.51%)
   displ. norm   :     0.0711603 α      lambda       -0.3707969E-03
   maximum displ.:     0.0325316 α      in ANC's #17, #21, #11, ...

........................................................................
.............................. CYCLE   11 ..............................
........................................................................

 iter      E             dE          RMSdq      gap      omega  full diag
   1    -57.2330184 -0.572330E+02  0.468E-02    3.49       0.0  T
   2    -57.2330227 -0.429606E-05  0.280E-02    3.48       1.0  T
   3    -57.2330220  0.653638E-06  0.927E-03    3.48       1.8  T
   4    -57.2330231 -0.106024E-05  0.251E-03    3.48       6.8  T
   5    -57.2330233 -0.175562E-06  0.846E-04    3.48      20.3  T
   6    -57.2330233 -0.351277E-08  0.486E-04    3.48      35.3  T
     SCC iter.                  ...        0 min,  0.009 sec
     gradient                   ...        0 min,  0.002 sec
 * total energy  :   -56.4786183 Eh     change       -0.1698877E-03 Eh
   gradient norm :     0.0107445 Eh/α   predicted    -0.1863365E-03 (   9.68%)
   displ. norm   :     0.0605192 α      lambda       -0.1827580E-03
   maximum displ.:     0.0221656 α      in ANC's #7, #8, #13, ...

........................................................................
.............................. CYCLE   12 ..............................
........................................................................

 iter      E             dE          RMSdq      gap      omega  full diag
   1    -57.2345109 -0.572345E+02  0.334E-02    3.49       0.0  T
   2    -57.2345124 -0.150970E-05  0.204E-02    3.49       1.0  T
   3    -57.2345115  0.939895E-06  0.716E-03    3.49       2.4  T
   4    -57.2345126 -0.114425E-05  0.217E-03    3.49       7.9  T
   5    -57.2345128 -0.127926E-06  0.503E-04    3.49      34.1  T
   6    -57.2345128 -0.211770E-09  0.305E-04    3.49      56.3  T
     SCC iter.                  ...        0 min,  0.009 sec
     gradient                   ...        0 min,  0.002 sec
 * total energy  :   -56.4787353 Eh     change       -0.1170483E-03 Eh
   gradient norm :     0.0071345 Eh/α   predicted    -0.9171515E-04 ( -21.64%)
   displ. norm   :     0.0892475 α      lambda       -0.1589246E-03
   maximum displ.:     0.0339465 α      in ANC's #8, #5, #10, ...

........................................................................
.............................. CYCLE   13 ..............................
........................................................................

 iter      E             dE          RMSdq      gap      omega  full diag
   1    -57.2360909 -0.572361E+02  0.434E-02    3.50       0.0  T
   2    -57.2360929 -0.196771E-05  0.259E-02    3.50       1.0  T
   3    -57.2360919  0.981877E-06  0.746E-03    3.50       2.3  T
   4    -57.2360932 -0.129151E-05  0.159E-03    3.50      10.8  T
   5    -57.2360933 -0.803830E-07  0.642E-04    3.50      26.7  T
   6    -57.2360933 -0.175165E-08  0.326E-04    3.50      52.6  T
     SCC iter.                  ...        0 min,  0.006 sec
     gradient                   ...        0 min,  0.002 sec
 * total energy  :   -56.4787866 Eh     change       -0.5125705E-04 Eh
   gradient norm :     0.0058674 Eh/α   predicted    -0.8009846E-04 (  56.27%)
   displ. norm   :     0.0729836 α      lambda       -0.1113307E-03
   maximum displ.:     0.0316336 α      in ANC's #5, #8, #4, ...

........................................................................
.............................. CYCLE   14 ..............................
........................................................................

 iter      E             dE          RMSdq      gap      omega  full diag
   1    -57.2360347 -0.572360E+02  0.439E-02    3.51       0.0  T
   2    -57.2360353 -0.520689E-06  0.261E-02    3.51       1.0  T
   3    -57.2360343  0.975386E-06  0.615E-03    3.51       2.8  T
   4    -57.2360355 -0.117929E-05  0.919E-04    3.51      18.7  T
   5    -57.2360355 -0.105942E-07  0.444E-04    3.51      38.6  T
   6    -57.2360355 -0.119556E-08  0.194E-04    3.51      88.6  T
     SCC iter.                  ...        0 min,  0.006 sec
     gradient                   ...        0 min,  0.002 sec
 * total energy  :   -56.4788268 Eh     change       -0.4016478E-04 Eh
   gradient norm :     0.0041642 Eh/α   predicted    -0.5596292E-04 (  39.33%)
   displ. norm   :     0.0471043 α      lambda       -0.5991249E-04
   maximum displ.:     0.0274167 α      in ANC's #5, #10, #3, ...

........................................................................
.............................. CYCLE   15 ..............................
........................................................................

 iter      E             dE          RMSdq      gap      omega  full diag
   1    -57.2361517 -0.572362E+02  0.251E-02    3.51       0.0  T
   2    -57.2361521 -0.377666E-06  0.148E-02    3.51       1.2  T
   3    -57.2361519  0.109415E-06  0.277E-03    3.51       6.2  T
   4    -57.2361521 -0.170421E-06  0.589E-04    3.51      29.1  T
   5    -57.2361521 -0.405671E-08  0.293E-04    3.51      58.5  T
     SCC iter.                  ...        0 min,  0.009 sec
     gradient                   ...        0 min,  0.002 sec
 * total energy  :   -56.4788596 Eh     change       -0.3281697E-04 Eh
   gradient norm :     0.0032700 Eh/α   predicted    -0.3002367E-04 (  -8.51%)
   displ. norm   :     0.0558826 α      lambda       -0.3512256E-04
   maximum displ.:     0.0411466 α      in ANC's #5, #3, #4, ...

........................................................................
.............................. CYCLE   16 ..............................
........................................................................

 iter      E             dE          RMSdq      gap      omega  full diag
   1    -57.2357358 -0.572357E+02  0.154E-02    3.50       0.0  T
   2    -57.2357360 -0.214191E-06  0.918E-03    3.50       1.9  T
   3    -57.2357358  0.244799E-06  0.353E-03    3.50       4.9  T
   4    -57.2357361 -0.309652E-06  0.599E-04    3.51      28.6  T
   5    -57.2357361 -0.776106E-08  0.217E-04    3.51      79.1  T
     SCC iter.                  ...        0 min,  0.005 sec
     gradient                   ...        0 min,  0.003 sec
 * total energy  :   -56.4788837 Eh     change       -0.2412282E-04 Eh
   gradient norm :     0.0020273 Eh/α   predicted    -0.1761590E-04 ( -26.97%)
   displ. norm   :     0.0907697 α      lambda       -0.3276249E-04
   maximum displ.:     0.0621202 α      in ANC's #5, #3, #4, ...

........................................................................
.............................. CYCLE   17 ..............................
........................................................................

 iter      E             dE          RMSdq      gap      omega  full diag
   1    -57.2359920 -0.572360E+02  0.227E-02    3.51       0.0  T
   2    -57.2359922 -0.109172E-06  0.134E-02    3.51       1.3  T
   3    -57.2359920  0.174875E-06  0.243E-03    3.51       7.0  T
   4    -57.2359922 -0.221182E-06  0.587E-04    3.51      29.2  T
   5    -57.2359922 -0.358622E-08  0.324E-04    3.51      52.9  T
     SCC iter.                  ...        0 min,  0.005 sec
     gradient                   ...        0 min,  0.002 sec
 * total energy  :   -56.4789052 Eh     change       -0.2146799E-04 Eh
   gradient norm :     0.0020040 Eh/α   predicted    -0.1651819E-04 ( -23.06%)
   displ. norm   :     0.0905456 α      lambda       -0.2220257E-04
   maximum displ.:     0.0615467 α      in ANC's #5, #3, #4, ...

........................................................................
.............................. CYCLE   18 ..............................
........................................................................

 iter      E             dE          RMSdq      gap      omega  full diag
   1    -57.2360795 -0.572361E+02  0.213E-02    3.51       0.0  T
   2    -57.2360796 -0.157773E-06  0.126E-02    3.51       1.4  T
   3    -57.2360796  0.649228E-07  0.199E-03    3.51       8.6  T
   4    -57.2360797 -0.103942E-06  0.505E-04    3.51      33.9  T
   5    -57.2360797 -0.237322E-08  0.297E-04    3.51      57.8  T
     SCC iter.                  ...        0 min,  0.010 sec
     gradient                   ...        0 min,  0.002 sec
 * total energy  :   -56.4789200 Eh     change       -0.1481071E-04 Eh
   gradient norm :     0.0023323 Eh/α   predicted    -0.1119367E-04 ( -24.42%)
   displ. norm   :     0.0835572 α      lambda       -0.1851335E-04
   maximum displ.:     0.0565181 α      in ANC's #5, #3, #4, ...

........................................................................
.............................. CYCLE   19 ..............................
........................................................................

 iter      E             dE          RMSdq      gap      omega  full diag
   1    -57.2361141 -0.572361E+02  0.197E-02    3.51       0.0  T
   2    -57.2361142 -0.882274E-07  0.116E-02    3.51       1.5  T
   3    -57.2361141  0.112693E-06  0.210E-03    3.51       8.2  T
   4    -57.2361142 -0.147836E-06  0.543E-04    3.51      31.6  T
   5    -57.2361142 -0.233440E-08  0.274E-04    3.51      62.6  T
     SCC iter.                  ...        0 min,  0.005 sec
     gradient                   ...        0 min,  0.002 sec
 * total energy  :   -56.4789335 Eh     change       -0.1349202E-04 Eh
   gradient norm :     0.0024025 Eh/α   predicted    -0.9323774E-05 ( -30.89%)
   displ. norm   :     0.1021004 α      lambda       -0.2099793E-04
   maximum displ.:     0.0660143 α      in ANC's #5, #3, #4, ...

........................................................................
.............................. CYCLE   20 ..............................
........................................................................

 iter      E             dE          RMSdq      gap      omega  full diag
   1    -57.2362434 -0.572362E+02  0.222E-02    3.52       0.0  T
   2    -57.2362436 -0.229456E-06  0.131E-02    3.52       1.3  T
   3    -57.2362433  0.338470E-06  0.350E-03    3.52       4.9  T
   4    -57.2362437 -0.406576E-06  0.840E-04    3.52      20.4  T
   5    -57.2362437 -0.147231E-07  0.359E-04    3.52      47.8  T
     SCC iter.                  ...        0 min,  0.005 sec
     gradient                   ...        0 min,  0.002 sec
 * total energy  :   -56.4789467 Eh     change       -0.1323123E-04 Eh
   gradient norm :     0.0023271 Eh/α   predicted    -0.1061083E-04 ( -19.80%)
   displ. norm   :     0.0572000 α      lambda       -0.1031454E-04
   maximum displ.:     0.0333892 α      in ANC's #5, #3, #4, ...
 * RMSD in coord.:     0.3593781 α      energy gain  -0.9099408E+00 Eh

generating ANC from exact Hessian ...
Using Lindh-Hessian (1995)
 Shifting diagonal of input Hessian by    9.5950830857062883E-003
 Lowest  eigenvalues of input Hessian
    0.000000    0.000000    0.000000    0.000000    0.000000    0.000000
    0.010000    0.010331    0.010610    0.011818    0.012228    0.014284
    0.016886    0.018921    0.019573    0.021961    0.023599    0.024694
 Highest eigenvalues
    2.000567    2.006235    2.096669    2.203420    2.284969    2.369038


........................................................................
.............................. CYCLE   21 ..............................
........................................................................

 iter      E             dE          RMSdq      gap      omega  full diag
   1    -57.2359522 -0.572360E+02  0.128E-02    3.51       0.0  T
   2    -57.2359523 -0.883326E-07  0.747E-03    3.51       2.3  T
   3    -57.2359522  0.336274E-07  0.138E-03    3.51      12.5  T
   4    -57.2359523 -0.503601E-07  0.366E-04    3.51      46.8  T
   5    -57.2359523 -0.216954E-08  0.187E-04    3.51      91.7  T
     SCC iter.                  ...        0 min,  0.006 sec
     gradient                   ...        0 min,  0.001 sec
 * total energy  :   -56.4789528 Eh     change       -0.6072855E-05 Eh
   gradient norm :     0.0015683 Eh/α   predicted     0.0000000E+00 (-100.00%)
   displ. norm   :     0.0142856 α      lambda       -0.5324077E-05
   maximum displ.:     0.0066479 α      in ANC's #2, #9, #1, ...

........................................................................
.............................. CYCLE   22 ..............................
........................................................................

 iter      E             dE          RMSdq      gap      omega  full diag
   1    -57.2360986 -0.572361E+02  0.789E-03    3.51       0.0  T
   2    -57.2360987 -0.386837E-07  0.462E-03    3.51       3.7  T
   3    -57.2360987  0.289679E-07  0.119E-03    3.51      14.4  T
   4    -57.2360987 -0.360581E-07  0.318E-04    3.51      53.9  T
   5    -57.2360987 -0.234664E-08  0.128E-04    3.51     134.4  T
     SCC iter.                  ...        0 min,  0.010 sec
     gradient                   ...        0 min,  0.002 sec
 * total energy  :   -56.4789567 Eh     change       -0.3897378E-05 Eh
   gradient norm :     0.0006423 Eh/α   predicted    -0.2754100E-05 ( -29.33%)
   displ. norm   :     0.0146218 α      lambda       -0.2382468E-05
   maximum displ.:     0.0084564 α      in ANC's #2, #9, #1, ...

   *** GEOMETRY OPTIMIZATION CONVERGED AFTER 22 ITERATIONS ***

------------------------------------------------------------------------
 total energy gain   :        -0.9099508 Eh     -571.0027 kcal/mol
 total RMSD          :         0.3595299 a0        0.1903 Å
 total power (kW/mol):      -108.5943354 (step)-7747.8239 (real)
------------------------------------------------------------------------

 ANCopt (total)                0 d,  0 h,  0 min,  0.308 sec
 optimizer setup                ...        0 min,  0.000 sec (  0.013%)
 model hessian                  ...        0 min,  0.017 sec (  5.466%)
 ANC generation                 ...        0 min,  0.002 sec (  0.521%)
 coordinate transformation      ...        0 min,  0.000 sec (  0.041%)
 single point calculation       ...        0 min,  0.278 sec ( 90.241%)
 optimization log               ...        0 min,  0.002 sec (  0.529%)
 hessian update                 ...        0 min,  0.003 sec (  0.959%)
 rational function              ...        0 min,  0.003 sec (  0.896%)

================
 final structure:
================
34
 xtb: 6.7.1-6.fc44.fc44
O           -3.35400573330402        2.38185101113279       -0.07325679886686
C           -2.14241314570592        2.89923355159809       -0.07162161321742
O           -1.90956298307812        4.03483229392676        0.23186359403796
H           -3.34992537423085        1.41634787115315       -0.33023511308502
C           -1.02458503197520        1.93532370976382       -0.52808511267644
H           -0.07297997514229        2.46368261276367       -0.49133308732859
H           -1.24525894479704        1.65012276039176       -1.56531838510281
N           -0.92855286485639        0.73492746706025        0.28600474893364
H           -0.06656944563818        0.58851982518163        0.78902030616148
C           -1.80013320758399       -0.28237135474018        0.18691633578887
O           -2.86020793836907       -0.18181352515097       -0.42376143863994
C           -1.38729715711494       -1.57644539558886        0.88275415494369
H           -0.82199467453565       -1.33041778649955        1.78752363744032
N           -2.51632599833959       -2.40043216051463        1.25768005231568
H           -3.11571038422101       -2.53598209151242        0.44846860452709
H           -3.07430016896627       -1.93986004064906        1.96888817603439
C           -0.48309511082118       -2.37547360286912       -0.08641040612437
H           -1.09950894685135       -2.72833652650660       -0.91504080572657
H           -0.11089662729826       -3.24595939748075        0.45618359148603
C            0.64408503408395       -1.55760007418064       -0.61801309055567
C            0.80440385990079       -1.12024105129773       -1.90059090951261
H            0.19482018390603       -1.31832725290910       -2.76146553581378
N            1.92195284779666       -0.33632925488171       -1.99946329494683
H            2.27067184850514        0.07970392201576       -2.84577453343957
C            2.51294589326619       -0.25031005250027       -0.77263125597742
C            3.65247201543798        0.43171969521935       -0.36376098456237
H            4.23743378039106        1.00887318841684       -1.06428646197413
C            4.00818766149348        0.34112593703068        0.96418023183437
H            4.88734608180922        0.85887140130407        1.31663337490651
C            3.25577935099117       -0.41453213565752        1.86869778322600
H            3.57533289532279       -0.46547237971384        2.89872461549924
C            2.12625117746279       -1.09287752770396        1.47093616709574
H            1.56030552777642       -1.68568189696413        2.17430037538873
C            1.73387939264194       -1.01179114094146        0.13301993908890

 Bond Distances (Angstroems)
 ---------------------------
O1-C2=1.3174         O1-H4=0.9991         C2-O1=1.3174         C2-O3=1.1983         C2-C5=1.5450         O3-C2=1.1983         
H4-O1=0.9991         C5-C2=1.5450         C5-H6=1.0891         C5-H7=1.0981         C5-N8=1.4536         H6-C5=1.0891         
H7-C5=1.0981         N8-C5=1.4536         N8-H9=1.0087         N8-C10=1.3433        H9-N8=1.0087         C10-N8=1.3433        
C10-O11=1.2275       C10-C12=1.5262       O11-C10=1.2275       C12-C10=1.5262       C12-H13=1.0949       C12-N14=1.4471       
C12-C17=1.5477       H13-C12=1.0949       N14-C12=1.4471       N14-H15=1.0161       N14-H16=1.0145       H15-N14=1.0161       
H16-N14=1.0145       C17-C12=1.5477       C17-H18=1.0914       C17-H19=1.0912       C17-C20=1.4907       H18-C17=1.0914       
H19-C17=1.0912       C20-C17=1.4907       C20-C21=1.3645       C20-C34=1.4316       C21-C20=1.3645       C21-H22=1.0733       
C21-N23=1.3687       H22-C21=1.0733       N23-C21=1.3687       N23-H24=1.0055       N23-C25=1.3645       H24-N23=1.0055       
C25-N23=1.3645       C25-C26=1.3896       C25-C34=1.4167       C26-C25=1.3896       C26-H27=1.0798       C26-C28=1.3777       
H27-C26=1.0798       C28-C26=1.3777       C28-H29=1.0794       C28-C30=1.3983       H29-C28=1.0794       C30-C28=1.3983       
C30-H31=1.0797       C30-C32=1.3763       H31-C30=1.0797       C32-C30=1.3763       C32-H33=1.0800       C32-C34=1.3966       
H33-C32=1.0800       C34-C20=1.4316       C34-C25=1.4167       C34-C32=1.3966       
 C  H  Rav=1.0857 sigma=0.0078  Rmin=1.0733  Rmax=1.0981    10
 C  C  Rav=1.4384 sigma=0.0665  Rmin=1.3645  Rmax=1.5477    12
 N  H  Rav=1.0112 sigma=0.0043  Rmin=1.0055  Rmax=1.0161     4
 N  C  Rav=1.3954 sigma=0.0457  Rmin=1.3433  Rmax=1.4536     5
 O  H  Rav=0.9991 sigma=0.0000  Rmin=0.9991  Rmax=0.9991     1
 O  C  Rav=1.2477 sigma=0.0507  Rmin=1.1983  Rmax=1.3174     3

 selected bond angles (degree)
 --------------------
H4-O1-C2=112.09                O3-C2-O1=123.45                C5-C2-O1=114.83                C5-C2-O3=121.70                
H6-C5-C2=108.64                H7-C5-C2=107.20                H7-C5-H6=109.48                N8-C5-C2=113.43                
N8-C5-H6=108.91                N8-C5-H7=109.14                H9-N8-C5=117.10                C10-N8-C5=122.77               
C10-N8-H9=118.77               O11-C10-N8=122.34              C12-C10-N8=115.66              C12-C10-O11=122.00             

 selected dihedral angles (degree)
 ---------------------------------
O3-C2-O1-H4=181.54            C5-C2-O1-H4=  2.95            H6-C5-C2-O1=179.83            H6-C5-C2-O3=  1.21            
H7-C5-C2-O1= 61.61            H7-C5-C2-O3=243.00            N8-C5-C2-O1=301.08            N8-C5-C2-O3=122.46            
H9-N8-C5-C2=242.25            H9-N8-C5-H6=  3.34            H9-N8-C5-H7=122.81            C10-N8-C5-C2= 75.72           
C10-N8-C5-H6=196.82           C10-N8-C5-H7=316.28           O11-C10-N8-C5=347.25          O11-C10-N8-H9=180.93          
C12-C10-N8-C5=167.19          C12-C10-N8-H9=  0.87          
           -------------------------------------------------
          |                Final Singlepoint                |
           -------------------------------------------------

          ...................................................
          :                      SETUP                      :
          :.................................................:
          :  # basis functions                  91          :
          :  # atomic orbitals                  91          :
          :  # shells                           53          :
          :  # electrons                       100          :
          :  max. iterations                   250          :
          :  Hamiltonian                  GFN2-xTB          :
          :  restarted?                      false          :
          :  GBSA solvation                  false          :
          :  PC potential                    false          :
          :  electronic temp.          300.0000000     K    :
          :  accuracy                    1.0000000          :
          :  -> integral cutoff          0.2500000E+02      :
          :  -> integral neglect         0.1000000E-07      :
          :  -> SCF convergence          0.1000000E-05 Eh   :
          :  -> wf. convergence          0.1000000E-03 e    :
          :  Broyden damping             0.4000000          :
          :  net charge                          0          :
          :  unpaired electrons                  0          :
          ...................................................

 iter      E             dE          RMSdq      gap      omega  full diag
   1    -57.2360987 -0.572361E+02  0.514E-05    3.51       0.0  T
   2    -57.2360987 -0.152269E-10  0.318E-05    3.51     539.1  T
   3    -57.2360987 -0.144738E-10  0.189E-05    3.51     907.2  T

   *** convergence criteria satisfied after 3 iterations ***

         #    Occupation            Energy/Eh            Energy/eV
      -------------------------------------------------------------
         1        2.0000           -0.7389627             -20.1082
       ...           ...                  ...                  ...
        44        2.0000           -0.4332730             -11.7900
        45        2.0000           -0.4308078             -11.7229
        46        2.0000           -0.4294716             -11.6865
        47        2.0000           -0.4082816             -11.1099
        48        2.0000           -0.3988789             -10.8540
        49        2.0000           -0.3846343             -10.4664
        50        2.0000           -0.3777382             -10.2788 (HOMO)
        51                         -0.2486104              -6.7650 (LUMO)
        52                         -0.2410075              -6.5581
        53                         -0.2344053              -6.3785
        54                         -0.2141641              -5.8277
        55                         -0.1757863              -4.7834
       ...                                ...                  ...
        91                          0.6992361              19.0272
      -------------------------------------------------------------
                  HL-Gap            0.1291278 Eh            3.5137 eV
             Fermi-level           -0.3131743 Eh           -8.5219 eV

 SCC (total)                   0 d,  0 h,  0 min,  0.010 sec
 SCC setup                      ...        0 min,  0.000 sec (  1.740%)
 Dispersion                     ...        0 min,  0.000 sec (  1.080%)
 classical contributions        ...        0 min,  0.000 sec (  0.134%)
 integral evaluation            ...        0 min,  0.001 sec (  5.448%)
 iterations                     ...        0 min,  0.007 sec ( 68.793%)
 molecular gradient             ...        0 min,  0.002 sec ( 19.835%)
 printout                       ...        0 min,  0.000 sec (  2.907%)

         :::::::::::::::::::::::::::::::::::::::::::::::::::::
         ::                     SUMMARY                     ::
         :::::::::::::::::::::::::::::::::::::::::::::::::::::
         :: total energy             -56.478956675784 Eh    ::
         :: gradient norm              0.000642889040 Eh/a0 ::
         :: HOMO-LUMO gap              3.513746407259 eV    ::
         ::.................................................::
         :: SCC energy               -57.235401587845 Eh    ::
         :: -> isotropic ES            0.096990525461 Eh    ::
         :: -> anisotropic ES          0.005713991810 Eh    ::
         :: -> anisotropic XC          0.019658580534 Eh    ::
         :: -> dispersion             -0.036638990689 Eh    ::
         :: repulsion energy           0.756444912061 Eh    ::
         :: add. restraining           0.000000000000 Eh    ::
         :: total charge               0.000000000000 e     ::
         :::::::::::::::::::::::::::::::::::::::::::::::::::::

           -------------------------------------------------
          |                Property Printout                |
           -------------------------------------------------

    * Orbital Energies and Occupations

         #    Occupation            Energy/Eh            Energy/eV
      -------------------------------------------------------------
         1        2.0000           -0.7389627             -20.1082
       ...           ...                  ...                  ...
        38        2.0000           -0.4711329             -12.8202
        39        2.0000           -0.4688356             -12.7577
        40        2.0000           -0.4676137             -12.7244
        41        2.0000           -0.4605938             -12.5334
        42        2.0000           -0.4516417             -12.2898
        43        2.0000           -0.4421061             -12.0303
        44        2.0000           -0.4332730             -11.7900
        45        2.0000           -0.4308078             -11.7229
        46        2.0000           -0.4294716             -11.6865
        47        2.0000           -0.4082816             -11.1099
        48        2.0000           -0.3988789             -10.8540
        49        2.0000           -0.3846343             -10.4664
        50        2.0000           -0.3777382             -10.2788 (HOMO)
        51                         -0.2486104              -6.7650 (LUMO)
        52                         -0.2410075              -6.5581
        53                         -0.2344053              -6.3785
        54                         -0.2141641              -5.8277
        55                         -0.1757863              -4.7834
        56                         -0.0888889              -2.4188
        57                         -0.0245737              -0.6687
        58                          0.0027617               0.0752
        59                          0.0403479               1.0979
        60                          0.0558320               1.5193
        61                          0.0773412               2.1046
       ...                                ...                  ...
        91                          0.6992361              19.0272
      -------------------------------------------------------------
                  HL-Gap            0.1291278 Eh            3.5137 eV
             Fermi-level           -0.3131743 Eh           -8.5219 eV

     #   Z          covCN         q      C6AA      α(0)
     1   8 O        1.655    -0.375    20.364     6.092
     2   6 C        2.684     0.359    20.914     7.484
     3   8 O        0.856    -0.377    21.222     6.176
     4   1 H        0.800     0.364     0.557     1.172
     5   6 C        3.737    -0.035    21.283     6.583
     6   1 H        0.925     0.073     2.049     2.238
     7   1 H        0.923     0.070     2.081     2.256
     8   7 N        2.685    -0.175    24.784     7.394
     9   1 H        0.860     0.187     1.176     1.699
    10   6 C        2.755     0.259    22.637     7.791
    11   8 O        0.859    -0.455    22.813     6.404
    12   6 C        3.786     0.034    20.021     6.373
    13   1 H        0.924     0.041     2.435     2.440
    14   7 N        2.632    -0.334    28.608     7.944
    15   1 H        0.860     0.160     1.333     1.809
    16   1 H        0.860     0.145     1.433     1.875
    17   6 C        3.809    -0.066    21.756     6.640
    18   1 H        0.924     0.051     2.310     2.377
    19   1 H        0.924     0.065     2.145     2.290
    20   6 C        3.053    -0.038    28.901     8.817
    21   6 C        3.034    -0.008    28.193     8.709
    22   1 H        0.926     0.034     2.529     2.487
    23   7 N        2.777    -0.105    23.296     7.169
    24   1 H        0.860     0.161     1.326     1.804
    25   6 C        3.085     0.043    26.951     8.510
    26   6 C        2.908    -0.053    29.313     8.878
    27   1 H        0.926     0.027     2.624     2.533
    28   6 C        2.924    -0.035    28.878     8.813
    29   1 H        0.926     0.033     2.546     2.495
    30   6 C        2.919    -0.041    29.027     8.835
    31   1 H        0.926     0.031     2.575     2.509
    32   6 C        2.911    -0.042    29.048     8.838
    33   1 H        0.926     0.029     2.604     2.523
    34   6 C        3.117    -0.026    28.489     8.743

 Mol. C6AA /au·bohr⁶  :      13323.519259
 Mol. C8AA /au·bohr⁸  :     312305.951571
 Mol. α(0) /au        :        178.700099


Wiberg/Mayer (AO) data.
largest (>0.10) Wiberg bond orders for each atom

 ---------------------------------------------------------------------------
     #   Z sym  total        # sym  WBO       # sym  WBO       # sym  WBO
 ---------------------------------------------------------------------------
     1   8 O    2.233 --     2 C    1.201     4 H    0.768     3 O    0.183
     2   6 C    3.932 --     3 O    1.774     1 O    1.201     5 C    0.926
     3   8 O    2.066 --     2 C    1.774     1 O    0.183
     4   1 H    0.867 --     1 O    0.768
     5   6 C    3.964 --     8 N    0.986     6 H    0.975     7 H    0.953
                             2 C    0.926
     6   1 H    0.994 --     5 C    0.975
     7   1 H    0.995 --     5 C    0.953
     8   7 N    3.458 --    10 C    1.286     5 C    0.986     9 H    0.929
                            11 O    0.186
     9   1 H    0.965 --     8 N    0.929
    10   6 C    3.937 --    11 O    1.615     8 N    1.286    12 C    0.944
    11   8 O    2.019 --    10 C    1.615     8 N    0.186
    12   6 C    3.988 --    14 N    1.031    13 H    0.957    17 C    0.950
                            10 C    0.944
    13   1 H    0.998 --    12 C    0.957
    14   7 N    3.017 --    12 C    1.031    16 H    0.963    15 H    0.956
    15   1 H    0.974 --    14 N    0.956
    16   1 H    0.978 --    14 N    0.963
    17   6 C    3.991 --    20 C    1.020    18 H    0.973    19 H    0.962
                            12 C    0.950
    18   1 H    0.997 --    17 C    0.973
    19   1 H    0.995 --    17 C    0.962
    20   6 C    3.976 --    21 C    1.583    34 C    1.198    17 C    1.020
    21   6 C    3.950 --    20 C    1.583    23 N    1.195    22 H    0.969
    22   1 H    0.998 --    21 C    0.969
    23   7 N    3.544 --    21 C    1.195    25 C    1.177    24 H    0.946
    24   1 H    0.973 --    23 N    0.946
    25   6 C    3.959 --    26 C    1.337    34 C    1.247    23 N    1.177
    26   6 C    3.989 --    28 C    1.496    25 C    1.337    27 H    0.968
                            32 C    0.114
    27   1 H    0.999 --    26 C    0.968
    28   6 C    3.991 --    26 C    1.496    30 C    1.370    29 H    0.972
    29   1 H    0.999 --    28 C    0.972
    30   6 C    3.991 --    32 C    1.506    28 C    1.370    31 H    0.972
    31   1 H    0.999 --    30 C    0.972
    32   6 C    3.992 --    30 C    1.506    34 C    1.327    33 H    0.968
                            26 C    0.114
    33   1 H    0.999 --    32 C    0.968
    34   6 C    3.984 --    32 C    1.327    25 C    1.247    20 C    1.198
 ---------------------------------------------------------------------------

Topologies differ in total number of bonds
Writing topology from bond orders to xtbtopo.mol

molecular dipole:
                 x           y           z       tot (Debye)
 q only:        1.460      -1.346      -0.556
   full:        1.736      -1.338      -0.901       6.024
molecular quadrupole (traceless):
                xx          xy          yy          xz          yz          zz
 q only:       -1.997      13.359     -13.440      -3.827      -3.692      15.437
  q+dip:       -0.610      18.054     -23.543      -3.593      -3.769      24.153
   full:       -0.738      16.358     -22.479      -4.688      -3.144      23.217

           -------------------------------------------------
          |                Geometry Summary                 |
           -------------------------------------------------

      molecular mass/u    :      261.2770023
   center of mass at/Å    :       -0.0175084       0.0594753       0.0201014
  moments of inertia/u·Å² :        0.9803367E+03   0.1788659E+04   0.2225551E+04
rotational constants/cm⁻¹ :        0.1719576E-01   0.9424733E-02   0.7574587E-02

 * 32 selected distances

     #   Z          #   Z                                           value/Å
     1   8 O        2   6 C                                       1.3174385
     2   6 C        3   8 O                                       1.1982935
     1   8 O        4   1 H                                       0.9991251 (min)
     5   6 C        6   1 H                                       1.0890667
     5   6 C        7   1 H                                       1.0981301
     5   6 C        8   7 N                                       1.4535873
     8   7 N        9   1 H                                       1.0086999
     8   7 N       10   6 C                                       1.3432677
    10   6 C       11   8 O                                       1.2275170
    12   6 C       13   1 H                                       1.0948537
    12   6 C       14   7 N                                       1.4471455
    14   7 N       15   1 H                                       1.0160998
    14   7 N       16   1 H                                       1.0145339
    17   6 C       18   1 H                                       1.0913784
    17   6 C       19   1 H                                       1.0911855
    17   6 C       20   6 C                                       1.4906556 (max)
    20   6 C       21   6 C                                       1.3645480
    21   6 C       22   1 H                                       1.0732827
    21   6 C       23   7 N                                       1.3686525
    23   7 N       24   1 H                                       1.0054509
    23   7 N       25   6 C                                       1.3644740
    25   6 C       26   6 C                                       1.3895537
    26   6 C       27   1 H                                       1.0798253
    26   6 C       28   6 C                                       1.3777406
    28   6 C       29   1 H                                       1.0794458
    28   6 C       30   6 C                                       1.3983168
    30   6 C       31   1 H                                       1.0796596
    30   6 C       32   6 C                                       1.3762998
    32   6 C       33   1 H                                       1.0800152
    20   6 C       34   6 C                                       1.4316460
    25   6 C       34   6 C                                       1.4166872
    32   6 C       34   6 C                                       1.3966212

 * 6 distinct bonds (by element types)

   Z      Z             #   av. dist./Å        max./Å        min./Å
   1 H    6 C          10     1.0856843     1.0981301     1.0732827
   6 C    6 C           9     1.4046743     1.4906556     1.3645480
   1 H    7 N           4     1.0111961     1.0160998     1.0054509
   6 C    7 N           5     1.3954254     1.4535873     1.3432677
   1 H    8 O           1     0.9991251     0.9991251     0.9991251
   6 C    8 O           3     1.2477497     1.3174385     1.1982935


optimized geometry written to: xtbopt.xyz


           -------------------------------------------------
          | TOTAL ENERGY              -56.478956675784 Eh   |
          | GRADIENT NORM               0.000642889040 Eh/α |
          | HOMO-LUMO GAP               3.513746407259 eV   |
           -------------------------------------------------

------------------------------------------------------------------------
 * finished run on 2026/10/01 at 18:05:29.237     
------------------------------------------------------------------------
 total:
 * wall-time:     0 d,  0 h,  0 min,  0.411 sec
 *  cpu-time:     0 d,  0 h,  0 min,  6.211 sec
 * ratio c/w:    15.112 speedup
 SCF:
 * wall-time:     0 d,  0 h,  0 min,  0.058 sec
 *  cpu-time:     0 d,  0 h,  0 min,  0.871 sec
 * ratio c/w:    15.046 speedup
 ANC optimizer:
 * wall-time:     0 d,  0 h,  0 min,  0.320 sec
 *  cpu-time:     0 d,  0 h,  0 min,  4.884 sec
 * ratio c/w:    15.283 speedup


--- STDERR ---
normal termination of xtb
Note: The following floating-point exceptions are signalling: IEEE_UNDERFLOW_FLAG IEEE_DENORMAL
