34
 energy: -56.478956675784 gnorm: 0.000642889040 xtb: 6.7.1-6.fc44.fc44
O           -3.35400573330402        2.38185101113279       -0.07325679886686
C           -2.14241314570592        2.89923355159809       -0.07162161321742
O           -1.90956298307812        4.03483229392676        0.23186359403796
H           -3.34992537423085        1.41634787115315       -0.33023511308502
C           -1.02458503197520        1.93532370976382       -0.52808511267644
H           -0.07297997514229        2.46368261276367       -0.49133308732859
H           -1.24525894479704        1.65012276039176       -1.56531838510281
N           -0.92855286485639        0.73492746706025        0.28600474893364
H           -0.06656944563818        0.58851982518163        0.78902030616148
C           -1.80013320758399       -0.28237135474018        0.18691633578887
O           -2.86020793836907       -0.18181352515097       -0.42376143863994
C           -1.38729715711494       -1.57644539558886        0.88275415494369
H           -0.82199467453565       -1.33041778649955        1.78752363744032
N           -2.51632599833959       -2.40043216051463        1.25768005231568
H           -3.11571038422101       -2.53598209151242        0.44846860452709
H           -3.07430016896627       -1.93986004064906        1.96888817603439
C           -0.48309511082118       -2.37547360286912       -0.08641040612437
H           -1.09950894685135       -2.72833652650660       -0.91504080572657
H           -0.11089662729826       -3.24595939748075        0.45618359148603
C            0.64408503408395       -1.55760007418064       -0.61801309055567
C            0.80440385990079       -1.12024105129773       -1.90059090951261
H            0.19482018390603       -1.31832725290910       -2.76146553581378
N            1.92195284779666       -0.33632925488171       -1.99946329494683
H            2.27067184850514        0.07970392201576       -2.84577453343957
C            2.51294589326619       -0.25031005250027       -0.77263125597742
C            3.65247201543798        0.43171969521935       -0.36376098456237
H            4.23743378039106        1.00887318841684       -1.06428646197413
C            4.00818766149348        0.34112593703068        0.96418023183437
H            4.88734608180922        0.85887140130407        1.31663337490651
C            3.25577935099117       -0.41453213565752        1.86869778322600
H            3.57533289532279       -0.46547237971384        2.89872461549924
C            2.12625117746279       -1.09287752770396        1.47093616709574
H            1.56030552777642       -1.68568189696413        2.17430037538873
C            1.73387939264194       -1.01179114094146        0.13301993908890
