      -----------------------------------------------------------      
     |                   =====================                   |     
     |                           x T B                           |     
     |                   =====================                   |     
     |                         S. Grimme                         |     
     |          Mulliken Center for Theoretical Chemistry        |     
     |                    University of Bonn                     |     
      -----------------------------------------------------------      

   * xtb version 6.7.1-6.fc44.fc44 compiled by Fedora project on Sun Jan 18 23:32:34 UTC 2026

   xtb is free software: you can redistribute it and/or modify it under
   the terms of the GNU Lesser General Public License as published by
   the Free Software Foundation, either version 3 of the License, or
   (at your option) any later version.
   
   xtb is distributed in the hope that it will be useful,
   but WITHOUT ANY WARRANTY; without even the implied warranty of
   MERCHANTABILITY or FITNESS FOR A PARTICULAR PURPOSE.  See the
   GNU Lesser General Public License for more details.
   
   Cite this work as:
   * C. Bannwarth, E. Caldeweyher, S. Ehlert, A. Hansen, P. Pracht,
     J. Seibert, S. Spicher, S. Grimme, WIREs Comput. Mol. Sci., 2020, 11,
     e01493. DOI: 10.1002/wcms.1493
   
   for GFN2-xTB:
   * C. Bannwarth, S. Ehlert and S. Grimme., J. Chem. Theory Comput., 2019,
     15, 1652-1671. DOI: 10.1021/acs.jctc.8b01176
   for GFN1-xTB:
   * S. Grimme, C. Bannwarth, P. Shushkov, J. Chem. Theory Comput., 2017,
     13, 1989-2009. DOI: 10.1021/acs.jctc.7b00118
   for GFN0-xTB:
   * P. Pracht, E. Caldeweyher, S. Ehlert, S. Grimme, ChemRxiv, 2019, preprint.
     DOI: 10.26434/chemrxiv.8326202.v1
   for GFN-FF:
   * S. Spicher and S. Grimme, Angew. Chem. Int. Ed., 2020, 59, 15665-15673.
     DOI: 10.1002/anie.202004239
   
   for ALPB and GBSA implicit solvation:
   * S. Ehlert, M. Stahn, S. Spicher, S. Grimme, J. Chem. Theory Comput.,
     2021, 17, 4250-4261. DOI: 10.1021/acs.jctc.1c00471
   
   for ddCOSMO and CPCM-X implicit solvation:
   * M. Stahn, S. Ehlert, S. Grimme, J. Phys. Chem. A,
     2023, XX, XXXX-XXXX. DOI: 10.1021/acs.jpca.3c04382
   
   for DFT-D4:
   * E. Caldeweyher, C. Bannwarth and S. Grimme, J. Chem. Phys., 2017,
     147, 034112. DOI: 10.1063/1.4993215
   * E. Caldeweyher, S. Ehlert, A. Hansen, H. Neugebauer, S. Spicher,
     C. Bannwarth and S. Grimme, J. Chem. Phys., 2019, 150, 154122.
     DOI: 10.1063/1.5090222
   * E. Caldeweyher, J.-M. Mewes, S. Ehlert and S. Grimme, Phys. Chem. Chem. Phys.
     2020, 22, 8499-8512. DOI: 10.1039/D0CP00502A
   
   for sTDA-xTB:
   * S. Grimme and C. Bannwarth, J. Chem. Phys., 2016, 145, 054103.
     DOI: 10.1063/1.4959605
   
   in the mass-spec context:
   * V. Asgeirsson, C. Bauer and S. Grimme, Chem. Sci., 2017, 8, 4879.
     DOI: 10.1039/c7sc00601b
   * J. Koopman and S. Grimme, ACS Omega 2019, 4, 12, 15120-15133.
     DOI: 10.1021/acsomega.9b02011
   
   for metadynamics refer to:
   * S. Grimme, J. Chem. Theory Comput., 2019, 155, 2847-2862
     DOI: 10.1021/acs.jctc.9b00143
   
   for SPH calculations refer to:
   * S. Spicher and S. Grimme, J. Chem. Theory Comput., 2021, 17, 1701-1714
     DOI: 10.1021/acs.jctc.0c01306
   
   for ONIOM refer to:
   * C. Plett, A. Katbashev, S. Ehlert, S. Grimme, M. Bursch,
     Phys. Chem. Chem. Phys., 2023, 25, 17860-17868. DOI: 10.1039/D3CP02178E
   
   for DIPRO refer to:
   * J. Kohn, N. Gildemeister, S. Grimme, D. Fazzi, A. Hansen,
     J. Chem. Phys., 2023, just accepted.
   
   for PTB refer to:
   * S. Grimme, M. Mueller, A. Hansen, J. Chem. Phys., 2023, 158, 124111.
     DOI: 10.1063/5.0137838
   
   with help from (in alphabetical order)
   P. Atkinson, C. Bannwarth, F. Bohle, G. Brandenburg, E. Caldeweyher
   M. Checinski, S. Dohm, S. Ehlert, S. Ehrlich, I. Gerasimov, C. Hölzer
   A. Katbashev, J. Kohn, J. Koopman, C. Lavigne, S. Lehtola, F. März, M. Müller,
   F. Musil, H. Neugebauer, J. Pisarek, C. Plett, P. Pracht, F. Pultar,
   J. Seibert, P. Shushkov, S. Spicher, M. Stahn, M. Steiner, T. Strunk,
   J. Stückrath, T. Rose, and J. Unsleber
   
 * started run on 2026/10/01 at 17:54:58.437     
   ID    Z sym.   atoms
    1    8 O      1, 3, 11, 18
    2    6 C      2, 5, 10, 12, 17, 19, 24, 27, 28, 30, 32, 34, 36
    3    1 H      4, 6, 7, 9, 13, 14, 16, 21-23, 25, 26, 29, 31, 33, 35, 37
    4    7 N      8, 15, 20

           -------------------------------------------------
          |                Calculation Setup                |
           -------------------------------------------------

          program call               : /usr/bin/xtb input.xyz --opt --gfn 2 --chrg 0 --uhf 0
          hostname                   : fedora
          coordinate file            : input.xyz
          omp threads                :                    16


           -------------------------------------------------
          |                 G F N 2 - x T B                 |
           -------------------------------------------------

        Reference                      10.1021/acs.jctc.8b01176
      * Hamiltonian:
        H0-scaling (s, p, d)           1.850000    2.230000    2.230000
        zeta-weighting                 0.500000
      * Dispersion:
        s8                             2.700000
        a1                             0.520000
        a2                             5.000000
        s9                             5.000000
      * Repulsion:
        kExp                           1.500000    1.000000
        rExp                           1.000000
      * Coulomb:
        alpha                          2.000000
        third order                    shell-resolved
        anisotropic                    true
        a3                             3.000000
        a5                             4.000000
        cn-shift                       1.200000
        cn-exp                         4.000000
        max-rad                        5.000000


          ...................................................
          :                      SETUP                      :
          :.................................................:
          :  # basis functions                  97          :
          :  # atomic orbitals                  97          :
          :  # shells                           57          :
          :  # electrons                       108          :
          :  max. iterations                   250          :
          :  Hamiltonian                  GFN2-xTB          :
          :  restarted?                      false          :
          :  GBSA solvation                  false          :
          :  PC potential                    false          :
          :  electronic temp.          300.0000000     K    :
          :  accuracy                    1.0000000          :
          :  -> integral cutoff          0.2500000E+02      :
          :  -> integral neglect         0.1000000E-07      :
          :  -> SCF convergence          0.1000000E-05 Eh   :
          :  -> wf. convergence          0.1000000E-03 e    :
          :  Broyden damping             0.4000000          :
          :  net charge                          0          :
          :  unpaired electrons                  0          :
          ...................................................

 iter      E             dE          RMSdq      gap      omega  full diag
   1    -62.1820299 -0.621820E+02  0.439E+00    3.48       0.0  T
   2    -62.3205202 -0.138490E+00  0.240E+00    3.68       1.0  T
   3    -62.3268291 -0.630889E-02  0.128E+00    4.00       1.0  T
   4    -62.3300666 -0.323745E-02  0.278E-01    3.75       1.0  T
   5    -62.3328103 -0.274370E-02  0.955E-02    3.79       1.0  T
   6    -62.3329245 -0.114216E-03  0.484E-02    3.78       1.0  T
   7    -62.3329459 -0.214481E-04  0.217E-02    3.78       1.0  T
   8    -62.3329480 -0.206039E-05  0.561E-03    3.78       2.9  T
   9    -62.3329482 -0.248037E-06  0.306E-03    3.78       5.4  T
  10    -62.3329484 -0.138638E-06  0.130E-03    3.78      12.7  T
  11    -62.3329484 -0.179848E-07  0.461E-04    3.78      35.7  T
  12    -62.3329484 -0.159707E-08  0.150E-04    3.78     109.7  T

   *** convergence criteria satisfied after 12 iterations ***

         #    Occupation            Energy/Eh            Energy/eV
      -------------------------------------------------------------
         1        2.0000           -0.7361337             -20.0312
       ...           ...                  ...                  ...
        48        2.0000           -0.4335973             -11.7988
        49        2.0000           -0.4305680             -11.7164
        50        2.0000           -0.4183525             -11.3840
        51        2.0000           -0.4138190             -11.2606
        52        2.0000           -0.4127764             -11.2322
        53        2.0000           -0.4023612             -10.9488
        54        2.0000           -0.3855535             -10.4914 (HOMO)
        55                         -0.2467157              -6.7135 (LUMO)
        56                         -0.2383202              -6.4850
        57                         -0.2377305              -6.4690
        58                         -0.2295522              -6.2464
        59                         -0.2224987              -6.0545
       ...                                ...                  ...
        97                          0.6484054              17.6440
      -------------------------------------------------------------
                  HL-Gap            0.1388378 Eh            3.7780 eV
             Fermi-level           -0.3161346 Eh           -8.6025 eV

 SCC (total)                   0 d,  0 h,  0 min,  0.025 sec
 SCC setup                      ...        0 min,  0.000 sec (  0.795%)
 Dispersion                     ...        0 min,  0.000 sec (  0.829%)
 classical contributions        ...        0 min,  0.000 sec (  0.278%)
 integral evaluation            ...        0 min,  0.001 sec (  2.853%)
 iterations                     ...        0 min,  0.021 sec ( 86.390%)
 molecular gradient             ...        0 min,  0.002 sec (  7.624%)
 printout                       ...        0 min,  0.000 sec (  1.196%)

         :::::::::::::::::::::::::::::::::::::::::::::::::::::
         ::                     SUMMARY                     ::
         :::::::::::::::::::::::::::::::::::::::::::::::::::::
         :: total energy             -61.559718625306 Eh    ::
         :: gradient norm              0.000079233383 Eh/a0 ::
         :: HOMO-LUMO gap              3.777970186311 eV    ::
         ::.................................................::
         :: SCC energy               -62.331472591353 Eh    ::
         :: -> isotropic ES            0.131024697285 Eh    ::
         :: -> anisotropic ES          0.002952748963 Eh    ::
         :: -> anisotropic XC          0.020451095881 Eh    ::
         :: -> dispersion             -0.043767238969 Eh    ::
         :: repulsion energy           0.771753966047 Eh    ::
         :: add. restraining           0.000000000000 Eh    ::
         :: total charge              -0.000000000000 e     ::
         :::::::::::::::::::::::::::::::::::::::::::::::::::::

      ----------------------------------------------------------- 
     |                   =====================                   |
     |                        A N C O P T                        |
     |                   =====================                   |
     |               Approximate Normal Coordinate               |
     |                Rational Function Optimizer                |
      ----------------------------------------------------------- 
      ----------------------------------------------------------- 
     |                   =====================                   |
     |                        A N C O P T                        |
     |                   =====================                   |
     |               Approximate Normal Coordinate               |
     |                Rational Function Optimizer                |
      ----------------------------------------------------------- 

          ...................................................
          :                      SETUP                      :
          :.................................................:
          :   optimization level            normal          :
          :   max. optcycles                   200          :
          :   ANC micro-cycles                  20          :
          :   degrees of freedom               105          :
          :.................................................:
          :   RF solver                   davidson          :
          :   write xtbopt.log                true          :
          :   linear?                        false          :
          :   energy convergence         0.5000000E-05 Eh   :
          :   grad. convergence          0.1000000E-02 Eh/α :
          :   maxmium RF displ.          1.0000000          :
          :   Hlow (freq-cutoff)         0.1000000E-01      :
          :   Hmax (freq-cutoff)         5.0000000          :
          :   S6 in model hess.         20.0000000          :
          ...................................................

generating ANC from exact Hessian ...
Using Lindh-Hessian (1995)
 Shifting diagonal of input Hessian by    9.7060869329427396E-003
 Lowest  eigenvalues of input Hessian
    0.000000    0.000000    0.000000    0.000000    0.000000    0.000000
    0.010000    0.010450    0.011084    0.011419    0.012483    0.013149
    0.014556    0.017190    0.018315    0.018756    0.020868    0.022327
 Highest eigenvalues
    1.933606    1.998442    2.021772    2.302986    2.345987    2.356732


........................................................................
.............................. CYCLE    1 ..............................
........................................................................

 iter      E             dE          RMSdq      gap      omega  full diag
   1    -62.3329484 -0.623329E+02  0.619E-05    3.78       0.0  T
   2    -62.3329484 -0.284146E-10  0.369E-05    3.78     446.1  T
   3    -62.3329484 -0.653699E-11  0.230E-05    3.78     714.4  T
     SCC iter.                  ...        0 min,  0.004 sec
     gradient                   ...        0 min,  0.002 sec
 * total energy  :   -61.5597186 Eh     change       -0.1795684E-09 Eh
   gradient norm :     0.0000787 Eh/α   predicted     0.0000000E+00 (-100.00%)
   displ. norm   :     0.0001180 α      lambda        0.0000000E+00
   maximum displ.:     0.0000527 α      in ANC's #63, #103, #95, ...

   *** GEOMETRY OPTIMIZATION CONVERGED AFTER 1 ITERATIONS ***

------------------------------------------------------------------------
 total energy gain   :        -0.0000000 Eh       -0.0000 kcal/mol
 total RMSD          :         0.0000000 a0        0.0000 Å
 total power (kW/mol):        -0.0000005 (step)   -0.0000 (real)
------------------------------------------------------------------------

 ANCopt (total)                0 d,  0 h,  0 min,  0.021 sec
 optimizer setup                ...        0 min,  0.000 sec (  0.664%)
 model hessian                  ...        0 min,  0.013 sec ( 61.405%)
 ANC generation                 ...        0 min,  0.001 sec (  4.229%)
 coordinate transformation      ...        0 min,  0.000 sec (  0.048%)
 single point calculation       ...        0 min,  0.007 sec ( 31.597%)
 optimization log               ...        0 min,  0.000 sec (  0.387%)
 hessian update                 ...        0 min,  0.000 sec (  0.002%)
 rational function              ...        0 min,  0.000 sec (  0.264%)

================
 final structure:
================
37
 xtb: 6.7.1-6.fc44.fc44
O           -1.90412205130000        2.91941520460000       -1.01703859160000
C           -1.74593059680000        1.73659297630000       -0.88909424430000
O           -0.93256571160000        1.05082929570000       -1.67481630630000
H           -0.88579594780000        0.08485533210000       -1.48875895230000
C           -2.49258985660000        0.94731368460000        0.19159738320000
H           -3.37037408470000        0.47816899780000       -0.26815378080000
H           -2.83183991390000        1.65732346860000        0.95220646690000
N           -1.71644422880000       -0.11215228870000        0.78685942480000
H           -0.82254782080000        0.13886281650000        1.18909274840000
C           -2.08735197230000       -1.40851460550000        0.68364315490000
O           -3.12534519730000       -1.77172018800000        0.18408351430000
C           -1.12875872490000       -2.39456605750000        1.36604834290000
H           -1.50591816150000       -3.40243338970000        1.15803689320000
H           -1.16519839670000       -2.21888496770000        2.44477054570000
N            0.24457299950000       -2.25416075350000        0.91961440080000
H            0.95914177150000       -2.64793947550000        1.51148524940000
C            0.57033303150000       -1.86351130200000       -0.32463626600000
O           -0.26612573410000       -1.49193441860000       -1.13297602150000
C            2.06538369580000       -1.86102476780000       -0.66431103210000
N            2.30024815250000       -1.48822429470000       -2.04200520870000
H            1.83441750640000       -0.60684031450000       -2.23908637030000
H            1.89210988350000       -2.17587171400000       -2.66637095400000
H            2.45686027070000       -2.87685217960000       -0.52322020110000
C            2.83433710510000       -0.90401977290000        0.27986714920000
H            3.00317868380000       -1.39695780480000        1.23920705590000
H            3.80250493470000       -0.72006159200000       -0.18762885710000
C            2.11319745810000        0.39731793280000        0.49888541480000
C            1.39805916090000        0.62118435660000        1.67040819110000
H            1.39533031760000       -0.13062453350000        2.44949260370000
C            0.71227404700000        1.81106165010000        1.86615013200000
H            0.17122719140000        1.97354644160000        2.78795025980000
C            0.72734661230000        2.79041689360000        0.88750647150000
H            0.18413408750000        3.71109892490000        1.03019488250000
C            1.44604190470000        2.58090310500000       -0.27705944850000
H            1.46287294060000        3.34187897670000       -1.04093056140000
C            2.13802163630000        1.39769674880000       -0.46598654330000
H            2.71540055290000        1.25162438850000       -1.36637064570000

 Bond Distances (Angstroems)
 ---------------------------
O1-C2=1.2002         C2-O1=1.2002         C2-O3=1.3226         C2-C5=1.5324         O3-C2=1.3226         O3-H4=0.9848         
H4-O3=0.9848         C5-C2=1.5324         C5-H6=1.0963         C5-H7=1.0944         C5-N8=1.4419         H6-C5=1.0963         
H7-C5=1.0944         N8-C5=1.4419         N8-H9=1.0119         N8-C10=1.3523        H9-N8=1.0119         C10-N8=1.3523        
C10-O11=1.2079       C10-C12=1.5352       O11-C10=1.2079       C12-C10=1.5352       C12-H13=1.0960       C12-H14=1.0935       
C12-N15=1.4509       H13-C12=1.0960       H14-C12=1.0935       N15-C12=1.4509       N15-H16=1.0080       N15-C17=1.3442       
H16-N15=1.0080       C17-N15=1.3442       C17-O18=1.2211       C17-C19=1.5332       O18-C17=1.2211       C19-C17=1.5332       
C19-N20=1.4464       C19-H23=1.0978       C19-C24=1.5487       N20-C19=1.4464       N20-H21=1.0162       N20-H22=1.0145       
H21-N20=1.0162       H22-N20=1.0145       H23-C19=1.0978       C24-C19=1.5487       C24-H25=1.0917       C24-H26=1.0908       
C24-C27=1.5038       H25-C24=1.0917       H26-C24=1.0908       C27-C24=1.5038       C27-C28=1.3907       C27-C36=1.3901       
C28-C27=1.3907       C28-H29=1.0827       C28-C30=1.3872       H29-C28=1.0827       C30-C28=1.3872       C30-H31=1.0811       
C30-C32=1.3846       H31-C30=1.0811       C32-C30=1.3846       C32-H33=1.0785       C32-C34=1.3844       H33-C32=1.0785       
C34-C32=1.3844       C34-H35=1.0784       C34-C36=1.3837       H35-C34=1.0784       C36-C27=1.3901       C36-C34=1.3837       
C36-H37=1.0795       H37-C36=1.0795       
 C  H  Rav=1.0884 sigma=0.0074  Rmin=1.0784  Rmax=1.0978    12
 C  C  Rav=1.4522 sigma=0.0724  Rmin=1.3837  Rmax=1.5487    11
 N  H  Rav=1.0126 sigma=0.0031  Rmin=1.0080  Rmax=1.0162     4
 N  C  Rav=1.4072 sigma=0.0482  Rmin=1.3442  Rmax=1.4509     5
 O  H  Rav=0.9848 sigma=0.0000  Rmin=0.9848  Rmax=0.9848     1
 O  C  Rav=1.2379 sigma=0.0494  Rmin=1.2002  Rmax=1.3226     4

 selected bond angles (degree)
 --------------------
O3-C2-O1=121.92                C5-C2-O1=121.24                C5-C2-O3=116.84                H4-O3-C2=115.19                
H6-C5-C2=108.35                H7-C5-C2=107.88                H7-C5-H6=108.72                N8-C5-C2=114.03                
N8-C5-H6=106.84                N8-C5-H7=110.89                H9-N8-C5=117.22                C10-N8-C5=121.68               
C10-N8-H9=120.69               O11-C10-N8=123.75              C12-C10-N8=114.24              C12-C10-O11=121.82             

 selected dihedral angles (degree)
 ---------------------------------
H4-O3-C2-O1=180.68            H4-O3-C2-C5=  0.14            H6-C5-C2-O1= 97.67            H6-C5-C2-O3=278.20            
H7-C5-C2-O1=340.14            H7-C5-C2-O3=160.67            N8-C5-C2-O1=216.48            N8-C5-C2-O3= 37.02            
H9-N8-C5-C2= 55.15            H9-N8-C5-H6=174.82            H9-N8-C5-H7=293.14            C10-N8-C5-C2=242.44           
C10-N8-C5-H6=  2.11           C10-N8-C5-H7=120.43           O11-C10-N8-C5=354.34          O11-C10-N8-H9=181.88          
C12-C10-N8-C5=179.30          C12-C10-N8-H9=  6.84          
           -------------------------------------------------
          |                Final Singlepoint                |
           -------------------------------------------------

          ...................................................
          :                      SETUP                      :
          :.................................................:
          :  # basis functions                  97          :
          :  # atomic orbitals                  97          :
          :  # shells                           57          :
          :  # electrons                       108          :
          :  max. iterations                   250          :
          :  Hamiltonian                  GFN2-xTB          :
          :  restarted?                      false          :
          :  GBSA solvation                  false          :
          :  PC potential                    false          :
          :  electronic temp.          300.0000000     K    :
          :  accuracy                    1.0000000          :
          :  -> integral cutoff          0.2500000E+02      :
          :  -> integral neglect         0.1000000E-07      :
          :  -> SCF convergence          0.1000000E-05 Eh   :
          :  -> wf. convergence          0.1000000E-03 e    :
          :  Broyden damping             0.4000000          :
          :  net charge                          0          :
          :  unpaired electrons                  0          :
          ...................................................

 iter      E             dE          RMSdq      gap      omega  full diag
   1    -62.3329484 -0.623329E+02  0.556E-06    3.78       0.0  T
   2    -62.3329484 -0.355271E-12  0.353E-06    3.78    4658.2  T
   3    -62.3329484  0.142109E-13  0.230E-06    3.78    7135.3  T

   *** convergence criteria satisfied after 3 iterations ***

         #    Occupation            Energy/Eh            Energy/eV
      -------------------------------------------------------------
         1        2.0000           -0.7361341             -20.0312
       ...           ...                  ...                  ...
        48        2.0000           -0.4335975             -11.7988
        49        2.0000           -0.4305676             -11.7163
        50        2.0000           -0.4183528             -11.3840
        51        2.0000           -0.4138191             -11.2606
        52        2.0000           -0.4127767             -11.2322
        53        2.0000           -0.4023620             -10.9488
        54        2.0000           -0.3855526             -10.4914 (HOMO)
        55                         -0.2467137              -6.7134 (LUMO)
        56                         -0.2383205              -6.4850
        57                         -0.2377308              -6.4690
        58                         -0.2295520              -6.2464
        59                         -0.2224982              -6.0545
       ...                                ...                  ...
        97                          0.6484051              17.6440
      -------------------------------------------------------------
                  HL-Gap            0.1388389 Eh            3.7780 eV
             Fermi-level           -0.3161332 Eh           -8.6024 eV

 SCC (total)                   0 d,  0 h,  0 min,  0.009 sec
 SCC setup                      ...        0 min,  0.000 sec (  1.780%)
 Dispersion                     ...        0 min,  0.000 sec (  1.279%)
 classical contributions        ...        0 min,  0.000 sec (  0.133%)
 integral evaluation            ...        0 min,  0.001 sec (  6.970%)
 iterations                     ...        0 min,  0.006 sec ( 60.973%)
 molecular gradient             ...        0 min,  0.003 sec ( 27.254%)
 printout                       ...        0 min,  0.000 sec (  1.550%)

         :::::::::::::::::::::::::::::::::::::::::::::::::::::
         ::                     SUMMARY                     ::
         :::::::::::::::::::::::::::::::::::::::::::::::::::::
         :: total energy             -61.559718625490 Eh    ::
         :: gradient norm              0.000078755664 Eh/a0 ::
         :: HOMO-LUMO gap              3.777999816463 eV    ::
         ::.................................................::
         :: SCC energy               -62.331472591536 Eh    ::
         :: -> isotropic ES            0.131028454226 Eh    ::
         :: -> anisotropic ES          0.002953141565 Eh    ::
         :: -> anisotropic XC          0.020451232559 Eh    ::
         :: -> dispersion             -0.043767244102 Eh    ::
         :: repulsion energy           0.771753966047 Eh    ::
         :: add. restraining           0.000000000000 Eh    ::
         :: total charge               0.000000000000 e     ::
         :::::::::::::::::::::::::::::::::::::::::::::::::::::

           -------------------------------------------------
          |                Property Printout                |
           -------------------------------------------------

    * Orbital Energies and Occupations

         #    Occupation            Energy/Eh            Energy/eV
      -------------------------------------------------------------
         1        2.0000           -0.7361341             -20.0312
       ...           ...                  ...                  ...
        42        2.0000           -0.4755992             -12.9417
        43        2.0000           -0.4704382             -12.8013
        44        2.0000           -0.4642768             -12.6336
        45        2.0000           -0.4450756             -12.1111
        46        2.0000           -0.4368908             -11.8884
        47        2.0000           -0.4356845             -11.8556
        48        2.0000           -0.4335975             -11.7988
        49        2.0000           -0.4305676             -11.7163
        50        2.0000           -0.4183528             -11.3840
        51        2.0000           -0.4138191             -11.2606
        52        2.0000           -0.4127767             -11.2322
        53        2.0000           -0.4023620             -10.9488
        54        2.0000           -0.3855526             -10.4914 (HOMO)
        55                         -0.2467137              -6.7134 (LUMO)
        56                         -0.2383205              -6.4850
        57                         -0.2377308              -6.4690
        58                         -0.2295520              -6.2464
        59                         -0.2224982              -6.0545
        60                         -0.1092882              -2.9739
        61                         -0.0333417              -0.9073
        62                         -0.0096430              -0.2624
        63                          0.0274307               0.7464
        64                          0.0394647               1.0739
        65                          0.0690477               1.8789
       ...                                ...                  ...
        97                          0.6484051              17.6440
      -------------------------------------------------------------
                  HL-Gap            0.1388389 Eh            3.7780 eV
             Fermi-level           -0.3161332 Eh           -8.6024 eV

     #   Z          covCN         q      C6AA      α(0)
     1   8 O        0.857    -0.384    21.359     6.196
     2   6 C        2.686     0.355    20.978     7.495
     3   8 O        1.657    -0.374    20.360     6.091
     4   1 H        0.802     0.358     0.569     1.185
     5   6 C        3.740    -0.042    21.397     6.600
     6   1 H        0.924     0.108     1.710     2.045
     7   1 H        0.924     0.073     2.051     2.239
     8   7 N        2.685    -0.180    24.905     7.412
     9   1 H        0.860     0.176     1.236     1.742
    10   6 C        2.751     0.285    22.167     7.709
    11   8 O        0.858    -0.412    21.917     6.277
    12   6 C        3.742    -0.022    21.034     6.543
    13   1 H        0.924     0.077     2.008     2.216
    14   1 H        0.924     0.062     2.178     2.308
    15   7 N        2.685    -0.175    24.798     7.396
    16   1 H        0.860     0.178     1.228     1.736
    17   6 C        2.752     0.262    22.579     7.781
    18   8 O        0.859    -0.454    22.793     6.401
    19   6 C        3.784     0.033    20.042     6.377
    20   7 N        2.632    -0.337    28.681     7.954
    21   1 H        0.860     0.164     1.308     1.792
    22   1 H        0.860     0.150     1.403     1.855
    23   1 H        0.924     0.042     2.428     2.437
    24   6 C        3.809    -0.075    21.921     6.665
    25   1 H        0.924     0.035     2.522     2.483
    26   1 H        0.924     0.073     2.056     2.242
    27   6 C        2.967     0.006    27.885     8.662
    28   6 C        2.924    -0.050    29.241     8.868
    29   1 H        0.925     0.017     2.775     2.605
    30   6 C        2.918    -0.038    28.937     8.821
    31   1 H        0.926     0.030     2.589     2.516
    32   6 C        2.919    -0.030    28.737     8.791
    33   1 H        0.926     0.046     2.367     2.406
    34   6 C        2.919    -0.021    28.522     8.758
    35   1 H        0.926     0.050     2.314     2.379
    36   6 C        2.925    -0.035    28.859     8.810
    37   1 H        0.926     0.047     2.359     2.402

 Mol. C6AA /au·bohr⁶  :      14773.249358
 Mol. C8AA /au·bohr⁸  :     339371.442921
 Mol. α(0) /au        :        186.195375


Wiberg/Mayer (AO) data.
largest (>0.10) Wiberg bond orders for each atom

 ---------------------------------------------------------------------------
     #   Z sym  total        # sym  WBO       # sym  WBO       # sym  WBO
 ---------------------------------------------------------------------------
     1   8 O    2.052 --     2 C    1.765     3 O    0.174
     2   6 C    3.927 --     1 O    1.765     3 O    1.180     5 C    0.943
     3   8 O    2.227 --     2 C    1.180     4 H    0.797     1 O    0.174
     4   1 H    0.872 --     3 O    0.797
     5   6 C    3.963 --     8 N    1.000     7 H    0.960     2 C    0.943
                             6 H    0.939
     6   1 H    0.988 --     5 C    0.939
     7   1 H    0.995 --     5 C    0.960
     8   7 N    3.439 --    10 C    1.243     5 C    1.000     9 H    0.918
                            11 O    0.198
     9   1 H    0.969 --     8 N    0.918
    10   6 C    3.958 --    11 O    1.707     8 N    1.243    12 C    0.941
    11   8 O    2.033 --    10 C    1.707     8 N    0.198
    12   6 C    3.964 --    15 N    0.986    13 H    0.961    14 H    0.961
                            10 C    0.941
    13   1 H    0.994 --    12 C    0.961
    14   1 H    0.996 --    12 C    0.961
    15   7 N    3.447 --    17 C    1.273    12 C    0.986    16 H    0.938
                            18 O    0.184
    16   1 H    0.968 --    15 N    0.938
    17   6 C    3.935 --    18 O    1.631    15 N    1.273    19 C    0.934
    18   8 O    2.013 --    17 C    1.631    15 N    0.184
    19   6 C    3.991 --    20 N    1.037    24 C    0.955    23 H    0.952
                            17 C    0.934
    20   7 N    3.015 --    19 C    1.037    22 H    0.961    21 H    0.951
    21   1 H    0.973 --    20 N    0.951
    22   1 H    0.977 --    20 N    0.961
    23   1 H    0.997 --    19 C    0.952
    24   6 C    3.992 --    27 C    1.013    25 H    0.974    26 H    0.964
                            19 C    0.955
    25   1 H    0.999 --    24 C    0.974
    26   1 H    0.994 --    24 C    0.964
    27   6 C    3.989 --    36 C    1.412    28 C    1.409    24 C    1.013
                            32 C    0.109
    28   6 C    3.991 --    30 C    1.430    27 C    1.409    29 H    0.968
                            34 C    0.110
    29   1 H    1.000 --    28 C    0.968
    30   6 C    3.992 --    32 C    1.437    28 C    1.430    31 H    0.971
                            36 C    0.109
    31   1 H    0.999 --    30 C    0.971
    32   6 C    3.991 --    30 C    1.437    34 C    1.436    33 H    0.970
                            27 C    0.109
    33   1 H    0.997 --    32 C    0.970
    34   6 C    3.991 --    36 C    1.446    32 C    1.436    35 H    0.970
                            28 C    0.110
    35   1 H    0.997 --    34 C    0.970
    36   6 C    3.992 --    34 C    1.446    27 C    1.412    37 H    0.965
                            30 C    0.109
    37   1 H    0.998 --    36 C    0.965
 ---------------------------------------------------------------------------

Topologies differ in total number of bonds
Writing topology from bond orders to xtbtopo.mol

molecular dipole:
                 x           y           z       tot (Debye)
 q only:        1.779      -1.054       1.744
   full:        1.871      -1.606       2.225       8.443
molecular quadrupole (traceless):
                xx          xy          yy          xz          yz          zz
 q only:       -3.934      -5.010      -1.669      -5.146      -1.692       5.603
  q+dip:      -10.952      -6.328       1.504      -4.816      -2.219       9.448
   full:       -9.950      -5.259       0.837      -3.362      -1.238       9.113

           -------------------------------------------------
          |                Geometry Summary                 |
           -------------------------------------------------

      molecular mass/u    :      279.2922888
   center of mass at/Å    :        0.0000000       0.0000000       0.0000000
  moments of inertia/u·Å² :        0.1225331E+04   0.1272405E+04   0.1813169E+04
rotational constants/cm⁻¹ :        0.1375762E-01   0.1324864E-01   0.9297330E-02

 * 32 selected distances

     #   Z          #   Z                                           value/Å
     1   8 O        2   6 C                                       1.2001929
     2   6 C        3   8 O                                       1.3225709
     3   8 O        4   1 H                                       0.9848404 (min)
     5   6 C        6   1 H                                       1.0963454
     5   6 C        7   1 H                                       1.0944089
     5   6 C        8   7 N                                       1.4419457
     8   7 N        9   1 H                                       1.0118553
     8   7 N       10   6 C                                       1.3523246
    10   6 C       11   8 O                                       1.2078528
    12   6 C       13   1 H                                       1.0960451
    12   6 C       14   1 H                                       1.0935417
    12   6 C       15   7 N                                       1.4508816 (max)
    15   7 N       16   1 H                                       1.0079591
    15   7 N       17   6 C                                       1.3442048
    17   6 C       18   8 O                                       1.2211249
    19   6 C       20   7 N                                       1.4464381
    20   7 N       21   1 H                                       1.0162072
    20   7 N       22   1 H                                       1.0145288
    19   6 C       23   1 H                                       1.0977550
    24   6 C       25   1 H                                       1.0917091
    24   6 C       26   1 H                                       1.0907531
    27   6 C       28   6 C                                       1.3906851
    28   6 C       29   1 H                                       1.0826804
    28   6 C       30   6 C                                       1.3872363
    30   6 C       31   1 H                                       1.0811331
    30   6 C       32   6 C                                       1.3845966
    32   6 C       33   1 H                                       1.0784690
    32   6 C       34   6 C                                       1.3844252
    34   6 C       35   1 H                                       1.0783630
    27   6 C       36   6 C                                       1.3900907
    34   6 C       36   6 C                                       1.3836571
    36   6 C       37   1 H                                       1.0795348

 * 6 distinct bonds (by element types)

   Z      Z             #   av. dist./Å        max./Å        min./Å
   1 H    6 C          12     1.0883949     1.0977550     1.0783630
   6 C    6 C           6     1.3867818     1.3906851     1.3836571
   1 H    7 N           4     1.0126376     1.0162072     1.0079591
   6 C    7 N           5     1.4071590     1.4508816     1.3442048
   1 H    8 O           1     0.9848404     0.9848404     0.9848404
   6 C    8 O           4     1.2379354     1.3225709     1.2001929


optimized geometry written to: xtbopt.xyz


           -------------------------------------------------
          | TOTAL ENERGY              -61.559718625490 Eh   |
          | GRADIENT NORM               0.000078755664 Eh/α |
          | HOMO-LUMO GAP               3.777999816463 eV   |
           -------------------------------------------------

------------------------------------------------------------------------
 * finished run on 2026/10/01 at 17:54:58.500     
------------------------------------------------------------------------
 total:
 * wall-time:     0 d,  0 h,  0 min,  0.063 sec
 *  cpu-time:     0 d,  0 h,  0 min,  0.850 sec
 * ratio c/w:    13.456 speedup
 SCF:
 * wall-time:     0 d,  0 h,  0 min,  0.025 sec
 *  cpu-time:     0 d,  0 h,  0 min,  0.401 sec
 * ratio c/w:    15.966 speedup
 ANC optimizer:
 * wall-time:     0 d,  0 h,  0 min,  0.031 sec
 *  cpu-time:     0 d,  0 h,  0 min,  0.361 sec
 * ratio c/w:    11.662 speedup


--- STDERR ---
normal termination of xtb
Note: The following floating-point exceptions are signalling: IEEE_UNDERFLOW_FLAG IEEE_DENORMAL
