34
frame_0047
O      -2.902835597240543      2.425230885401431      0.984802850733943
C      -3.618284402478305      2.317459572111885     -0.046726981760436
O      -4.914650912149551      2.915485330301038     -0.591803793577433
H      -2.200154794740257      2.051811993920177      0.905236847425030
C      -2.951543984783456      1.646620300355801     -1.208270394982108
H      -2.047372811608554      2.297775712864849     -1.554107365761466
H      -3.641355025040571      1.547904836319924     -2.425132718858530
N      -2.447399791623652      0.225721558635146     -1.161442070024568
H      -2.830350196000447     -0.274188537512684     -1.452526048104147
C      -1.484670724539356      0.073494732161320     -0.257976644573848
O      -0.991795113187324      0.976315622699013      0.553108769443148
C      -1.146872029221748     -1.307224445929950      0.162851750928908
H      -0.630844353051611     -1.495272831414832      1.001179957615077
N      -2.349246552542049     -2.310221001040458     -0.357870967243650
H      -2.927698845299204     -2.328772575410620      0.288385723467633
H      -1.979330297451176     -3.054719236347390     -0.566639793270092
C       0.023065557842793     -1.743047485618653     -1.043106718744218
H      -0.368651608561234     -1.373718380002217     -2.088251219238739
H       0.379085898473929     -2.828698268196891     -1.124218162838315
C       1.218475164825457     -0.953229162146232     -0.574536021226561
C       1.544766211375447      0.455595790430731     -1.249627335489730
H       1.152657185684289      1.041166593830688     -2.152361755971048
N       2.761030793100359      0.719726039755398     -0.831382699952871
H       2.946319969105859      1.636307182065574     -1.043117762686560
C       3.145789171158471      0.023890835517956      0.153040854817854
C       4.115873328758029      0.194599247210302      0.934405116830895
H       4.956997052659665      0.987291061243700      0.966647123939430
C       4.312468182011632     -1.090728172789100      1.707553205895205
H       5.133106960223462     -1.114845988205923      2.587186314647759
C       3.431071336941440     -2.091278141991561      1.945484011536782
H       3.681050057338665     -2.768340813881276      2.613647045793386
C       2.506933187044492     -2.128310936834163      1.123690346240556
H       1.829242997959929     -2.938799228231185      1.016748308470601
C       2.154665807610884     -1.007038749248478      0.343694379243688
