34
 energy: -56.477691439820 gnorm: 0.000800995455 xtb: 6.7.1-6.fc44.fc44
O           -3.03791595880408        2.50890113029239        0.90238570683456
C           -3.68402877712424        2.36013824922097       -0.23700796256025
O           -4.80192758879248        2.75361478415709       -0.41692601214277
H           -2.13811711642553        2.07486631901383        0.88859797242705
C           -2.87635350345126        1.66202869693423       -1.35453641273955
H           -1.98774620106824        2.27788737697141       -1.54398867417209
H           -3.48936369000076        1.62094045561440       -2.25420965748563
N           -2.45214951709457        0.32111684814374       -1.00764528763981
H           -2.88809848579961       -0.47867708093832       -1.44738830123862
C           -1.49722322937550        0.05296232690983       -0.10863787208107
O           -0.96374389892811        0.91498606464418        0.58049800523389
C           -1.10899028254786       -1.41570188149127       -0.05371847342501
H           -0.69481260207533       -1.61313673336322        0.94742019558081
N           -2.27175180156886       -2.22888026334213       -0.39174721459896
H           -2.95103870941997       -2.20519881038546        0.36217710777374
H           -1.99553541483237       -3.19578840473550       -0.52420540478615
C            0.00480710059293       -1.64999410174455       -1.09751520114804
H           -0.39020189974756       -1.41853061908116       -2.08857881679737
H            0.27935920406680       -2.70754205883215       -1.07305364118680
C            1.20110358933984       -0.81004091770689       -0.80221003147069
C            1.53096765446236        0.38782101227541       -1.36470423889755
H            1.03315969434070        0.92801030101866       -2.14797891255877
N            2.67125005679582        0.87913526791960       -0.79398960231986
H            3.10449175627647        1.75715404666362       -1.02206535333025
C            3.09737592746913        0.00982298917823        0.16689068555960
C            4.19434109564194        0.06844410959987        1.01712175071740
H            4.87610949703507        0.90564835498107        0.99063043625930
C            4.37743902730442       -0.97758779343351        1.89470348846705
H            5.21847137102213       -0.96429476318267        2.57201507934448
C            3.49429854851817       -2.06065164809582        1.92876678034783
H            3.67678557287217       -2.85985384544417        2.63223762266883
C            2.40554657427145       -2.12405738922934        1.08946662010697
H            1.73097771481207       -2.96741116318646        1.12416871090257
C            2.19205611483079       -1.07816751932181        0.19159106108118
