68
 energy: -106.572643595350 gnorm: 0.000620301578 xtb: 6.7.1-6.fc44.fc44
O            0.77521003827994       -0.99418231042650        1.39093497869496
O            0.90070780879163       -0.95668989805426       -1.67060784074668
O           -2.58126824658803       -2.43790577660056        0.52689873450260
O           -3.87673139128651        3.03763839891975       -0.27031480863284
O           -1.40000763472899        1.80858366503129       -1.42006615646176
O            1.97610983892045        2.74778678235478        1.36506242941275
N            0.48570385728366       -2.91134151461357       -0.68742974974814
N           -1.98226518469913       -0.90048214988395       -1.01929991404579
N           -3.42102231707335        0.96762185820311        0.42595001530020
N           -0.74185177629443        2.79113652506995        0.51189656820530
N            1.72274668492527        1.51402005651170       -0.50617108328309
N            2.86549035857623       -0.68893882183350        0.64784710190689
C            1.73100549117807       -1.40301526544598        0.75432977751239
C            1.70301065736869       -2.79112654797907        0.10673972636894
C            1.54745213111928       -3.88807025328408        1.16125753395867
C            0.75367620315722       -4.95932064738929        0.42050112668914
C           -0.24367165858556       -4.13507438161502       -0.39036480860995
C            0.11782499438327       -1.87999998158476       -1.44975939681443
C           -1.33413794213032       -1.82293029619686       -1.93597428937819
C           -1.43490500013566       -1.29524993913783       -3.35812852457992
C           -2.43560561753014       -1.27916452337408        0.18529143284615
C           -2.74958156228742       -0.10260951072412        1.12601814393391
C           -3.58202836492705       -0.57933440223145        2.31581481205086
C           -3.16315679771717        2.29321815649313        0.36508200386186
C           -2.00533912874932        2.82373410587727        1.23122135394954
C           -2.30715768265548        4.26398053840080        1.64295550878711
C           -0.54694061822224        2.33901074430378       -0.72868402646747
C            0.91001739350381        2.49853767361345       -1.19965598239132
C            1.03136622911670        2.28603254088236       -2.69956089859359
C            2.15264169364283        1.70901404843063        0.74404769289088
C            2.98482724669669        0.57528844655618        1.35213542981063
C            4.47560649196608        0.90553171496411        1.24870925881638
C            4.83922450545870        0.33437962441604       -0.11912026789737
C            4.02386801127997       -0.95851696598547       -0.18567335950408
H            2.57843730389618       -2.96169649597984       -0.52768636072639
H            2.50656276078893       -4.24186746134052        1.53432760592174
H            0.95802709682547       -3.49491987592406        1.99080523545514
H            1.41245983866810       -5.52287842491508       -0.24298901924313
H            0.25763082593338       -5.65309324785201        1.09451576390673
H           -0.53393139909791       -4.63665523273366       -1.31677575312228
H           -1.13841787391796       -3.90707759721031        0.19682735413224
H           -1.83557109485332        0.09056082392634       -1.21249541991622
H           -1.81997089115402       -2.79591361513318       -1.83421362656527
H           -2.47777268508388       -1.20305927974026       -3.64750942548246
H           -0.93093728749207       -1.96901051612381       -4.04692509982836
H           -0.96832157817648       -0.31530552820549       -3.41532641689018
H           -4.22006613315149        0.68823589388988       -0.12855440530125
H           -1.76770229457392        0.23632353248704        1.47375911978481
H           -3.08412284758515       -1.41912676797055        2.79052688087986
H           -4.56144759083742       -0.90782676728239        1.97673538877265
H           -3.70842241982260        0.22344659197879        3.03772876409254
H            0.06457213588600        3.15208179511002        1.01589049643475
H           -1.90702597599621        2.20576611983269        2.13268866017589
H           -1.46447302576077        4.68296371321832        2.18790589667584
H           -3.19004271344748        4.29116577257581        2.27572013251700
H           -2.50280079948906        4.86157390766417        0.75617086738469
H            1.67917460345785        0.57895213636404       -0.90247476572907
H            1.26906813173686        3.49228340701332       -0.90669467797432
H            0.79611579306810        1.25113749856774       -2.93403500748189
H            2.04198717518969        2.50547514164063       -3.03417551044932
H            0.33092185284105        2.93094776425797       -3.22239665030616
H            2.64741704197513        0.45953676027227        2.38701802358275
H            5.02796169848563        0.39387709380467        2.03757090825385
H            4.65612824216600        1.97502123444893        1.32896396795025
H            5.90595173460314        0.15117134183752       -0.22841479278561
H            4.51775913479889        1.01894957656338       -0.90381554139941
H            3.71951617316686       -1.19249458325293       -1.20855353897159
H            4.59571814169071       -1.80036878828614        0.22313416440899
