34
frame_0044
O      -1.952037903760978      2.528026909622485     -0.123190910646556
C      -3.447476075200539      2.415419541409484     -0.345101764863045
O      -3.988743024259826      2.930603797806642     -0.849257790297556
H      -1.703565270346624      1.948470244573938      0.658827729969886
C      -3.645544493578398      1.081566864263178      0.061787793843094
H      -4.858036979848282      0.846176869614217     -0.027416299157379
H      -3.755607452053213      0.857276702608042      1.387669729302607
N      -2.843329088877337     -0.283427230749480     -0.391940837806002
H      -3.491232824681936     -0.795919347021102     -1.001668768123072
C      -1.742314979648669     -0.337484487351288      0.060415601946427
O      -1.260282097579301      0.288922728924889      0.683166006931821
C      -0.784411005846377     -1.541243771056454     -0.524988074140940
H      -0.732313257989087     -1.985751239620805      0.255741398300002
N      -2.090722660693503     -2.468650892740951     -1.141091818326777
H      -2.004825229113820     -2.033328584444549     -2.300640368860449
H      -1.649635770143214     -3.316866786419078     -1.369978385702503
C       0.220629477266512     -1.136297971949044     -1.486117976610450
H      -0.083956198017681     -0.398405174279900     -2.245168992681188
H       0.643482103523489     -2.076425723345271     -2.104771218644325
C       1.280488119310685     -0.255200579622719     -0.857045755516848
C       1.413262416787117      1.047862484589702     -0.598179627597735
H       0.897752011046243      1.589021527228931     -1.158619557950268
N       2.379191002601230      1.208372209109426      0.180212129296893
H       2.770129799252315      2.444302414584154      0.559234397121162
C       2.914288461171601      0.045067232620175      0.682516644939879
C       3.945936794594255     -0.149617681870155      1.471226165326307
H       4.535523874513165      0.650889001315626      1.855977157952145
C       4.231050489071130     -1.322992886962528      1.885371041736283
H       5.108131266505477     -1.501139342192439      2.688268196424525
C       3.540622095445111     -2.616275568353362      1.237397157460060
H       3.796334900365194     -3.533106656520443      1.666401452820271
C       2.623568173416475     -2.362769584875594      0.476246964748139
H       2.058262476485683     -2.909306302184254      0.009705431106898
C       2.183038993541922     -1.018488261490035      0.149368140472620
