      -----------------------------------------------------------      
     |                   =====================                   |     
     |                           x T B                           |     
     |                   =====================                   |     
     |                         S. Grimme                         |     
     |          Mulliken Center for Theoretical Chemistry        |     
     |                    University of Bonn                     |     
      -----------------------------------------------------------      

   * xtb version 6.7.1-6.fc44.fc44 compiled by Fedora project on Sun Jan 18 23:32:34 UTC 2026

   xtb is free software: you can redistribute it and/or modify it under
   the terms of the GNU Lesser General Public License as published by
   the Free Software Foundation, either version 3 of the License, or
   (at your option) any later version.
   
   xtb is distributed in the hope that it will be useful,
   but WITHOUT ANY WARRANTY; without even the implied warranty of
   MERCHANTABILITY or FITNESS FOR A PARTICULAR PURPOSE.  See the
   GNU Lesser General Public License for more details.
   
   Cite this work as:
   * C. Bannwarth, E. Caldeweyher, S. Ehlert, A. Hansen, P. Pracht,
     J. Seibert, S. Spicher, S. Grimme, WIREs Comput. Mol. Sci., 2020, 11,
     e01493. DOI: 10.1002/wcms.1493
   
   for GFN2-xTB:
   * C. Bannwarth, S. Ehlert and S. Grimme., J. Chem. Theory Comput., 2019,
     15, 1652-1671. DOI: 10.1021/acs.jctc.8b01176
   for GFN1-xTB:
   * S. Grimme, C. Bannwarth, P. Shushkov, J. Chem. Theory Comput., 2017,
     13, 1989-2009. DOI: 10.1021/acs.jctc.7b00118
   for GFN0-xTB:
   * P. Pracht, E. Caldeweyher, S. Ehlert, S. Grimme, ChemRxiv, 2019, preprint.
     DOI: 10.26434/chemrxiv.8326202.v1
   for GFN-FF:
   * S. Spicher and S. Grimme, Angew. Chem. Int. Ed., 2020, 59, 15665-15673.
     DOI: 10.1002/anie.202004239
   
   for ALPB and GBSA implicit solvation:
   * S. Ehlert, M. Stahn, S. Spicher, S. Grimme, J. Chem. Theory Comput.,
     2021, 17, 4250-4261. DOI: 10.1021/acs.jctc.1c00471
   
   for ddCOSMO and CPCM-X implicit solvation:
   * M. Stahn, S. Ehlert, S. Grimme, J. Phys. Chem. A,
     2023, XX, XXXX-XXXX. DOI: 10.1021/acs.jpca.3c04382
   
   for DFT-D4:
   * E. Caldeweyher, C. Bannwarth and S. Grimme, J. Chem. Phys., 2017,
     147, 034112. DOI: 10.1063/1.4993215
   * E. Caldeweyher, S. Ehlert, A. Hansen, H. Neugebauer, S. Spicher,
     C. Bannwarth and S. Grimme, J. Chem. Phys., 2019, 150, 154122.
     DOI: 10.1063/1.5090222
   * E. Caldeweyher, J.-M. Mewes, S. Ehlert and S. Grimme, Phys. Chem. Chem. Phys.
     2020, 22, 8499-8512. DOI: 10.1039/D0CP00502A
   
   for sTDA-xTB:
   * S. Grimme and C. Bannwarth, J. Chem. Phys., 2016, 145, 054103.
     DOI: 10.1063/1.4959605
   
   in the mass-spec context:
   * V. Asgeirsson, C. Bauer and S. Grimme, Chem. Sci., 2017, 8, 4879.
     DOI: 10.1039/c7sc00601b
   * J. Koopman and S. Grimme, ACS Omega 2019, 4, 12, 15120-15133.
     DOI: 10.1021/acsomega.9b02011
   
   for metadynamics refer to:
   * S. Grimme, J. Chem. Theory Comput., 2019, 155, 2847-2862
     DOI: 10.1021/acs.jctc.9b00143
   
   for SPH calculations refer to:
   * S. Spicher and S. Grimme, J. Chem. Theory Comput., 2021, 17, 1701-1714
     DOI: 10.1021/acs.jctc.0c01306
   
   for ONIOM refer to:
   * C. Plett, A. Katbashev, S. Ehlert, S. Grimme, M. Bursch,
     Phys. Chem. Chem. Phys., 2023, 25, 17860-17868. DOI: 10.1039/D3CP02178E
   
   for DIPRO refer to:
   * J. Kohn, N. Gildemeister, S. Grimme, D. Fazzi, A. Hansen,
     J. Chem. Phys., 2023, just accepted.
   
   for PTB refer to:
   * S. Grimme, M. Mueller, A. Hansen, J. Chem. Phys., 2023, 158, 124111.
     DOI: 10.1063/5.0137838
   
   with help from (in alphabetical order)
   P. Atkinson, C. Bannwarth, F. Bohle, G. Brandenburg, E. Caldeweyher
   M. Checinski, S. Dohm, S. Ehlert, S. Ehrlich, I. Gerasimov, C. Hölzer
   A. Katbashev, J. Kohn, J. Koopman, C. Lavigne, S. Lehtola, F. März, M. Müller,
   F. Musil, H. Neugebauer, J. Pisarek, C. Plett, P. Pracht, F. Pultar,
   J. Seibert, P. Shushkov, S. Spicher, M. Stahn, M. Steiner, T. Strunk,
   J. Stückrath, T. Rose, and J. Unsleber
   
 * started run on 2026/10/01 at 18:04:54.316     
   ID    Z sym.   atoms
    1    8 O      1, 3, 11
    2    6 C      2, 5, 10, 12, 17, 20, 21, 25, 26, 28, 30, 32, 34
    3    1 H      4, 6, 7, 9, 13, 15, 16, 18, 19, 22, 24, 27, 29, 31, 33
    4    7 N      8, 14, 23

           -------------------------------------------------
          |                Calculation Setup                |
           -------------------------------------------------

          program call               : /usr/bin/xtb input.xyz --opt --gfn 2 --chrg 0 --uhf 0
          hostname                   : fedora
          coordinate file            : input.xyz
          omp threads                :                    16


           -------------------------------------------------
          |                 G F N 2 - x T B                 |
           -------------------------------------------------

        Reference                      10.1021/acs.jctc.8b01176
      * Hamiltonian:
        H0-scaling (s, p, d)           1.850000    2.230000    2.230000
        zeta-weighting                 0.500000
      * Dispersion:
        s8                             2.700000
        a1                             0.520000
        a2                             5.000000
        s9                             5.000000
      * Repulsion:
        kExp                           1.500000    1.000000
        rExp                           1.000000
      * Coulomb:
        alpha                          2.000000
        third order                    shell-resolved
        anisotropic                    true
        a3                             3.000000
        a5                             4.000000
        cn-shift                       1.200000
        cn-exp                         4.000000
        max-rad                        5.000000


          ...................................................
          :                      SETUP                      :
          :.................................................:
          :  # basis functions                  91          :
          :  # atomic orbitals                  91          :
          :  # shells                           53          :
          :  # electrons                       100          :
          :  max. iterations                   250          :
          :  Hamiltonian                  GFN2-xTB          :
          :  restarted?                      false          :
          :  GBSA solvation                  false          :
          :  PC potential                    false          :
          :  electronic temp.          300.0000000     K    :
          :  accuracy                    1.0000000          :
          :  -> integral cutoff          0.2500000E+02      :
          :  -> integral neglect         0.1000000E-07      :
          :  -> SCF convergence          0.1000000E-05 Eh   :
          :  -> wf. convergence          0.1000000E-03 e    :
          :  Broyden damping             0.4000000          :
          :  net charge                          0          :
          :  unpaired electrons                  0          :
          ...................................................

 iter      E             dE          RMSdq      gap      omega  full diag
   1    -56.9007682 -0.569008E+02  0.425E+00    3.40       0.0  T
   2    -57.0433132 -0.142545E+00  0.259E+00    3.56       1.0  T
   3    -57.0591822 -0.158690E-01  0.148E+00    3.89       1.0  T
   4    -57.0735936 -0.144114E-01  0.585E-01    3.74       1.0  T
   5    -57.0805727 -0.697911E-02  0.151E-01    3.82       1.0  T
   6    -57.0809412 -0.368443E-03  0.670E-02    3.80       1.0  T
   7    -57.0810013 -0.601427E-04  0.329E-02    3.80       1.0  T
   8    -57.0810085 -0.714730E-05  0.155E-02    3.81       1.1  T
   9    -57.0810110 -0.256431E-05  0.481E-03    3.81       3.6  T
  10    -57.0810111 -0.102534E-06  0.172E-03    3.81      10.0  T
  11    -57.0810112 -0.335938E-07  0.783E-04    3.81      21.9  T
  12    -57.0810112 -0.567061E-08  0.336E-04    3.81      51.0  T

   *** convergence criteria satisfied after 12 iterations ***

         #    Occupation            Energy/Eh            Energy/eV
      -------------------------------------------------------------
         1        2.0000           -0.8346761             -22.7127
       ...           ...                  ...                  ...
        44        2.0000           -0.4096869             -11.1481
        45        2.0000           -0.4029983             -10.9661
        46        2.0000           -0.4014706             -10.9246
        47        2.0000           -0.3851230             -10.4797
        48        2.0000           -0.3680978             -10.0165
        49        2.0000           -0.3636177              -9.8945
        50        2.0000           -0.3519516              -9.5771 (HOMO)
        51                         -0.2118882              -5.7658 (LUMO)
        52                         -0.2086220              -5.6769
        53                         -0.2012587              -5.4765
        54                         -0.1822865              -4.9603
        55                         -0.1454420              -3.9577
       ...                                ...                  ...
        91                          3.1055286              84.5057
      -------------------------------------------------------------
                  HL-Gap            0.1400634 Eh            3.8113 eV
             Fermi-level           -0.2819199 Eh           -7.6714 eV

 SCC (total)                   0 d,  0 h,  0 min,  0.581 sec
 SCC setup                      ...        0 min,  0.000 sec (  0.045%)
 Dispersion                     ...        0 min,  0.010 sec (  1.774%)
 classical contributions        ...        0 min,  0.003 sec (  0.598%)
 integral evaluation            ...        0 min,  0.019 sec (  3.300%)
 iterations                     ...        0 min,  0.539 sec ( 92.831%)
 molecular gradient             ...        0 min,  0.008 sec (  1.389%)
 printout                       ...        0 min,  0.000 sec (  0.061%)

         :::::::::::::::::::::::::::::::::::::::::::::::::::::
         ::                     SUMMARY                     ::
         :::::::::::::::::::::::::::::::::::::::::::::::::::::
         :: total energy             -55.646939047057 Eh    ::
         :: gradient norm              2.271913426701 Eh/a0 ::
         :: HOMO-LUMO gap              3.811317962604 eV    ::
         ::.................................................::
         :: SCC energy               -57.080673972875 Eh    ::
         :: -> isotropic ES            0.097840089044 Eh    ::
         :: -> anisotropic ES          0.005010116161 Eh    ::
         :: -> anisotropic XC          0.015193668477 Eh    ::
         :: -> dispersion             -0.035723352836 Eh    ::
         :: repulsion energy           1.433734925818 Eh    ::
         :: add. restraining           0.000000000000 Eh    ::
         :: total charge              -0.000000000000 e     ::
         :::::::::::::::::::::::::::::::::::::::::::::::::::::

      ----------------------------------------------------------- 
     |                   =====================                   |
     |                        A N C O P T                        |
     |                   =====================                   |
     |               Approximate Normal Coordinate               |
     |                Rational Function Optimizer                |
      ----------------------------------------------------------- 
      ----------------------------------------------------------- 
     |                   =====================                   |
     |                        A N C O P T                        |
     |                   =====================                   |
     |               Approximate Normal Coordinate               |
     |                Rational Function Optimizer                |
      ----------------------------------------------------------- 

          ...................................................
          :                      SETUP                      :
          :.................................................:
          :   optimization level            normal          :
          :   max. optcycles                   200          :
          :   ANC micro-cycles                  20          :
          :   degrees of freedom                96          :
          :.................................................:
          :   RF solver                   davidson          :
          :   write xtbopt.log                true          :
          :   linear?                        false          :
          :   energy convergence         0.5000000E-05 Eh   :
          :   grad. convergence          0.1000000E-02 Eh/α :
          :   maxmium RF displ.          1.0000000          :
          :   Hlow (freq-cutoff)         0.1000000E-01      :
          :   Hmax (freq-cutoff)         5.0000000          :
          :   S6 in model hess.         20.0000000          :
          ...................................................

generating ANC from exact Hessian ...
Using Lindh-Hessian (1995)
 Shifting diagonal of input Hessian by    9.7606224294638552E-003
 Lowest  eigenvalues of input Hessian
    0.000000    0.000000    0.000000    0.000000    0.000000    0.000000
    0.010000    0.010297    0.010725    0.011487    0.012086    0.013404
    0.015766    0.016486    0.018475    0.019686    0.020144    0.021908
 Highest eigenvalues
    2.382935    2.571979    2.641989    2.782069    3.590041    3.948626


........................................................................
.............................. CYCLE    1 ..............................
........................................................................

 iter      E             dE          RMSdq      gap      omega  full diag
   1    -57.0810112 -0.570810E+02  0.111E-04    3.81       0.0  T
   2    -57.0810112 -0.873115E-10  0.642E-05    3.81     267.2  T
   3    -57.0810112 -0.295231E-10  0.413E-05    3.81     414.8  T
     SCC iter.                  ...        0 min,  0.057 sec
     gradient                   ...        0 min,  0.046 sec
 * total energy  :   -55.6469390 Eh     change       -0.6962679E-09 Eh
   gradient norm :     2.2719085 Eh/α   predicted     0.0000000E+00 (-100.00%)
   displ. norm   :     0.5651631 α      lambda       -0.1199057E+01
   maximum displ.:     0.3751078 α      in ANC's #96, #76, #95, ...

........................................................................
.............................. CYCLE    2 ..............................
........................................................................

 iter      E             dE          RMSdq      gap      omega  full diag
   1    -56.9912082 -0.569912E+02  0.144E+00    1.31       0.0  T
   2    -57.0676676 -0.764595E-01  0.787E-01    2.35       1.0  T
   3    -57.0728714 -0.520374E-02  0.431E-01    2.20       1.0  T
   4    -57.0727690  0.102366E-03  0.199E-01    2.31       1.0  T
   5    -57.0731974 -0.428421E-03  0.592E-02    2.30       1.0  T
   6    -57.0732629 -0.654947E-04  0.240E-02    2.30       1.0  T
   7    -57.0732735 -0.106039E-04  0.656E-03    2.30       2.6  T
   8    -57.0732742 -0.717044E-06  0.313E-03    2.29       5.5  T
   9    -57.0732743 -0.596352E-07  0.164E-03    2.29      10.4  T
  10    -57.0732743 -0.152240E-07  0.543E-04    2.29      31.6  T
  11    -57.0732743 -0.691126E-08  0.193E-04    2.29      89.1  T
     SCC iter.                  ...        0 min,  0.365 sec
     gradient                   ...        0 min,  0.026 sec
 * total energy  :   -56.2088970 Eh     change       -0.5619580E+00 Eh
   gradient norm :     0.5246511 Eh/α   predicted    -0.7910286E+00 (  40.76%)
   displ. norm   :     0.5386298 α      lambda       -0.2405121E+00
   maximum displ.:     0.1748232 α      in ANC's #65, #66, #74, ...

........................................................................
.............................. CYCLE    3 ..............................
........................................................................

 iter      E             dE          RMSdq      gap      omega  full diag
   1    -57.1521059 -0.571521E+02  0.586E-01    2.69       0.0  T
   2    -57.1541921 -0.208616E-02  0.351E-01    2.72       1.0  T
   3    -57.1544118 -0.219717E-03  0.205E-01    2.70       1.0  T
   4    -57.1547676 -0.355812E-03  0.710E-02    2.70       1.0  T
   5    -57.1548901 -0.122547E-03  0.163E-02    2.70       1.1  T
   6    -57.1548935 -0.336577E-05  0.746E-03    2.70       2.3  T
   7    -57.1548937 -0.211428E-06  0.297E-03    2.70       5.8  T
   8    -57.1548938 -0.570350E-07  0.126E-03    2.70      13.7  T
   9    -57.1548938 -0.158767E-07  0.377E-04    2.70      45.5  T
  10    -57.1548938 -0.557932E-09  0.166E-04    2.70     103.1  T
     SCC iter.                  ...        0 min,  0.466 sec
     gradient                   ...        0 min,  0.005 sec
 * total energy  :   -56.3926375 Eh     change       -0.1837405E+00 Eh
   gradient norm :     0.2707131 Eh/α   predicted    -0.1551451E+00 ( -15.56%)
   displ. norm   :     0.5386432 α      lambda       -0.1223523E+00
   maximum displ.:     0.1894288 α      in ANC's #45, #66, #65, ...

........................................................................
.............................. CYCLE    4 ..............................
........................................................................

 iter      E             dE          RMSdq      gap      omega  full diag
   1    -57.2237231 -0.572237E+02  0.599E-01    3.08       0.0  T
   2    -57.2257359 -0.201284E-02  0.351E-01    3.12       1.0  T
   3    -57.2258113 -0.753503E-04  0.212E-01    3.12       1.0  T
   4    -57.2262296 -0.418365E-03  0.798E-02    3.12       1.0  T
   5    -57.2263897 -0.160045E-03  0.164E-02    3.11       1.0  T
   6    -57.2263938 -0.414956E-05  0.741E-03    3.11       2.3  T
   7    -57.2263940 -0.113047E-06  0.324E-03    3.11       5.3  T
   8    -57.2263941 -0.110572E-06  0.104E-03    3.11      16.5  T
   9    -57.2263941 -0.810189E-08  0.381E-04    3.11      45.0  T
  10    -57.2263941 -0.204830E-08  0.174E-04    3.11      98.7  T
     SCC iter.                  ...        0 min,  0.138 sec
     gradient                   ...        0 min,  0.019 sec
 * total energy  :   -56.4565177 Eh     change       -0.6388022E-01 Eh
   gradient norm :     0.1216498 Eh/α   predicted    -0.7892641E-01 (  23.55%)
   displ. norm   :     0.4336051 α      lambda       -0.2781403E-01
   maximum displ.:     0.1561523 α      in ANC's #10, #15, #16, ...

........................................................................
.............................. CYCLE    5 ..............................
........................................................................

 iter      E             dE          RMSdq      gap      omega  full diag
   1    -57.2035062 -0.572035E+02  0.336E-01    3.17       0.0  T
   2    -57.2035966 -0.904153E-04  0.200E-01    3.18       1.0  T
   3    -57.2034948  0.101873E-03  0.682E-02    3.17       1.0  T
   4    -57.2036177 -0.122964E-03  0.170E-02    3.19       1.0  T
   5    -57.2036256 -0.782201E-05  0.602E-03    3.19       2.8  T
   6    -57.2036257 -0.170987E-06  0.242E-03    3.19       7.1  T
   7    -57.2036258 -0.591364E-07  0.767E-04    3.19      22.4  T
   8    -57.2036258 -0.490717E-08  0.381E-04    3.19      45.0  T
     SCC iter.                  ...        0 min,  0.245 sec
     gradient                   ...        0 min,  0.045 sec
 * total energy  :   -56.4679913 Eh     change       -0.1147357E-01 Eh
   gradient norm :     0.0664747 Eh/α   predicted    -0.1652172E-01 (  44.00%)
   displ. norm   :     0.2982117 α      lambda       -0.8835215E-02
   maximum displ.:     0.1283436 α      in ANC's #19, #31, #7, ...

........................................................................
.............................. CYCLE    6 ..............................
........................................................................

 iter      E             dE          RMSdq      gap      omega  full diag
   1    -57.2151308 -0.572151E+02  0.222E-01    3.26       0.0  T
   2    -57.2151837 -0.528794E-04  0.129E-01    3.27       1.0  T
   3    -57.2151734  0.102552E-04  0.313E-02    3.28       1.0  T
   4    -57.2151913 -0.178228E-04  0.715E-03    3.28       2.4  T
   5    -57.2151922 -0.968182E-06  0.353E-03    3.28       4.9  T
   6    -57.2151923 -0.679424E-07  0.148E-03    3.28      11.6  T
   7    -57.2151923 -0.304965E-07  0.501E-04    3.28      34.2  T
   8    -57.2151923 -0.610745E-08  0.195E-04    3.28      87.8  T
     SCC iter.                  ...        0 min,  0.353 sec
     gradient                   ...        0 min,  0.045 sec
 * total energy  :   -56.4731403 Eh     change       -0.5149024E-02 Eh
   gradient norm :     0.0467303 Eh/α   predicted    -0.4810506E-02 (  -6.57%)
   displ. norm   :     0.3023348 α      lambda       -0.6454029E-02
   maximum displ.:     0.1010750 α      in ANC's #15, #45, #11, ...

........................................................................
.............................. CYCLE    7 ..............................
........................................................................

 iter      E             dE          RMSdq      gap      omega  full diag
   1    -57.2270691 -0.572271E+02  0.214E-01    3.36       0.0  T
   2    -57.2271021 -0.329852E-04  0.124E-01    3.36       1.0  T
   3    -57.2270912  0.108834E-04  0.282E-02    3.37       1.0  T
   4    -57.2271092 -0.180248E-04  0.760E-03    3.37       2.3  T
   5    -57.2271099 -0.603918E-06  0.441E-03    3.37       3.9  T
   6    -57.2271101 -0.228255E-06  0.168E-03    3.37      10.2  T
   7    -57.2271101 -0.288165E-07  0.500E-04    3.37      34.3  T
   8    -57.2271101 -0.329127E-08  0.252E-04    3.37      68.0  T
     SCC iter.                  ...        0 min,  0.482 sec
     gradient                   ...        0 min,  0.006 sec
 * total energy  :   -56.4746643 Eh     change       -0.1524005E-02 Eh
   gradient norm :     0.0473231 Eh/α   predicted    -0.3521990E-02 ( 131.10%)
   displ. norm   :     0.1603931 α      lambda       -0.3820927E-02
   maximum displ.:     0.0633662 α      in ANC's #11, #9, #19, ...

........................................................................
.............................. CYCLE    8 ..............................
........................................................................

 iter      E             dE          RMSdq      gap      omega  full diag
   1    -57.2318703 -0.572319E+02  0.113E-01    3.36       0.0  T
   2    -57.2318868 -0.164815E-04  0.653E-02    3.37       1.0  T
   3    -57.2318844  0.245282E-05  0.178E-02    3.37       1.0  T
   4    -57.2318891 -0.478887E-05  0.455E-03    3.37       3.8  T
   5    -57.2318895 -0.352854E-06  0.237E-03    3.37       7.3  T
   6    -57.2318895 -0.517823E-07  0.105E-03    3.37      16.4  T
   7    -57.2318896 -0.125297E-07  0.248E-04    3.37      69.1  T
   8    -57.2318896 -0.570964E-09  0.969E-05    3.37     177.0  T
     SCC iter.                  ...        0 min,  0.087 sec
     gradient                   ...        0 min,  0.011 sec
 * total energy  :   -56.4768323 Eh     change       -0.2167936E-02 Eh
   gradient norm :     0.0210514 Eh/α   predicted    -0.1959617E-02 (  -9.61%)
   displ. norm   :     0.1364773 α      lambda       -0.1130914E-02
   maximum displ.:     0.0517892 α      in ANC's #19, #18, #5, ...

........................................................................
.............................. CYCLE    9 ..............................
........................................................................

 iter      E             dE          RMSdq      gap      omega  full diag
   1    -57.2327651 -0.572328E+02  0.914E-02    3.37       0.0  T
   2    -57.2327710 -0.589575E-05  0.525E-02    3.38       1.0  T
   3    -57.2327698  0.124990E-05  0.107E-02    3.37       1.6  T
   4    -57.2327720 -0.225158E-05  0.274E-03    3.38       6.3  T
   5    -57.2327721 -0.130168E-06  0.138E-03    3.38      12.4  T
   6    -57.2327722 -0.150558E-07  0.657E-04    3.38      26.1  T
   7    -57.2327722 -0.469892E-08  0.185E-04    3.38      92.8  T
     SCC iter.                  ...        0 min,  0.096 sec
     gradient                   ...        0 min,  0.001 sec
 * total energy  :   -56.4773846 Eh     change       -0.5523209E-03 Eh
   gradient norm :     0.0147099 Eh/α   predicted    -0.5759898E-03 (   4.29%)
   displ. norm   :     0.1284768 α      lambda       -0.6802782E-03
   maximum displ.:     0.0536716 α      in ANC's #15, #11, #5, ...

........................................................................
.............................. CYCLE   10 ..............................
........................................................................

 iter      E             dE          RMSdq      gap      omega  full diag
   1    -57.2353031 -0.572353E+02  0.729E-02    3.39       0.0  T
   2    -57.2353091 -0.604002E-05  0.426E-02    3.40       1.0  T
   3    -57.2353069  0.222447E-05  0.133E-02    3.40       1.3  T
   4    -57.2353103 -0.341287E-05  0.278E-03    3.40       6.2  T
   5    -57.2353105 -0.155475E-06  0.135E-03    3.40      12.7  T
   6    -57.2353105 -0.233248E-07  0.557E-04    3.40      30.8  T
   7    -57.2353105 -0.186176E-08  0.212E-04    3.40      81.0  T
     SCC iter.                  ...        0 min,  0.498 sec
     gradient                   ...        0 min,  0.022 sec
 * total energy  :   -56.4777008 Eh     change       -0.3161636E-03 Eh
   gradient norm :     0.0099088 Eh/α   predicted    -0.3457553E-03 (   9.36%)
   displ. norm   :     0.0767464 α      lambda       -0.2554597E-03
   maximum displ.:     0.0277221 α      in ANC's #11, #10, #18, ...

........................................................................
.............................. CYCLE   11 ..............................
........................................................................

 iter      E             dE          RMSdq      gap      omega  full diag
   1    -57.2354880 -0.572355E+02  0.450E-02    3.40       0.0  T
   2    -57.2354909 -0.293546E-05  0.259E-02    3.40       1.0  T
   3    -57.2354905  0.453448E-06  0.773E-03    3.40       2.2  T
   4    -57.2354913 -0.800333E-06  0.205E-03    3.41       8.4  T
   5    -57.2354914 -0.849373E-07  0.934E-04    3.41      18.4  T
   6    -57.2354914 -0.984411E-08  0.432E-04    3.41      39.7  T
     SCC iter.                  ...        0 min,  0.493 sec
     gradient                   ...        0 min,  0.024 sec
 * total energy  :   -56.4777616 Eh     change       -0.6081579E-04 Eh
   gradient norm :     0.0083430 Eh/α   predicted    -0.1284842E-03 ( 111.27%)
   displ. norm   :     0.0581243 α      lambda       -0.1809392E-03
   maximum displ.:     0.0334766 α      in ANC's #9, #7, #14, ...

........................................................................
.............................. CYCLE   12 ..............................
........................................................................

 iter      E             dE          RMSdq      gap      omega  full diag
   1    -57.2360020 -0.572360E+02  0.357E-02    3.41       0.0  T
   2    -57.2360033 -0.123270E-05  0.207E-02    3.40       1.0  T
   3    -57.2360028  0.493171E-06  0.547E-03    3.40       3.1  T
   4    -57.2360035 -0.674857E-06  0.179E-03    3.40       9.6  T
   5    -57.2360035 -0.804961E-07  0.696E-04    3.40      24.6  T
   6    -57.2360035 -0.268643E-08  0.251E-04    3.40      68.3  T
     SCC iter.                  ...        0 min,  0.038 sec
     gradient                   ...        0 min,  0.030 sec
 * total energy  :   -56.4778395 Eh     change       -0.7795878E-04 Eh
   gradient norm :     0.0051867 Eh/α   predicted    -0.9077846E-04 (  16.44%)
   displ. norm   :     0.0366499 α      lambda       -0.7411524E-04
   maximum displ.:     0.0131363 α      in ANC's #16, #11, #18, ...

........................................................................
.............................. CYCLE   13 ..............................
........................................................................

 iter      E             dE          RMSdq      gap      omega  full diag
   1    -57.2356294 -0.572356E+02  0.248E-02    3.41       0.0  T
   2    -57.2356315 -0.212557E-05  0.143E-02    3.40       1.2  T
   3    -57.2356315  0.363778E-07  0.590E-03    3.40       2.9  T
   4    -57.2356318 -0.279027E-06  0.126E-03    3.40      13.6  T
   5    -57.2356318 -0.331124E-07  0.525E-04    3.40      32.7  T
   6    -57.2356318 -0.422733E-08  0.267E-04    3.40      64.3  T
     SCC iter.                  ...        0 min,  0.231 sec
     gradient                   ...        0 min,  0.001 sec
 * total energy  :   -56.4778620 Eh     change       -0.2248006E-04 Eh
   gradient norm :     0.0037987 Eh/α   predicted    -0.3711324E-04 (  65.09%)
   displ. norm   :     0.0261604 α      lambda       -0.3813929E-04
   maximum displ.:     0.0111377 α      in ANC's #11, #4, #10, ...

........................................................................
.............................. CYCLE   14 ..............................
........................................................................

 iter      E             dE          RMSdq      gap      omega  full diag
   1    -57.2349759 -0.572350E+02  0.136E-02    3.40       0.0  T
   2    -57.2349763 -0.392571E-06  0.814E-03    3.40       2.1  T
   3    -57.2349763  0.358680E-07  0.300E-03    3.40       5.7  T
   4    -57.2349764 -0.111734E-06  0.569E-04    3.40      30.2  T
   5    -57.2349764 -0.257477E-08  0.319E-04    3.40      53.8  T
     SCC iter.                  ...        0 min,  0.021 sec
     gradient                   ...        0 min,  0.004 sec
 * total energy  :   -56.4778812 Eh     change       -0.1918517E-04 Eh
   gradient norm :     0.0024532 Eh/α   predicted    -0.1908371E-04 (  -0.53%)
   displ. norm   :     0.0238049 α      lambda       -0.1805718E-04
   maximum displ.:     0.0081031 α      in ANC's #10, #3, #16, ...

........................................................................
.............................. CYCLE   15 ..............................
........................................................................

 iter      E             dE          RMSdq      gap      omega  full diag
   1    -57.2352660 -0.572353E+02  0.106E-02    3.40       0.0  T
   2    -57.2352662 -0.199573E-06  0.643E-03    3.40       2.7  T
   3    -57.2352662  0.397759E-07  0.195E-03    3.40       8.8  T
   4    -57.2352663 -0.599977E-07  0.653E-04    3.40      26.2  T
   5    -57.2352663 -0.107027E-07  0.259E-04    3.40      66.3  T
     SCC iter.                  ...        0 min,  0.035 sec
     gradient                   ...        0 min,  0.001 sec
 * total energy  :   -56.4778896 Eh     change       -0.8394629E-05 Eh
   gradient norm :     0.0017418 Eh/α   predicted    -0.9037196E-05 (   7.65%)
   displ. norm   :     0.0313804 α      lambda       -0.9061060E-05
   maximum displ.:     0.0172016 α      in ANC's #5, #16, #1, ...

........................................................................
.............................. CYCLE   16 ..............................
........................................................................

 iter      E             dE          RMSdq      gap      omega  full diag
   1    -57.2352173 -0.572352E+02  0.125E-02    3.40       0.0  T
   2    -57.2352175 -0.193794E-06  0.732E-03    3.40       2.3  T
   3    -57.2352175  0.423125E-07  0.198E-03    3.40       8.7  T
   4    -57.2352175 -0.695694E-07  0.630E-04    3.40      27.2  T
   5    -57.2352175 -0.849085E-08  0.287E-04    3.40      59.8  T
     SCC iter.                  ...        0 min,  0.048 sec
     gradient                   ...        0 min,  0.002 sec
 * total energy  :   -56.4778952 Eh     change       -0.5582124E-05 Eh
   gradient norm :     0.0019385 Eh/α   predicted    -0.4537107E-05 ( -18.72%)
   displ. norm   :     0.0323868 α      lambda       -0.8682123E-05
   maximum displ.:     0.0185235 α      in ANC's #5, #1, #10, ...

........................................................................
.............................. CYCLE   17 ..............................
........................................................................

 iter      E             dE          RMSdq      gap      omega  full diag
   1    -57.2350222 -0.572350E+02  0.149E-02    3.41       0.0  T
   2    -57.2350227 -0.505866E-06  0.859E-03    3.41       2.0  T
   3    -57.2350227  0.608898E-07  0.333E-03    3.41       5.2  T
   4    -57.2350228 -0.115485E-06  0.804E-04    3.41      21.3  T
   5    -57.2350228 -0.172478E-07  0.307E-04    3.41      55.8  T
     SCC iter.                  ...        0 min,  0.151 sec
     gradient                   ...        0 min,  0.006 sec
 * total energy  :   -56.4779002 Eh     change       -0.5013969E-05 Eh
   gradient norm :     0.0017700 Eh/α   predicted    -0.4347210E-05 ( -13.30%)
   displ. norm   :     0.0209632 α      lambda       -0.5379314E-05
   maximum displ.:     0.0158159 α      in ANC's #5, #9, #1, ...

........................................................................
.............................. CYCLE   18 ..............................
........................................................................

 iter      E             dE          RMSdq      gap      omega  full diag
   1    -57.2352395 -0.572352E+02  0.867E-03    3.41       0.0  T
   2    -57.2352395 -0.429049E-07  0.509E-03    3.41       3.4  T
   3    -57.2352395  0.319489E-07  0.121E-03    3.41      14.1  T
   4    -57.2352395 -0.391755E-07  0.329E-04    3.41      52.1  T
   5    -57.2352395 -0.270347E-08  0.124E-04    3.41     138.4  T
     SCC iter.                  ...        0 min,  0.188 sec
     gradient                   ...        0 min,  0.002 sec
 * total energy  :   -56.4779052 Eh     change       -0.4983070E-05 Eh
   gradient norm :     0.0011421 Eh/α   predicted    -0.2693071E-05 ( -45.96%)
   displ. norm   :     0.0361781 α      lambda       -0.4933957E-05
   maximum displ.:     0.0302029 α      in ANC's #5, #1, #9, ...

........................................................................
.............................. CYCLE   19 ..............................
........................................................................

 iter      E             dE          RMSdq      gap      omega  full diag
   1    -57.2353947 -0.572354E+02  0.128E-02    3.41       0.0  T
   2    -57.2353948 -0.100944E-06  0.755E-03    3.41       2.3  T
   3    -57.2353948  0.380005E-07  0.149E-03    3.41      11.5  T
   4    -57.2353948 -0.543724E-07  0.358E-04    3.41      47.8  T
   5    -57.2353948 -0.249366E-08  0.172E-04    3.41     100.0  T
     SCC iter.                  ...        0 min,  0.471 sec
     gradient                   ...        0 min,  0.014 sec
 * total energy  :   -56.4779083 Eh     change       -0.3096145E-05 Eh
   gradient norm :     0.0012707 Eh/α   predicted    -0.2472593E-05 ( -20.14%)
   displ. norm   :     0.0312708 α      lambda       -0.3543289E-05
   maximum displ.:     0.0237923 α      in ANC's #5, #1, #6, ...

........................................................................
.............................. CYCLE   20 ..............................
........................................................................

 iter      E             dE          RMSdq      gap      omega  full diag
   1    -57.2353973 -0.572354E+02  0.118E-02    3.41       0.0  T
   2    -57.2353974 -0.870964E-07  0.687E-03    3.41       2.5  T
   3    -57.2353974  0.921246E-08  0.113E-03    3.41      15.2  T
   4    -57.2353974 -0.211504E-07  0.297E-04    3.41      57.8  T
   5    -57.2353974 -0.997709E-09  0.165E-04    3.41     103.8  T
     SCC iter.                  ...        0 min,  0.028 sec
     gradient                   ...        0 min,  0.005 sec
 * total energy  :   -56.4779107 Eh     change       -0.2448807E-05 Eh
   gradient norm :     0.0009788 Eh/α   predicted    -0.1774242E-05 ( -27.55%)
   displ. norm   :     0.0235681 α      lambda       -0.2233373E-05
   maximum displ.:     0.0166104 α      in ANC's #5, #1, #6, ...

   *** GEOMETRY OPTIMIZATION CONVERGED AFTER 20 ITERATIONS ***

------------------------------------------------------------------------
 total energy gain   :        -0.8309717 Eh     -521.4426 kcal/mol
 total RMSD          :         0.3126827 a0        0.1655 Å
 total power (kW/mol):      -109.0857905 (step) -429.5304 (real)
------------------------------------------------------------------------

 ANCopt (total)                0 d,  0 h,  0 min,  5.079 sec
 optimizer setup                ...        0 min,  0.000 sec (  0.003%)
 model hessian                  ...        0 min,  0.006 sec (  0.117%)
 ANC generation                 ...        0 min,  0.012 sec (  0.228%)
 coordinate transformation      ...        0 min,  0.000 sec (  0.005%)
 single point calculation       ...        0 min,  5.039 sec ( 99.205%)
 optimization log               ...        0 min,  0.002 sec (  0.042%)
 hessian update                 ...        0 min,  0.015 sec (  0.287%)
 rational function              ...        0 min,  0.004 sec (  0.076%)

================
 final structure:
================
34
 xtb: 6.7.1-6.fc44.fc44
O           -2.06908526108910        2.65988791023079       -0.00065775635986
C           -3.30474655364927        2.32671212101870       -0.31906582003287
O           -4.04462740880727        3.04778747318393       -0.92711172411896
H           -1.59275781815279        1.91487832500982        0.47085155749020
C           -3.74719859200025        0.93004307070434        0.17163081746935
H           -4.78449526343924        0.77142065694293       -0.11819886917023
H           -3.66634558940015        0.92432065369094        1.26696697885318
N           -2.92658366845369       -0.13207149949596       -0.37903701476855
H           -3.35796149785363       -0.85160683941597       -0.94164467913427
C           -1.67169251877488       -0.36411081531266        0.02839721948132
O           -1.08275629422491        0.37862451755854        0.80838808873240
C           -1.00472013226502       -1.58155917708760       -0.59227199811264
H           -0.59089172393790       -2.16851803981886        0.23341944121424
N           -1.97912433103062       -2.38598198586792       -1.32071561876382
H           -2.04670130539075       -2.06198774505523       -2.28149994742636
H           -1.68876033338325       -3.35580587199852       -1.35453227247941
C            0.16407954428498       -1.09666774312380       -1.49131258794898
H           -0.24492398108267       -0.44661228447839       -2.27030719915602
H            0.60365861138866       -1.97707414706099       -1.96917052471897
C            1.20909061100229       -0.36603421202543       -0.72243297345752
C            1.37671895295552        0.98577163015264       -0.63891635083201
H            0.82319808614605        1.76783221429270       -1.12240286271402
N            2.41520069532556        1.27910876368036        0.19770930550648
H            2.71218170434049        2.20580701510589        0.44943246973249
C            2.93368471010874        0.11742847977950        0.68930937186576
C            3.98360828177926       -0.10270252834533        1.57151458052290
H            4.53631193499506        0.72200222860464        1.99713663355330
C            4.29186346840459       -1.40886562918387        1.88458593548842
H            5.10093978894361       -1.61674432297900        2.56907453794647
C            3.57755964624798       -2.47559755270636        1.33277363936159
H            3.85375165412473       -3.48434078947239        1.60369601240174
C            2.53626424990189       -2.26432301555758        0.45782496908397
H            1.99505683650770       -3.09893434484724        0.03592049275891
C            2.19786163973723       -0.95280606090116        0.12500114050534

 Bond Distances (Angstroems)
 ---------------------------
O1-C2=1.3188         O1-H4=1.0021         C2-O1=1.3188         C2-O3=1.1988         C2-C5=1.5451         O3-C2=1.1988         
H4-O1=1.0021         C5-C2=1.5451         C5-H6=1.0886         C5-H7=1.0983         C5-N8=1.4508         H6-C5=1.0886         
H7-C5=1.0983         N8-C5=1.4508         N8-H9=1.0101         N8-C10=1.3396        H9-N8=1.0101         C10-N8=1.3396        
C10-O11=1.2276       C10-C12=1.5206       O11-C10=1.2276       C12-C10=1.5206       C12-H13=1.0943       C12-N14=1.4585       
C12-C17=1.5523       H13-C12=1.0943       N14-C12=1.4585       N14-H15=1.0162       N14-H16=1.0129       H15-N14=1.0162       
H16-N14=1.0129       C17-C12=1.5523       C17-H18=1.0939       C17-H19=1.0939       C17-C20=1.4890       H18-C17=1.0939       
H19-C17=1.0939       C20-C17=1.4890       C20-C21=1.3647       C20-C34=1.4283       C21-C20=1.3647       C21-H22=1.0732       
C21-N23=1.3654       H22-C21=1.0732       N23-C21=1.3654       N23-H24=1.0052       N23-C25=1.3638       H24-N23=1.0052       
C25-N23=1.3638       C25-C26=1.3889       C25-C34=1.4161       C26-C25=1.3889       C26-H27=1.0802       C26-C28=1.3781       
H27-C26=1.0802       C28-C26=1.3781       C28-H29=1.0800       C28-C30=1.3974       H29-C28=1.0800       C30-C28=1.3974       
C30-H31=1.0804       C30-C32=1.3764       H31-C30=1.0804       C32-C30=1.3764       C32-H33=1.0805       C32-C34=1.3948       
H33-C32=1.0805       C34-C20=1.4283       C34-C25=1.4161       C34-C32=1.3948       
 C  H  Rav=1.0863 sigma=0.0081  Rmin=1.0732  Rmax=1.0983    10
 C  C  Rav=1.4376 sigma=0.0666  Rmin=1.3647  Rmax=1.5523    12
 N  H  Rav=1.0111 sigma=0.0040  Rmin=1.0052  Rmax=1.0162     4
 N  C  Rav=1.3956 sigma=0.0491  Rmin=1.3396  Rmax=1.4585     5
 O  H  Rav=1.0021 sigma=0.0000  Rmin=1.0021  Rmax=1.0021     1
 O  C  Rav=1.2484 sigma=0.0512  Rmin=1.1988  Rmax=1.3188     3

 selected bond angles (degree)
 --------------------
H4-O1-C2=111.79                O3-C2-O1=123.28                C5-C2-O1=114.83                C5-C2-O3=121.88                
H6-C5-C2=108.66                H7-C5-C2=107.48                H7-C5-H6=109.57                N8-C5-C2=112.29                
N8-C5-H6=109.34                N8-C5-H7=109.46                H9-N8-C5=119.43                C10-N8-C5=122.77               
C10-N8-H9=116.49               O11-C10-N8=122.54              C12-C10-N8=115.18              C12-C10-O11=122.23             

 selected dihedral angles (degree)
 ---------------------------------
O3-C2-O1-H4=182.51            C5-C2-O1-H4=  3.40            H6-C5-C2-O1=178.35            H6-C5-C2-O3=359.24            
H7-C5-C2-O1= 59.86            H7-C5-C2-O3=240.75            N8-C5-C2-O1=299.44            N8-C5-C2-O3=120.32            
H9-N8-C5-C2=240.00            H9-N8-C5-H6=  0.69            H9-N8-C5-H7=120.72            C10-N8-C5-C2= 73.55           
C10-N8-C5-H6=194.24           C10-N8-C5-H7=314.27           O11-C10-N8-C5=353.19          O11-C10-N8-H9=186.37          
C12-C10-N8-C5=175.78          C12-C10-N8-H9=  8.96          
           -------------------------------------------------
          |                Final Singlepoint                |
           -------------------------------------------------

          ...................................................
          :                      SETUP                      :
          :.................................................:
          :  # basis functions                  91          :
          :  # atomic orbitals                  91          :
          :  # shells                           53          :
          :  # electrons                       100          :
          :  max. iterations                   250          :
          :  Hamiltonian                  GFN2-xTB          :
          :  restarted?                      false          :
          :  GBSA solvation                  false          :
          :  PC potential                    false          :
          :  electronic temp.          300.0000000     K    :
          :  accuracy                    1.0000000          :
          :  -> integral cutoff          0.2500000E+02      :
          :  -> integral neglect         0.1000000E-07      :
          :  -> SCF convergence          0.1000000E-05 Eh   :
          :  -> wf. convergence          0.1000000E-03 e    :
          :  Broyden damping             0.4000000          :
          :  net charge                          0          :
          :  unpaired electrons                  0          :
          ...................................................

 iter      E             dE          RMSdq      gap      omega  full diag
   1    -57.2353974 -0.572354E+02  0.589E-05    3.41       0.0  T
   2    -57.2353974 -0.210605E-10  0.379E-05    3.41     452.9  T
   3    -57.2353974 -0.176570E-10  0.237E-05    3.41     722.4  T

   *** convergence criteria satisfied after 3 iterations ***

         #    Occupation            Energy/Eh            Energy/eV
      -------------------------------------------------------------
         1        2.0000           -0.7361298             -20.0311
       ...           ...                  ...                  ...
        44        2.0000           -0.4230013             -11.5105
        45        2.0000           -0.4179955             -11.3742
        46        2.0000           -0.4141043             -11.2684
        47        2.0000           -0.4037017             -10.9853
        48        2.0000           -0.3965123             -10.7896
        49        2.0000           -0.3792575             -10.3201
        50        2.0000           -0.3597740              -9.7899 (HOMO)
        51                         -0.2344705              -6.3803 (LUMO)
        52                         -0.2315245              -6.3001
        53                         -0.2282957              -6.2122
        54                         -0.1948502              -5.3021
        55                         -0.1564434              -4.2570
       ...                                ...                  ...
        91                          0.7229286              19.6719
      -------------------------------------------------------------
                  HL-Gap            0.1253035 Eh            3.4097 eV
             Fermi-level           -0.2971222 Eh           -8.0851 eV

 SCC (total)                   0 d,  0 h,  0 min,  0.401 sec
 SCC setup                      ...        0 min,  0.001 sec (  0.362%)
 Dispersion                     ...        0 min,  0.000 sec (  0.028%)
 classical contributions        ...        0 min,  0.001 sec (  0.226%)
 integral evaluation            ...        0 min,  0.012 sec (  2.982%)
 iterations                     ...        0 min,  0.385 sec ( 95.961%)
 molecular gradient             ...        0 min,  0.001 sec (  0.347%)
 printout                       ...        0 min,  0.000 sec (  0.089%)

         :::::::::::::::::::::::::::::::::::::::::::::::::::::
         ::                     SUMMARY                     ::
         :::::::::::::::::::::::::::::::::::::::::::::::::::::
         :: total energy             -56.477910713222 Eh    ::
         :: gradient norm              0.000979178462 Eh/a0 ::
         :: HOMO-LUMO gap              3.409683118280 eV    ::
         ::.................................................::
         :: SCC energy               -57.235077561834 Eh    ::
         :: -> isotropic ES            0.098576865554 Eh    ::
         :: -> anisotropic ES          0.004830499031 Eh    ::
         :: -> anisotropic XC          0.019151238938 Eh    ::
         :: -> dispersion             -0.035196085092 Eh    ::
         :: repulsion energy           0.757166848611 Eh    ::
         :: add. restraining           0.000000000000 Eh    ::
         :: total charge              -0.000000000000 e     ::
         :::::::::::::::::::::::::::::::::::::::::::::::::::::

           -------------------------------------------------
          |                Property Printout                |
           -------------------------------------------------

    * Orbital Energies and Occupations

         #    Occupation            Energy/Eh            Energy/eV
      -------------------------------------------------------------
         1        2.0000           -0.7361298             -20.0311
       ...           ...                  ...                  ...
        38        2.0000           -0.4665055             -12.6943
        39        2.0000           -0.4651882             -12.6584
        40        2.0000           -0.4525034             -12.3132
        41        2.0000           -0.4506377             -12.2625
        42        2.0000           -0.4448780             -12.1057
        43        2.0000           -0.4275771             -11.6350
        44        2.0000           -0.4230013             -11.5105
        45        2.0000           -0.4179955             -11.3742
        46        2.0000           -0.4141043             -11.2684
        47        2.0000           -0.4037017             -10.9853
        48        2.0000           -0.3965123             -10.7896
        49        2.0000           -0.3792575             -10.3201
        50        2.0000           -0.3597740              -9.7899 (HOMO)
        51                         -0.2344705              -6.3803 (LUMO)
        52                         -0.2315245              -6.3001
        53                         -0.2282957              -6.2122
        54                         -0.1948502              -5.3021
        55                         -0.1564434              -4.2570
        56                         -0.0692668              -1.8848
        57                         -0.0227062              -0.6179
        58                          0.0131543               0.3579
        59                          0.0299582               0.8152
        60                          0.0626090               1.7037
        61                          0.0783532               2.1321
       ...                                ...                  ...
        91                          0.7229286              19.6719
      -------------------------------------------------------------
                  HL-Gap            0.1253035 Eh            3.4097 eV
             Fermi-level           -0.2971222 Eh           -8.0851 eV

     #   Z          covCN         q      C6AA      α(0)
     1   8 O        1.654    -0.381    20.495     6.111
     2   6 C        2.685     0.359    20.912     7.484
     3   8 O        0.856    -0.379    21.267     6.183
     4   1 H        0.799     0.366     0.554     1.170
     5   6 C        3.738    -0.039    21.351     6.594
     6   1 H        0.925     0.077     2.012     2.218
     7   1 H        0.923     0.074     2.038     2.233
     8   7 N        2.687    -0.166    24.593     7.365
     9   1 H        0.860     0.202     1.095     1.639
    10   6 C        2.756     0.264    22.543     7.775
    11   8 O        0.859    -0.458    22.866     6.411
    12   6 C        3.786     0.027    20.137     6.392
    13   1 H        0.924     0.064     2.151     2.294
    14   7 N        2.631    -0.356    29.171     8.021
    15   1 H        0.860     0.147     1.420     1.867
    16   1 H        0.860     0.152     1.388     1.845
    17   6 C        3.806    -0.057    21.593     6.615
    18   1 H        0.924     0.030     2.586     2.515
    19   1 H        0.924     0.042     2.419     2.432
    20   6 C        3.059    -0.030    28.683     8.783
    21   6 C        3.034     0.001    27.970     8.675
    22   1 H        0.926     0.038     2.478     2.462
    23   7 N        2.781    -0.096    23.117     7.141
    24   1 H        0.860     0.162     1.324     1.802
    25   6 C        3.090     0.047    26.853     8.494
    26   6 C        2.909    -0.052    29.282     8.873
    27   1 H        0.926     0.024     2.674     2.557
    28   6 C        2.924    -0.037    28.916     8.818
    29   1 H        0.926     0.027     2.630     2.536
    30   6 C        2.920    -0.042    29.045     8.838
    31   1 H        0.926     0.024     2.670     2.555
    32   6 C        2.912    -0.037    28.929     8.820
    33   1 H        0.926     0.020     2.741     2.589
    34   6 C        3.117    -0.017    28.259     8.707

 Mol. C6AA /au·bohr⁶  :      13342.211535
 Mol. C8AA /au·bohr⁸  :     312479.916114
 Mol. α(0) /au        :        178.812451


Wiberg/Mayer (AO) data.
largest (>0.10) Wiberg bond orders for each atom

 ---------------------------------------------------------------------------
     #   Z sym  total        # sym  WBO       # sym  WBO       # sym  WBO
 ---------------------------------------------------------------------------
     1   8 O    2.226 --     2 C    1.200     4 H    0.762     3 O    0.183
     2   6 C    3.932 --     3 O    1.773     1 O    1.200     5 C    0.927
     3   8 O    2.064 --     2 C    1.773     1 O    0.183
     4   1 H    0.866 --     1 O    0.762
     5   6 C    3.964 --     8 N    0.990     6 H    0.975     7 H    0.952
                             2 C    0.927
     6   1 H    0.994 --     5 C    0.975
     7   1 H    0.994 --     5 C    0.952
     8   7 N    3.469 --    10 C    1.299     5 C    0.990     9 H    0.917
                            11 O    0.189
     9   1 H    0.959 --     8 N    0.917
    10   6 C    3.947 --    11 O    1.602     8 N    1.299    12 C    0.958
    11   8 O    2.014 --    10 C    1.602     8 N    0.189
    12   6 C    3.981 --    14 N    1.017    10 C    0.958    13 H    0.953
                            17 C    0.946
    13   1 H    0.996 --    12 C    0.953
    14   7 N    3.024 --    12 C    1.017    16 H    0.963    15 H    0.961
    15   1 H    0.978 --    14 N    0.961
    16   1 H    0.977 --    14 N    0.963
    17   6 C    3.995 --    20 C    1.020    18 H    0.975    19 H    0.967
                            12 C    0.946
    18   1 H    0.999 --    17 C    0.975
    19   1 H    0.998 --    17 C    0.967
    20   6 C    3.974 --    21 C    1.575    34 C    1.205    17 C    1.020
    21   6 C    3.954 --    20 C    1.575    23 N    1.205    22 H    0.969
    22   1 H    0.998 --    21 C    0.969
    23   7 N    3.551 --    21 C    1.205    25 C    1.178    24 H    0.946
    24   1 H    0.973 --    23 N    0.946
    25   6 C    3.959 --    26 C    1.340    34 C    1.245    23 N    1.178
    26   6 C    3.989 --    28 C    1.492    25 C    1.340    27 H    0.969
                            32 C    0.113
    27   1 H    0.999 --    26 C    0.969
    28   6 C    3.991 --    26 C    1.492    30 C    1.372    29 H    0.972
    29   1 H    0.999 --    28 C    0.972
    30   6 C    3.991 --    32 C    1.503    28 C    1.372    31 H    0.972
    31   1 H    0.999 --    30 C    0.972
    32   6 C    3.992 --    30 C    1.503    34 C    1.333    33 H    0.969
                            26 C    0.113
    33   1 H    0.999 --    32 C    0.969
    34   6 C    3.985 --    32 C    1.333    25 C    1.245    20 C    1.205
 ---------------------------------------------------------------------------

Topologies differ in total number of bonds
Writing topology from bond orders to xtbtopo.mol

molecular dipole:
                 x           y           z       tot (Debye)
 q only:        0.157      -1.389      -0.277
   full:        0.380      -1.770      -0.396       4.710
molecular quadrupole (traceless):
                xx          xy          yy          xz          yz          zz
 q only:        2.334      22.951      -5.638      -3.063       9.126       3.304
  q+dip:       -1.788      27.683      -3.016      -0.837      11.842       4.804
   full:       -1.499      27.849      -4.845      -3.234      12.248       6.344

           -------------------------------------------------
          |                Geometry Summary                 |
           -------------------------------------------------

      molecular mass/u    :      261.2770023
   center of mass at/Å    :        0.0087474      -0.0226457       0.0214329
  moments of inertia/u·Å² :        0.6658030E+03   0.2359028E+04   0.2763806E+04
rotational constants/cm⁻¹ :        0.2531925E-01   0.7146008E-02   0.6099426E-02

 * 31 selected distances

     #   Z          #   Z                                           value/Å
     1   8 O        2   6 C                                       1.3188059
     2   6 C        3   8 O                                       1.1987883
     5   6 C        6   1 H                                       1.0886445
     5   6 C        7   1 H                                       1.0983312
     5   6 C        8   7 N                                       1.4507693
     8   7 N        9   1 H                                       1.0101215
     8   7 N       10   6 C                                       1.3396257
    10   6 C       11   8 O                                       1.2275535
    12   6 C       13   1 H                                       1.0943223
    12   6 C       14   7 N                                       1.4584890
    14   7 N       15   1 H                                       1.0161917
    14   7 N       16   1 H                                       1.0129232
    17   6 C       18   1 H                                       1.0939327
    17   6 C       19   1 H                                       1.0939349
    17   6 C       20   6 C                                       1.4889761 (max)
    20   6 C       21   6 C                                       1.3647174
    21   6 C       22   1 H                                       1.0732025
    21   6 C       23   7 N                                       1.3654427
    23   7 N       24   1 H                                       1.0051528 (min)
    23   7 N       25   6 C                                       1.3638173
    25   6 C       26   6 C                                       1.3889145
    26   6 C       27   1 H                                       1.0801730
    26   6 C       28   6 C                                       1.3780774
    28   6 C       29   1 H                                       1.0799736
    28   6 C       30   6 C                                       1.3973704
    30   6 C       31   1 H                                       1.0803907
    30   6 C       32   6 C                                       1.3763969
    32   6 C       33   1 H                                       1.0805023
    20   6 C       34   6 C                                       1.4283257
    25   6 C       34   6 C                                       1.4160797
    32   6 C       34   6 C                                       1.3947635

 * 5 distinct bonds (by element types)

   Z      Z             #   av. dist./Å        max./Å        min./Å
   1 H    6 C          10     1.0863408     1.0983312     1.0732025
   6 C    6 C           9     1.4037357     1.4889761     1.3647174
   1 H    7 N           4     1.0110973     1.0161917     1.0051528
   6 C    7 N           5     1.3956288     1.4584890     1.3396257
   6 C    8 O           3     1.2483826     1.3188059     1.1987883


optimized geometry written to: xtbopt.xyz


           -------------------------------------------------
          | TOTAL ENERGY              -56.477910713222 Eh   |
          | GRADIENT NORM               0.000979178462 Eh/α |
          | HOMO-LUMO GAP               3.409683118280 eV   |
           -------------------------------------------------

------------------------------------------------------------------------
 * finished run on 2026/10/01 at 18:05:00.408     
------------------------------------------------------------------------
 total:
 * wall-time:     0 d,  0 h,  0 min,  6.092 sec
 *  cpu-time:     0 d,  0 h,  1 min, 22.900 sec
 * ratio c/w:    13.609 speedup
 SCF:
 * wall-time:     0 d,  0 h,  0 min,  0.581 sec
 *  cpu-time:     0 d,  0 h,  0 min,  7.849 sec
 * ratio c/w:    13.504 speedup
 ANC optimizer:
 * wall-time:     0 d,  0 h,  0 min,  5.482 sec
 *  cpu-time:     0 d,  0 h,  1 min, 14.682 sec
 * ratio c/w:    13.623 speedup


--- STDERR ---
normal termination of xtb
Note: The following floating-point exceptions are signalling: IEEE_UNDERFLOW_FLAG IEEE_DENORMAL
