34
 energy: -56.477910713222 gnorm: 0.000979178462 xtb: 6.7.1-6.fc44.fc44
O           -2.06908526108910        2.65988791023079       -0.00065775635986
C           -3.30474655364927        2.32671212101870       -0.31906582003287
O           -4.04462740880727        3.04778747318393       -0.92711172411896
H           -1.59275781815279        1.91487832500982        0.47085155749020
C           -3.74719859200025        0.93004307070434        0.17163081746935
H           -4.78449526343924        0.77142065694293       -0.11819886917023
H           -3.66634558940015        0.92432065369094        1.26696697885318
N           -2.92658366845369       -0.13207149949596       -0.37903701476855
H           -3.35796149785363       -0.85160683941597       -0.94164467913427
C           -1.67169251877488       -0.36411081531266        0.02839721948132
O           -1.08275629422491        0.37862451755854        0.80838808873240
C           -1.00472013226502       -1.58155917708760       -0.59227199811264
H           -0.59089172393790       -2.16851803981886        0.23341944121424
N           -1.97912433103062       -2.38598198586792       -1.32071561876382
H           -2.04670130539075       -2.06198774505523       -2.28149994742636
H           -1.68876033338325       -3.35580587199852       -1.35453227247941
C            0.16407954428498       -1.09666774312380       -1.49131258794898
H           -0.24492398108267       -0.44661228447839       -2.27030719915602
H            0.60365861138866       -1.97707414706099       -1.96917052471897
C            1.20909061100229       -0.36603421202543       -0.72243297345752
C            1.37671895295552        0.98577163015264       -0.63891635083201
H            0.82319808614605        1.76783221429270       -1.12240286271402
N            2.41520069532556        1.27910876368036        0.19770930550648
H            2.71218170434049        2.20580701510589        0.44943246973249
C            2.93368471010874        0.11742847977950        0.68930937186576
C            3.98360828177926       -0.10270252834533        1.57151458052290
H            4.53631193499506        0.72200222860464        1.99713663355330
C            4.29186346840459       -1.40886562918387        1.88458593548842
H            5.10093978894361       -1.61674432297900        2.56907453794647
C            3.57755964624798       -2.47559755270636        1.33277363936159
H            3.85375165412473       -3.48434078947239        1.60369601240174
C            2.53626424990189       -2.26432301555758        0.45782496908397
H            1.99505683650770       -3.09893434484724        0.03592049275891
C            2.19786163973723       -0.95280606090116        0.12500114050534
