34
frame_0042
O      -0.731102512500000      2.226379219100000     -0.955137041100000
C      -1.818194261300000      2.458778695100000     -0.245790710900000
O      -1.909037768600000      3.368590327200000      0.531340866000000
H      -0.783909749500000      1.356905642700000     -1.442245288200000
C      -2.983307341300000      1.477525826500000     -0.498097665000000
H      -3.167612938200000      1.440397473600000     -1.578508056200000
H      -3.871604925700000      1.847024023000000      0.012643064600000
N      -2.688598891300000      0.134823123500000     -0.027503371900000
H      -3.147382659200000     -0.182567603800000      0.809765777000000
C      -1.790562369500000     -0.657978149500000     -0.638964899400000
O      -1.148900188500000     -0.277134159700000     -1.608147532700000
C      -1.597842109100000     -2.027905488900000     -0.007589420200000
H      -2.576156153600000     -2.463889432800000      0.238878763400000
N      -0.964000914400000     -2.887618466900000     -0.975960000000000
H      -0.533356031200000     -3.689616578500000     -0.532288718600000
H      -0.254760677900000     -2.368453743200000     -1.483887293300000
C      -0.804881768400000     -1.809345373100000      1.322708683900000
H      -0.350321930200000     -2.761220599900000      1.607678161800000
H      -1.501436377800000     -1.518421969600000      2.112101193400000
C       0.238300017000000     -0.751319332300000      1.171525598900000
C       0.116167125000000      0.560424395500000      1.535821355200000
H      -0.688131545300000      1.050097197400000      2.053039659500000
N       1.227001486900000      1.260627445000000      1.164649009700000
H       1.333623657500000      2.256829913800000      1.251677592000000
C       2.089945204600000      0.417580828900000      0.530778307200000
C       3.336811481600000      0.659667199300000     -0.032011314200000
H       3.764421878300000      1.651115421700000     -0.026705072700000
C       4.002054880200000     -0.406981790700000     -0.594807164200000
H       4.972150580500000     -0.254533616000000     -1.044040360500000
C       3.448696765400000     -1.690634724600000     -0.591335451100000
H       4.007538786600000     -2.502271089400000     -1.033946307200000
C       2.213931419700000     -1.937494211600000     -0.037021021700000
H       1.807265405800000     -2.938469134800000     -0.032081775300000
C       1.507973613800000     -0.874276577500000      0.527005981700000
