34
 energy: -56.477938121186 gnorm: 0.000108679113 xtb: 6.7.1-6.fc44.fc44
O           -0.73110251250000        2.22637921910000       -0.95513704110000
C           -1.81819426130000        2.45877869510000       -0.24579071090000
O           -1.90903776860000        3.36859032720000        0.53134086600000
H           -0.78390974950000        1.35690564270000       -1.44224528820000
C           -2.98330734130000        1.47752582650000       -0.49809766500000
H           -3.16761293820000        1.44039747360000       -1.57850805620000
H           -3.87160492570000        1.84702402300000        0.01264306460000
N           -2.68859889130000        0.13482312350000       -0.02750337190000
H           -3.14738265920000       -0.18256760380000        0.80976577700000
C           -1.79056236950000       -0.65797814950000       -0.63896489940000
O           -1.14890018850000       -0.27713415970000       -1.60814753270000
C           -1.59784210910000       -2.02790548890000       -0.00758942020000
H           -2.57615615360000       -2.46388943280000        0.23887876340000
N           -0.96400091440000       -2.88761846690000       -0.97596000000000
H           -0.53335603120000       -3.68961657850000       -0.53228871860000
H           -0.25476067790000       -2.36845374320000       -1.48388729330000
C           -0.80488176840000       -1.80934537310000        1.32270868390000
H           -0.35032193020000       -2.76122059990000        1.60767816180000
H           -1.50143637780000       -1.51842196960000        2.11210119340000
C            0.23830001700000       -0.75131933230000        1.17152559890000
C            0.11616712500000        0.56042439550000        1.53582135520000
H           -0.68813154530000        1.05009719740000        2.05303965950000
N            1.22700148690000        1.26062744500000        1.16464900970000
H            1.33362365750000        2.25682991380000        1.25167759200000
C            2.08994520460000        0.41758082890000        0.53077830720000
C            3.33681148160000        0.65966719930000       -0.03201131420000
H            3.76442187830000        1.65111542170000       -0.02670507270000
C            4.00205488020000       -0.40698179070000       -0.59480716420000
H            4.97215058050000       -0.25453361600000       -1.04404036050000
C            3.44869676540000       -1.69063472460000       -0.59133545110000
H            4.00753878660000       -2.50227108940000       -1.03394630720000
C            2.21393141970000       -1.93749421160000       -0.03702102170000
H            1.80726540580000       -2.93846913480000       -0.03208177530000
C            1.50797361380000       -0.87427657750000        0.52700598170000
