34
frame_0007
O      -1.072609788601130      2.590009773047911      0.071656716957361
C      -0.702179073948274      1.969995619357768     -0.932865784092901
O       0.267637879740097      2.593931198544604     -1.427413625967032
H      -1.779915205409879      1.953753543417070      0.407523873653549
C      -1.408640177470392      0.988402397865028     -1.788942974545144
H      -0.895093973996810      1.045081426405503     -2.801949517179235
H      -2.582849097497499      1.515157591807871     -1.955371835036768
N      -1.471334151560333     -0.093255223750497     -0.888263662936013
H      -0.999455742036228     -1.061350120294564     -1.544995776312942
C      -1.991228213064470     -0.381245834678591      0.158728628337535
O      -2.525958058033696      0.374626641118644      0.752703848888654
C      -2.016269922380801     -1.942479942433136      0.563239437739286
H      -3.004260597246674     -2.049035958041821      1.162482284504942
N      -2.012870294300014     -2.749778692166320     -0.665686819927339
H      -2.818052417225338     -2.664665240102748     -1.256260555872421
H      -1.895653980987456     -3.588627391794780     -0.535039994648226
C      -0.829358659177995     -2.377016151037989      1.464500815104745
H      -0.700685568251339     -3.181851972244235      1.624591241234255
H      -0.828682014470087     -1.650772014694510      2.293318225021526
C       0.407456188971570     -1.785249815915921      0.642797364348316
C       1.191203215573579     -2.254402148479781     -0.476183437005317
H       1.094355455269485     -3.369804899768110     -0.672378712063330
N       2.103334028635582     -1.736810466036232     -0.846335213607254
H       2.784315154816087     -1.696135275892273     -1.548496290828654
C       2.335835208048395     -0.308971724418646     -0.322175826254154
C       3.043258125015461      0.712748529900285     -0.084940175206202
H       3.847517909904663      0.762038520789635     -0.950065044063907
C       2.909535205586220      1.693483043194993      0.581922894931206
H       3.301986340021981      2.703527859278027      0.729265845050330
C       1.796714605085868      1.745683055664070      1.489317639811799
H       1.470644153939484      2.621858304095487      2.049778448967297
C       1.099693646331723      0.522653750099771      1.585829068290984
H       0.075579860632585      0.819609263754524      2.326822063605675
C       1.219916582250583     -0.446074573445617      0.748744936618192
