      -----------------------------------------------------------      
     |                   =====================                   |     
     |                           x T B                           |     
     |                   =====================                   |     
     |                         S. Grimme                         |     
     |          Mulliken Center for Theoretical Chemistry        |     
     |                    University of Bonn                     |     
      -----------------------------------------------------------      

   * xtb version 6.7.1-6.fc44.fc44 compiled by Fedora project on Sun Jan 18 23:32:34 UTC 2026

   xtb is free software: you can redistribute it and/or modify it under
   the terms of the GNU Lesser General Public License as published by
   the Free Software Foundation, either version 3 of the License, or
   (at your option) any later version.
   
   xtb is distributed in the hope that it will be useful,
   but WITHOUT ANY WARRANTY; without even the implied warranty of
   MERCHANTABILITY or FITNESS FOR A PARTICULAR PURPOSE.  See the
   GNU Lesser General Public License for more details.
   
   Cite this work as:
   * C. Bannwarth, E. Caldeweyher, S. Ehlert, A. Hansen, P. Pracht,
     J. Seibert, S. Spicher, S. Grimme, WIREs Comput. Mol. Sci., 2020, 11,
     e01493. DOI: 10.1002/wcms.1493
   
   for GFN2-xTB:
   * C. Bannwarth, S. Ehlert and S. Grimme., J. Chem. Theory Comput., 2019,
     15, 1652-1671. DOI: 10.1021/acs.jctc.8b01176
   for GFN1-xTB:
   * S. Grimme, C. Bannwarth, P. Shushkov, J. Chem. Theory Comput., 2017,
     13, 1989-2009. DOI: 10.1021/acs.jctc.7b00118
   for GFN0-xTB:
   * P. Pracht, E. Caldeweyher, S. Ehlert, S. Grimme, ChemRxiv, 2019, preprint.
     DOI: 10.26434/chemrxiv.8326202.v1
   for GFN-FF:
   * S. Spicher and S. Grimme, Angew. Chem. Int. Ed., 2020, 59, 15665-15673.
     DOI: 10.1002/anie.202004239
   
   for ALPB and GBSA implicit solvation:
   * S. Ehlert, M. Stahn, S. Spicher, S. Grimme, J. Chem. Theory Comput.,
     2021, 17, 4250-4261. DOI: 10.1021/acs.jctc.1c00471
   
   for ddCOSMO and CPCM-X implicit solvation:
   * M. Stahn, S. Ehlert, S. Grimme, J. Phys. Chem. A,
     2023, XX, XXXX-XXXX. DOI: 10.1021/acs.jpca.3c04382
   
   for DFT-D4:
   * E. Caldeweyher, C. Bannwarth and S. Grimme, J. Chem. Phys., 2017,
     147, 034112. DOI: 10.1063/1.4993215
   * E. Caldeweyher, S. Ehlert, A. Hansen, H. Neugebauer, S. Spicher,
     C. Bannwarth and S. Grimme, J. Chem. Phys., 2019, 150, 154122.
     DOI: 10.1063/1.5090222
   * E. Caldeweyher, J.-M. Mewes, S. Ehlert and S. Grimme, Phys. Chem. Chem. Phys.
     2020, 22, 8499-8512. DOI: 10.1039/D0CP00502A
   
   for sTDA-xTB:
   * S. Grimme and C. Bannwarth, J. Chem. Phys., 2016, 145, 054103.
     DOI: 10.1063/1.4959605
   
   in the mass-spec context:
   * V. Asgeirsson, C. Bauer and S. Grimme, Chem. Sci., 2017, 8, 4879.
     DOI: 10.1039/c7sc00601b
   * J. Koopman and S. Grimme, ACS Omega 2019, 4, 12, 15120-15133.
     DOI: 10.1021/acsomega.9b02011
   
   for metadynamics refer to:
   * S. Grimme, J. Chem. Theory Comput., 2019, 155, 2847-2862
     DOI: 10.1021/acs.jctc.9b00143
   
   for SPH calculations refer to:
   * S. Spicher and S. Grimme, J. Chem. Theory Comput., 2021, 17, 1701-1714
     DOI: 10.1021/acs.jctc.0c01306
   
   for ONIOM refer to:
   * C. Plett, A. Katbashev, S. Ehlert, S. Grimme, M. Bursch,
     Phys. Chem. Chem. Phys., 2023, 25, 17860-17868. DOI: 10.1039/D3CP02178E
   
   for DIPRO refer to:
   * J. Kohn, N. Gildemeister, S. Grimme, D. Fazzi, A. Hansen,
     J. Chem. Phys., 2023, just accepted.
   
   for PTB refer to:
   * S. Grimme, M. Mueller, A. Hansen, J. Chem. Phys., 2023, 158, 124111.
     DOI: 10.1063/5.0137838
   
   with help from (in alphabetical order)
   P. Atkinson, C. Bannwarth, F. Bohle, G. Brandenburg, E. Caldeweyher
   M. Checinski, S. Dohm, S. Ehlert, S. Ehrlich, I. Gerasimov, C. Hölzer
   A. Katbashev, J. Kohn, J. Koopman, C. Lavigne, S. Lehtola, F. März, M. Müller,
   F. Musil, H. Neugebauer, J. Pisarek, C. Plett, P. Pracht, F. Pultar,
   J. Seibert, P. Shushkov, S. Spicher, M. Stahn, M. Steiner, T. Strunk,
   J. Stückrath, T. Rose, and J. Unsleber
   
 * started run on 2026/10/01 at 18:05:15.253     
   ID    Z sym.   atoms
    1    8 O      1, 3, 11
    2    6 C      2, 5, 10, 12, 17, 20, 21, 25, 26, 28, 30, 32, 34
    3    1 H      4, 6, 7, 9, 13, 15, 16, 18, 19, 22, 24, 27, 29, 31, 33
    4    7 N      8, 14, 23

           -------------------------------------------------
          |                Calculation Setup                |
           -------------------------------------------------

          program call               : /usr/bin/xtb input.xyz --opt --gfn 2 --chrg 0 --uhf 0
          hostname                   : fedora
          coordinate file            : input.xyz
          omp threads                :                    16


           -------------------------------------------------
          |                 G F N 2 - x T B                 |
           -------------------------------------------------

        Reference                      10.1021/acs.jctc.8b01176
      * Hamiltonian:
        H0-scaling (s, p, d)           1.850000    2.230000    2.230000
        zeta-weighting                 0.500000
      * Dispersion:
        s8                             2.700000
        a1                             0.520000
        a2                             5.000000
        s9                             5.000000
      * Repulsion:
        kExp                           1.500000    1.000000
        rExp                           1.000000
      * Coulomb:
        alpha                          2.000000
        third order                    shell-resolved
        anisotropic                    true
        a3                             3.000000
        a5                             4.000000
        cn-shift                       1.200000
        cn-exp                         4.000000
        max-rad                        5.000000


          ...................................................
          :                      SETUP                      :
          :.................................................:
          :  # basis functions                  91          :
          :  # atomic orbitals                  91          :
          :  # shells                           53          :
          :  # electrons                       100          :
          :  max. iterations                   250          :
          :  Hamiltonian                  GFN2-xTB          :
          :  restarted?                      false          :
          :  GBSA solvation                  false          :
          :  PC potential                    false          :
          :  electronic temp.          300.0000000     K    :
          :  accuracy                    1.0000000          :
          :  -> integral cutoff          0.2500000E+02      :
          :  -> integral neglect         0.1000000E-07      :
          :  -> SCF convergence          0.1000000E-05 Eh   :
          :  -> wf. convergence          0.1000000E-03 e    :
          :  Broyden damping             0.4000000          :
          :  net charge                          0          :
          :  unpaired electrons                  0          :
          ...................................................

 iter      E             dE          RMSdq      gap      omega  full diag
   1    -56.7685516 -0.567686E+02  0.450E+00    2.73       0.0  T
   2    -56.9575915 -0.189040E+00  0.280E+00    2.60       1.0  T
   3    -56.9887273 -0.311358E-01  0.171E+00    3.32       1.0  T
   4    -56.9994650 -0.107377E-01  0.868E-01    2.74       1.0  T
   5    -57.0179197 -0.184548E-01  0.189E-01    2.88       1.0  T
   6    -57.0188987 -0.978945E-03  0.750E-02    2.82       1.0  T
   7    -57.0189452 -0.464949E-04  0.370E-02    2.82       1.0  T
   8    -57.0189576 -0.124216E-04  0.177E-02    2.81       1.0  T
   9    -57.0189623 -0.467907E-05  0.514E-03    2.82       3.3  T
  10    -57.0189624 -0.136909E-06  0.313E-03    2.82       5.5  T
  11    -57.0189626 -0.167246E-06  0.117E-03    2.82      14.6  T
  12    -57.0189626 -0.164490E-07  0.411E-04    2.82      41.7  T
  13    -57.0189626 -0.213831E-08  0.134E-04    2.82     127.5  T

   *** convergence criteria satisfied after 13 iterations ***

         #    Occupation            Energy/Eh            Energy/eV
      -------------------------------------------------------------
         1        2.0000           -0.7547923             -20.5389
       ...           ...                  ...                  ...
        44        2.0000           -0.4151763             -11.2975
        45        2.0000           -0.4134308             -11.2500
        46        2.0000           -0.3879252             -10.5560
        47        2.0000           -0.3830716             -10.4239
        48        2.0000           -0.3740068             -10.1772
        49        2.0000           -0.3656199              -9.9490
        50        2.0000           -0.3354703              -9.1286 (HOMO)
        51                         -0.2319038              -6.3104 (LUMO)
        52                         -0.2238756              -6.0920
        53                         -0.1860185              -5.0618
        54                         -0.1717958              -4.6748
        55                         -0.1505768              -4.0974
       ...                                ...                  ...
        91                          1.3096622              35.6377
      -------------------------------------------------------------
                  HL-Gap            0.1035665 Eh            2.8182 eV
             Fermi-level           -0.2836870 Eh           -7.7195 eV

 SCC (total)                   0 d,  0 h,  0 min,  0.033 sec
 SCC setup                      ...        0 min,  0.005 sec ( 14.651%)
 Dispersion                     ...        0 min,  0.002 sec (  6.731%)
 classical contributions        ...        0 min,  0.003 sec (  8.864%)
 integral evaluation            ...        0 min,  0.001 sec (  2.170%)
 iterations                     ...        0 min,  0.020 sec ( 61.301%)
 molecular gradient             ...        0 min,  0.002 sec (  5.033%)
 printout                       ...        0 min,  0.000 sec (  1.223%)

         :::::::::::::::::::::::::::::::::::::::::::::::::::::
         ::                     SUMMARY                     ::
         :::::::::::::::::::::::::::::::::::::::::::::::::::::
         :: total energy             -55.914978365581 Eh    ::
         :: gradient norm              1.244468559927 Eh/a0 ::
         :: HOMO-LUMO gap              2.818187754366 eV    ::
         ::.................................................::
         :: SCC energy               -57.017882266289 Eh    ::
         :: -> isotropic ES            0.108778323902 Eh    ::
         :: -> anisotropic ES          0.003722909883 Eh    ::
         :: -> anisotropic XC          0.016109874784 Eh    ::
         :: -> dispersion             -0.040869309778 Eh    ::
         :: repulsion energy           1.102903900708 Eh    ::
         :: add. restraining           0.000000000000 Eh    ::
         :: total charge              -0.000000000000 e     ::
         :::::::::::::::::::::::::::::::::::::::::::::::::::::

      ----------------------------------------------------------- 
     |                   =====================                   |
     |                        A N C O P T                        |
     |                   =====================                   |
     |               Approximate Normal Coordinate               |
     |                Rational Function Optimizer                |
      ----------------------------------------------------------- 
      ----------------------------------------------------------- 
     |                   =====================                   |
     |                        A N C O P T                        |
     |                   =====================                   |
     |               Approximate Normal Coordinate               |
     |                Rational Function Optimizer                |
      ----------------------------------------------------------- 

          ...................................................
          :                      SETUP                      :
          :.................................................:
          :   optimization level            normal          :
          :   max. optcycles                   200          :
          :   ANC micro-cycles                  20          :
          :   degrees of freedom                96          :
          :.................................................:
          :   RF solver                   davidson          :
          :   write xtbopt.log                true          :
          :   linear?                        false          :
          :   energy convergence         0.5000000E-05 Eh   :
          :   grad. convergence          0.1000000E-02 Eh/α :
          :   maxmium RF displ.          1.0000000          :
          :   Hlow (freq-cutoff)         0.1000000E-01      :
          :   Hmax (freq-cutoff)         5.0000000          :
          :   S6 in model hess.         20.0000000          :
          ...................................................

generating ANC from exact Hessian ...
Using Lindh-Hessian (1995)
 Shifting diagonal of input Hessian by    9.6047684325508351E-003
 Lowest  eigenvalues of input Hessian
    0.000000    0.000000    0.000000    0.000000    0.000000    0.000000
    0.010000    0.010684    0.010898    0.011693    0.012139    0.013553
    0.015303    0.017415    0.017879    0.019388    0.020600    0.022630
 Highest eigenvalues
    2.185733    2.250031    2.553367    2.847211    3.021407    3.037096


........................................................................
.............................. CYCLE    1 ..............................
........................................................................

 iter      E             dE          RMSdq      gap      omega  full diag
   1    -57.0189626 -0.570190E+02  0.555E-05    2.82       0.0  T
   2    -57.0189626 -0.139551E-10  0.325E-05    2.82     527.3  T
   3    -57.0189626 -0.504485E-12  0.182E-05    2.82     941.3  T
     SCC iter.                  ...        0 min,  0.004 sec
     gradient                   ...        0 min,  0.002 sec
 * total energy  :   -55.9149784 Eh     change       -0.1967990E-09 Eh
   gradient norm :     1.2444678 Eh/α   predicted     0.0000000E+00 (-100.00%)
   displ. norm   :     0.5208759 α      lambda       -0.5991621E+00
   maximum displ.:     0.2420001 α      in ANC's #87, #96, #91, ...

........................................................................
.............................. CYCLE    2 ..............................
........................................................................

 iter      E             dE          RMSdq      gap      omega  full diag
   1    -57.0790641 -0.570791E+02  0.939E-01    3.38       0.0  T
   2    -57.0870361 -0.797198E-02  0.696E-01    3.45       1.0  T
   3    -57.0983261 -0.112900E-01  0.301E-01    3.32       1.0  T
   4    -57.0985684 -0.242281E-03  0.122E-01    3.32       1.0  T
   5    -57.0987435 -0.175177E-03  0.299E-02    3.31       1.0  T
   6    -57.0987606 -0.170971E-04  0.137E-02    3.32       1.3  T
   7    -57.0987635 -0.285988E-05  0.641E-03    3.32       2.7  T
   8    -57.0987640 -0.529608E-06  0.250E-03    3.32       6.9  T
   9    -57.0987641 -0.361830E-07  0.983E-04    3.32      17.4  T
  10    -57.0987641 -0.821338E-08  0.413E-04    3.32      41.5  T
     SCC iter.                  ...        0 min,  0.014 sec
     gradient                   ...        0 min,  0.002 sec
 * total energy  :   -56.3026373 Eh     change       -0.3876590E+00 Eh
   gradient norm :     0.4671569 Eh/α   predicted    -0.3808674E+00 (  -1.75%)
   displ. norm   :     0.5150889 α      lambda       -0.1929670E+00
   maximum displ.:     0.1616723 α      in ANC's #56, #91, #52, ...

........................................................................
.............................. CYCLE    3 ..............................
........................................................................

 iter      E             dE          RMSdq      gap      omega  full diag
   1    -57.1915189 -0.571915E+02  0.667E-01    3.47       0.0  T
   2    -57.1939557 -0.243681E-02  0.413E-01    3.53       1.0  T
   3    -57.1949576 -0.100185E-02  0.249E-01    3.48       1.0  T
   4    -57.1954620 -0.504453E-03  0.697E-02    3.49       1.0  T
   5    -57.1955659 -0.103933E-03  0.169E-02    3.50       1.0  T
   6    -57.1955709 -0.492507E-05  0.806E-03    3.50       2.1  T
   7    -57.1955712 -0.320884E-06  0.325E-03    3.50       5.3  T
   8    -57.1955714 -0.205282E-06  0.103E-03    3.50      16.7  T
   9    -57.1955714 -0.763271E-08  0.462E-04    3.50      37.1  T
  10    -57.1955714 -0.144692E-08  0.160E-04    3.50     107.0  T
     SCC iter.                  ...        0 min,  0.012 sec
     gradient                   ...        0 min,  0.002 sec
 * total energy  :   -56.4380610 Eh     change       -0.1354236E+00 Eh
   gradient norm :     0.1786751 Eh/α   predicted    -0.1220822E+00 (  -9.85%)
   displ. norm   :     0.4353981 α      lambda       -0.5507401E-01
   maximum displ.:     0.1133139 α      in ANC's #23, #52, #41, ...

........................................................................
.............................. CYCLE    4 ..............................
........................................................................

 iter      E             dE          RMSdq      gap      omega  full diag
   1    -57.2268348 -0.572268E+02  0.483E-01    3.40       0.0  T
   2    -57.2276972 -0.862375E-03  0.297E-01    3.43       1.0  T
   3    -57.2278047 -0.107562E-03  0.181E-01    3.44       1.0  T
   4    -57.2281946 -0.389848E-03  0.421E-02    3.43       1.0  T
   5    -57.2282360 -0.414565E-04  0.108E-02    3.44       1.6  T
   6    -57.2282382 -0.219814E-05  0.543E-03    3.43       3.2  T
   7    -57.2282384 -0.172873E-06  0.216E-03    3.44       7.9  T
   8    -57.2282385 -0.742725E-07  0.655E-04    3.44      26.2  T
   9    -57.2282385 -0.385474E-08  0.336E-04    3.44      51.0  T
     SCC iter.                  ...        0 min,  0.012 sec
     gradient                   ...        0 min,  0.001 sec
 * total energy  :   -56.4706552 Eh     change       -0.3259419E-01 Eh
   gradient norm :     0.0685869 Eh/α   predicted    -0.3275774E-01 (   0.50%)
   displ. norm   :     0.3668339 α      lambda       -0.1246410E-01
   maximum displ.:     0.1555399 α      in ANC's #23, #12, #11, ...

........................................................................
.............................. CYCLE    5 ..............................
........................................................................

 iter      E             dE          RMSdq      gap      omega  full diag
   1    -57.2164944 -0.572165E+02  0.301E-01    3.47       0.0  T
   2    -57.2165743 -0.799019E-04  0.179E-01    3.48       1.0  T
   3    -57.2164296  0.144647E-03  0.860E-02    3.48       1.0  T
   4    -57.2166103 -0.180677E-03  0.127E-02    3.48       1.3  T
   5    -57.2166146 -0.428724E-05  0.496E-03    3.48       3.5  T
   6    -57.2166149 -0.288992E-06  0.241E-03    3.48       7.1  T
   7    -57.2166149 -0.476443E-07  0.863E-04    3.48      19.9  T
   8    -57.2166149 -0.126900E-07  0.313E-04    3.48      54.9  T
     SCC iter.                  ...        0 min,  0.011 sec
     gradient                   ...        0 min,  0.002 sec
 * total energy  :   -56.4771720 Eh     change       -0.6516872E-02 Eh
   gradient norm :     0.0471181 Eh/α   predicted    -0.7070704E-02 (   8.50%)
   displ. norm   :     0.2809642 α      lambda       -0.5378278E-02
   maximum displ.:     0.1346152 α      in ANC's #10, #16, #8, ...

........................................................................
.............................. CYCLE    6 ..............................
........................................................................

 iter      E             dE          RMSdq      gap      omega  full diag
   1    -57.2300939 -0.572301E+02  0.220E-01    3.52       0.0  T
   2    -57.2301217 -0.278545E-04  0.130E-01    3.51       1.0  T
   3    -57.2300867  0.350844E-04  0.389E-02    3.51       1.0  T
   4    -57.2301301 -0.434849E-04  0.705E-03    3.51       2.4  T
   5    -57.2301310 -0.859834E-06  0.310E-03    3.51       5.5  T
   6    -57.2301311 -0.589914E-07  0.157E-03    3.51      10.9  T
   7    -57.2301311 -0.412737E-07  0.540E-04    3.51      31.8  T
   8    -57.2301311 -0.434222E-08  0.255E-04    3.51      67.2  T
     SCC iter.                  ...        0 min,  0.012 sec
     gradient                   ...        0 min,  0.002 sec
 * total energy  :   -56.4795070 Eh     change       -0.2334983E-02 Eh
   gradient norm :     0.0331084 Eh/α   predicted    -0.2901425E-02 (  24.26%)
   displ. norm   :     0.1602360 α      lambda       -0.2293447E-02
   maximum displ.:     0.0671706 α      in ANC's #23, #8, #6, ...

........................................................................
.............................. CYCLE    7 ..............................
........................................................................

 iter      E             dE          RMSdq      gap      omega  full diag
   1    -57.2392982 -0.572393E+02  0.128E-01    3.53       0.0  T
   2    -57.2393124 -0.141602E-04  0.762E-02    3.53       1.0  T
   3    -57.2392921  0.203344E-04  0.308E-02    3.53       1.0  T
   4    -57.2393170 -0.248969E-04  0.595E-03    3.53       2.9  T
   5    -57.2393178 -0.856240E-06  0.186E-03    3.53       9.2  T
   6    -57.2393178 -0.277764E-07  0.114E-03    3.53      15.0  T
   7    -57.2393179 -0.120383E-07  0.325E-04    3.53      52.8  T
   8    -57.2393179 -0.212460E-08  0.122E-04    3.53     140.9  T
     SCC iter.                  ...        0 min,  0.012 sec
     gradient                   ...        0 min,  0.001 sec
 * total energy  :   -56.4805195 Eh     change       -0.1012449E-02 Eh
   gradient norm :     0.0216937 Eh/α   predicted    -0.1176166E-02 (  16.17%)
   displ. norm   :     0.0909788 α      lambda       -0.7090247E-03
   maximum displ.:     0.0436632 α      in ANC's #12, #4, #9, ...

........................................................................
.............................. CYCLE    8 ..............................
........................................................................

 iter      E             dE          RMSdq      gap      omega  full diag
   1    -57.2397771 -0.572398E+02  0.538E-02    3.54       0.0  T
   2    -57.2397843 -0.714085E-05  0.317E-02    3.54       1.0  T
   3    -57.2397810  0.330507E-05  0.172E-02    3.54       1.0  T
   4    -57.2397862 -0.524261E-05  0.413E-03    3.54       4.1  T
   5    -57.2397867 -0.441243E-06  0.108E-03    3.54      15.9  T
   6    -57.2397867 -0.129214E-07  0.580E-04    3.54      29.6  T
   7    -57.2397867 -0.224279E-08  0.236E-04    3.54      72.5  T
     SCC iter.                  ...        0 min,  0.008 sec
     gradient                   ...        0 min,  0.002 sec
 * total energy  :   -56.4809533 Eh     change       -0.4338426E-03 Eh
   gradient norm :     0.0099707 Eh/α   predicted    -0.3574573E-03 ( -17.61%)
   displ. norm   :     0.0984545 α      lambda       -0.2816954E-03
   maximum displ.:     0.0440772 α      in ANC's #5, #4, #9, ...

........................................................................
.............................. CYCLE    9 ..............................
........................................................................

 iter      E             dE          RMSdq      gap      omega  full diag
   1    -57.2399350 -0.572399E+02  0.438E-02    3.53       0.0  T
   2    -57.2399381 -0.315411E-05  0.252E-02    3.53       1.0  T
   3    -57.2399371  0.105325E-05  0.893E-03    3.53       1.9  T
   4    -57.2399386 -0.157617E-05  0.247E-03    3.53       6.9  T
   5    -57.2399388 -0.142354E-06  0.922E-04    3.53      18.6  T
   6    -57.2399388 -0.343884E-08  0.519E-04    3.53      33.0  T
     SCC iter.                  ...        0 min,  0.007 sec
     gradient                   ...        0 min,  0.002 sec
 * total energy  :   -56.4811363 Eh     change       -0.1829563E-03 Eh
   gradient norm :     0.0070906 Eh/α   predicted    -0.1422142E-03 ( -22.27%)
   displ. norm   :     0.1004172 α      lambda       -0.1696483E-03
   maximum displ.:     0.0447630 α      in ANC's #4, #5, #12, ...

........................................................................
.............................. CYCLE   10 ..............................
........................................................................

 iter      E             dE          RMSdq      gap      omega  full diag
   1    -57.2403294 -0.572403E+02  0.415E-02    3.52       0.0  T
   2    -57.2403312 -0.179317E-05  0.242E-02    3.52       1.0  T
   3    -57.2403301  0.108448E-05  0.782E-03    3.52       2.2  T
   4    -57.2403316 -0.147862E-05  0.200E-03    3.52       8.6  T
   5    -57.2403317 -0.878374E-07  0.901E-04    3.52      19.0  T
   6    -57.2403317 -0.364521E-08  0.464E-04    3.52      36.9  T
     SCC iter.                  ...        0 min,  0.010 sec
     gradient                   ...        0 min,  0.001 sec
 * total energy  :   -56.4812301 Eh     change       -0.9386930E-04 Eh
   gradient norm :     0.0063468 Eh/α   predicted    -0.8568787E-04 (  -8.72%)
   displ. norm   :     0.0567028 α      lambda       -0.6950185E-04
   maximum displ.:     0.0285305 α      in ANC's #5, #11, #4, ...

........................................................................
.............................. CYCLE   11 ..............................
........................................................................

 iter      E             dE          RMSdq      gap      omega  full diag
   1    -57.2409764 -0.572410E+02  0.248E-02    3.51       0.0  T
   2    -57.2409769 -0.487463E-06  0.141E-02    3.51       1.2  T
   3    -57.2409764  0.428105E-06  0.507E-03    3.51       3.4  T
   4    -57.2409770 -0.566058E-06  0.113E-03    3.51      15.2  T
   5    -57.2409770 -0.267858E-07  0.532E-04    3.51      32.2  T
   6    -57.2409770 -0.287017E-08  0.228E-04    3.51      75.1  T
     SCC iter.                  ...        0 min,  0.006 sec
     gradient                   ...        0 min,  0.003 sec
 * total energy  :   -56.4812719 Eh     change       -0.4181385E-04 Eh
   gradient norm :     0.0042800 Eh/α   predicted    -0.3486532E-04 ( -16.62%)
   displ. norm   :     0.0362926 α      lambda       -0.3363645E-04
   maximum displ.:     0.0144058 α      in ANC's #7, #6, #5, ...

........................................................................
.............................. CYCLE   12 ..............................
........................................................................

 iter      E             dE          RMSdq      gap      omega  full diag
   1    -57.2406005 -0.572406E+02  0.180E-02    3.51       0.0  T
   2    -57.2406010 -0.480601E-06  0.104E-02    3.51       1.7  T
   3    -57.2406007  0.303243E-06  0.424E-03    3.51       4.0  T
   4    -57.2406011 -0.389197E-06  0.120E-03    3.51      14.3  T
   5    -57.2406011 -0.418248E-07  0.352E-04    3.51      48.8  T
   6    -57.2406011 -0.101658E-08  0.194E-04    3.51      88.4  T
     SCC iter.                  ...        0 min,  0.007 sec
     gradient                   ...        0 min,  0.002 sec
 * total energy  :   -56.4812946 Eh     change       -0.2265397E-04 Eh
   gradient norm :     0.0026433 Eh/α   predicted    -0.1684664E-04 ( -25.63%)
   displ. norm   :     0.0399229 α      lambda       -0.2237518E-04
   maximum displ.:     0.0183431 α      in ANC's #6, #3, #14, ...

........................................................................
.............................. CYCLE   13 ..............................
........................................................................

 iter      E             dE          RMSdq      gap      omega  full diag
   1    -57.2404339 -0.572404E+02  0.190E-02    3.50       0.0  T
   2    -57.2404344 -0.436640E-06  0.110E-02    3.50       1.6  T
   3    -57.2404340  0.404557E-06  0.443E-03    3.50       3.9  T
   4    -57.2404345 -0.501121E-06  0.117E-03    3.50      14.7  T
   5    -57.2404345 -0.384883E-07  0.374E-04    3.50      45.8  T
   6    -57.2404345 -0.922455E-09  0.196E-04    3.50      87.3  T
     SCC iter.                  ...        0 min,  0.009 sec
     gradient                   ...        0 min,  0.002 sec
 * total energy  :   -56.4813088 Eh     change       -0.1421126E-04 Eh
   gradient norm :     0.0018989 Eh/α   predicted    -0.1120763E-04 ( -21.14%)
   displ. norm   :     0.0514581 α      lambda       -0.1209833E-04
   maximum displ.:     0.0241443 α      in ANC's #3, #6, #5, ...

........................................................................
.............................. CYCLE   14 ..............................
........................................................................

 iter      E             dE          RMSdq      gap      omega  full diag
   1    -57.2400490 -0.572400E+02  0.238E-02    3.51       0.0  T
   2    -57.2400492 -0.259095E-06  0.139E-02    3.51       1.2  T
   3    -57.2400487  0.596114E-06  0.445E-03    3.51       3.9  T
   4    -57.2400494 -0.700487E-06  0.856E-04    3.51      20.0  T
   5    -57.2400494 -0.157138E-07  0.374E-04    3.51      45.9  T
     SCC iter.                  ...        0 min,  0.005 sec
     gradient                   ...        0 min,  0.005 sec
 * total energy  :   -56.4813183 Eh     change       -0.9461218E-05 Eh
   gradient norm :     0.0017407 Eh/α   predicted    -0.6057987E-05 ( -35.97%)
   displ. norm   :     0.0317407 α      lambda       -0.6806260E-05
   maximum displ.:     0.0149586 α      in ANC's #3, #5, #9, ...

........................................................................
.............................. CYCLE   15 ..............................
........................................................................

 iter      E             dE          RMSdq      gap      omega  full diag
   1    -57.2401521 -0.572402E+02  0.129E-02    3.51       0.0  T
   2    -57.2401521 -0.465548E-07  0.752E-03    3.51       2.3  T
   3    -57.2401521  0.581140E-07  0.147E-03    3.51      11.7  T
   4    -57.2401522 -0.762666E-07  0.326E-04    3.51      52.6  T
   5    -57.2401522 -0.130063E-08  0.175E-04    3.51      98.2  T
     SCC iter.                  ...        0 min,  0.006 sec
     gradient                   ...        0 min,  0.004 sec
 * total energy  :   -56.4813245 Eh     change       -0.6249513E-05 Eh
   gradient norm :     0.0014114 Eh/α   predicted    -0.3406441E-05 ( -45.49%)
   displ. norm   :     0.0383624 α      lambda       -0.6134296E-05
   maximum displ.:     0.0206618 α      in ANC's #3, #5, #2, ...

........................................................................
.............................. CYCLE   16 ..............................
........................................................................

 iter      E             dE          RMSdq      gap      omega  full diag
   1    -57.2403843 -0.572404E+02  0.139E-02    3.51       0.0  T
   2    -57.2403844 -0.928131E-07  0.812E-03    3.51       2.1  T
   3    -57.2403843  0.145590E-06  0.234E-03    3.51       7.3  T
   4    -57.2403845 -0.181511E-06  0.380E-04    3.51      45.1  T
   5    -57.2403845 -0.187572E-08  0.192E-04    3.51      89.1  T
     SCC iter.                  ...        0 min,  0.006 sec
     gradient                   ...        0 min,  0.004 sec
 * total energy  :   -56.4813294 Eh     change       -0.4897841E-05 Eh
   gradient norm :     0.0015011 Eh/α   predicted    -0.3070981E-05 ( -37.30%)
   displ. norm   :     0.0359577 α      lambda       -0.3938005E-05
   maximum displ.:     0.0202148 α      in ANC's #3, #5, #2, ...

........................................................................
.............................. CYCLE   17 ..............................
........................................................................

 iter      E             dE          RMSdq      gap      omega  full diag
   1    -57.2403183 -0.572403E+02  0.130E-02    3.51       0.0  T
   2    -57.2403184 -0.923068E-07  0.753E-03    3.51       2.3  T
   3    -57.2403183  0.138530E-06  0.216E-03    3.51       7.9  T
   4    -57.2403184 -0.173443E-06  0.349E-04    3.51      49.1  T
   5    -57.2403184 -0.210410E-08  0.177E-04    3.51      97.0  T
     SCC iter.                  ...        0 min,  0.006 sec
     gradient                   ...        0 min,  0.001 sec
 * total energy  :   -56.4813326 Eh     change       -0.3145313E-05 Eh
   gradient norm :     0.0011006 Eh/α   predicted    -0.1973361E-05 ( -37.26%)
   displ. norm   :     0.0234050 α      lambda       -0.2001451E-05
   maximum displ.:     0.0144946 α      in ANC's #3, #2, #6, ...

........................................................................
.............................. CYCLE   18 ..............................
........................................................................

 iter      E             dE          RMSdq      gap      omega  full diag
   1    -57.2402562 -0.572403E+02  0.830E-03    3.51       0.0  T
   2    -57.2402563 -0.902072E-07  0.479E-03    3.51       3.6  T
   3    -57.2402563  0.402142E-07  0.171E-03    3.51      10.0  T
   4    -57.2402563 -0.585913E-07  0.321E-04    3.51      53.4  T
   5    -57.2402563 -0.244127E-08  0.130E-04    3.51     131.7  T
     SCC iter.                  ...        0 min,  0.009 sec
     gradient                   ...        0 min,  0.001 sec
 * total energy  :   -56.4813341 Eh     change       -0.1503209E-05 Eh
   gradient norm :     0.0006026 Eh/α   predicted    -0.1005054E-05 ( -33.14%)
   displ. norm   :     0.0072553 α      lambda       -0.6078963E-06
   maximum displ.:     0.0043090 α      in ANC's #3, #1, #2, ...

   *** GEOMETRY OPTIMIZATION CONVERGED AFTER 18 ITERATIONS ***

------------------------------------------------------------------------
 total energy gain   :        -0.5663557 Eh     -355.3936 kcal/mol
 total RMSD          :         0.2955296 a0        0.1564 Å
 total power (kW/mol):       -82.6092598 (step)-6112.0870 (real)
------------------------------------------------------------------------

 ANCopt (total)                0 d,  0 h,  0 min,  0.243 sec
 optimizer setup                ...        0 min,  0.000 sec (  0.081%)
 model hessian                  ...        0 min,  0.010 sec (  4.042%)
 ANC generation                 ...        0 min,  0.001 sec (  0.312%)
 coordinate transformation      ...        0 min,  0.000 sec (  0.049%)
 single point calculation       ...        0 min,  0.219 sec ( 89.938%)
 optimization log               ...        0 min,  0.001 sec (  0.589%)
 hessian update                 ...        0 min,  0.007 sec (  2.686%)
 rational function              ...        0 min,  0.002 sec (  0.864%)

================
 final structure:
================
34
 xtb: 6.7.1-6.fc44.fc44
O           -1.06250855456314        2.47974894702843        0.18777576694199
C           -0.61716855395394        2.17438551692422       -1.01166169578645
O            0.30808653324541        2.72848243189285       -1.53557427462898
H           -1.77433676389482        1.84956925270624        0.49911574968078
C           -1.42546191057371        1.08275967054701       -1.75078500734831
H           -0.99901011940695        0.95564385852088       -2.74478518580978
H           -2.45421020341022        1.45679093590902       -1.84259504638937
N           -1.44367226274846       -0.20157332845883       -1.08252103537825
H           -0.99811293116775       -0.99780196413677       -1.51773511515588
C           -2.06543571882555       -0.44546005219559        0.07481307908216
O           -2.60491816842054        0.42240706065438        0.75349028733914
C           -2.02615720602823       -1.90839954060620        0.49051917300460
H           -2.90526886229410       -2.09424859294210        1.13023054167321
N           -1.98305141486470       -2.74707223445159       -0.70050590920183
H           -2.86935449865262       -2.70867560653483       -1.19310158971458
H           -1.81601989408584       -3.71287472502939       -0.44030078007209
C           -0.75455041040757       -2.14123649829938        1.33863219311994
H           -0.69403637224752       -3.20678405853873        1.57461048693818
H           -0.85780029309822       -1.58639264313696        2.27135227424055
C            0.47766162009268       -1.69451786481312        0.62530559794457
C            1.15933236385535       -2.35509529259090       -0.35614729784672
H            0.98200988594630       -3.32986312886083       -0.76799523387179
N            2.19351214621271       -1.58217014667851       -0.81074624590462
H            2.85604041868972       -1.84949011893448       -1.51821716880077
C            2.20173452490639       -0.39955906668620       -0.12514791050725
C            3.04281163877388        0.70044991693269       -0.23062115149353
H            3.85307759059130        0.71614476850140       -0.94445322463278
C            2.79839930872276        1.76947647368704        0.60247617147410
H            3.42545620369498        2.64546603334741        0.54073759051071
C            1.74800508411026        1.74875478801076        1.52358668528967
H            1.58725963651967        2.61065950333737        2.15294534531056
C            0.90988223854673        0.66338861431796        1.63082787720296
H            0.09381282489160        0.66359610434263        2.33806743031020
C            1.12787874400934       -0.43147594062055        0.79426570999887

 Bond Distances (Angstroems)
 ---------------------------
O1-C2=1.3154         O1-H4=1.0004         C2-O1=1.3154         C2-O3=1.1990         C2-C5=1.5464         O3-C2=1.1990         
H4-O1=1.0004         C5-C2=1.5464         C5-H6=1.0891         C5-H7=1.0985         C5-N8=1.4479         H6-C5=1.0891         
H7-C5=1.0985         N8-C5=1.4479         N8-H9=1.0109         N8-C10=1.3362        H9-N8=1.0109         C10-N8=1.3362        
C10-O11=1.2267       C10-C12=1.5214       O11-C10=1.2267       C12-C10=1.5214       C12-H13=1.1030       C12-N14=1.4573       
C12-C17=1.5461       H13-C12=1.1030       N14-C12=1.4573       N14-H15=1.0147       N14-H16=1.0141       H15-N14=1.0147       
H16-N14=1.0141       C17-C12=1.5461       C17-H18=1.0930       C17-H19=1.0902       C17-C20=1.4922       H18-C17=1.0930       
H19-C17=1.0902       C20-C17=1.4922       C20-C21=1.3654       C20-C34=1.4306       C21-C20=1.3654       C21-H22=1.0730       
C21-N23=1.3688       H22-C21=1.0730       N23-C21=1.3688       N23-H24=1.0054       N23-C25=1.3670       H24-N23=1.0054       
C25-N23=1.3670       C25-C26=1.3887       C25-C34=1.4140       C26-C25=1.3887       C26-H27=1.0800       C26-C28=1.3772       
H27-C26=1.0800       C28-C26=1.3772       C28-H29=1.0791       C28-C30=1.3972       H29-C28=1.0791       C30-C28=1.3972       
C30-H31=1.0793       C30-C32=1.3755       H31-C30=1.0793       C32-C30=1.3755       C32-H33=1.0799       C32-C34=1.3950       
H33-C32=1.0799       C34-C20=1.4306       C34-C25=1.4140       C34-C32=1.3950       
 C  H  Rav=1.0865 sigma=0.0093  Rmin=1.0730  Rmax=1.1030    10
 C  C  Rav=1.4375 sigma=0.0663  Rmin=1.3654  Rmax=1.5464    12
 N  H  Rav=1.0113 sigma=0.0037  Rmin=1.0054  Rmax=1.0147     4
 N  C  Rav=1.3954 sigma=0.0482  Rmin=1.3362  Rmax=1.4573     5
 O  H  Rav=1.0004 sigma=0.0000  Rmin=1.0004  Rmax=1.0004     1
 O  C  Rav=1.2470 sigma=0.0496  Rmin=1.1990  Rmax=1.3154     3

 selected bond angles (degree)
 --------------------
H4-O1-C2=112.24                O3-C2-O1=123.53                C5-C2-O1=115.01                C5-C2-O3=121.38                
H6-C5-C2=108.30                H7-C5-C2=106.80                H7-C5-H6=109.28                N8-C5-C2=114.34                
N8-C5-H6=108.82                N8-C5-H7=109.20                H9-N8-C5=119.63                C10-N8-C5=124.58               
C10-N8-H9=115.74               O11-C10-N8=123.69              C12-C10-N8=113.59              C12-C10-O11=122.72             

 selected dihedral angles (degree)
 ---------------------------------
O3-C2-O1-H4=186.14            C5-C2-O1-H4=  9.28            H6-C5-C2-O1=176.95            H6-C5-C2-O3=  0.00            
H7-C5-C2-O1= 59.36            H7-C5-C2-O3=242.43            N8-C5-C2-O1=298.46            N8-C5-C2-O3=121.52            
H9-N8-C5-C2=245.56            H9-N8-C5-H6=  6.78            H9-N8-C5-H7=125.99            C10-N8-C5-C2= 68.43           
C10-N8-C5-H6=189.64           C10-N8-C5-H7=308.86           O11-C10-N8-C5=354.09          O11-C10-N8-H9=176.86          
C12-C10-N8-C5=174.97          C12-C10-N8-H9=357.73          
           -------------------------------------------------
          |                Final Singlepoint                |
           -------------------------------------------------

          ...................................................
          :                      SETUP                      :
          :.................................................:
          :  # basis functions                  91          :
          :  # atomic orbitals                  91          :
          :  # shells                           53          :
          :  # electrons                       100          :
          :  max. iterations                   250          :
          :  Hamiltonian                  GFN2-xTB          :
          :  restarted?                      false          :
          :  GBSA solvation                  false          :
          :  PC potential                    false          :
          :  electronic temp.          300.0000000     K    :
          :  accuracy                    1.0000000          :
          :  -> integral cutoff          0.2500000E+02      :
          :  -> integral neglect         0.1000000E-07      :
          :  -> SCF convergence          0.1000000E-05 Eh   :
          :  -> wf. convergence          0.1000000E-03 e    :
          :  Broyden damping             0.4000000          :
          :  net charge                          0          :
          :  unpaired electrons                  0          :
          ...................................................

 iter      E             dE          RMSdq      gap      omega  full diag
   1    -57.2402563 -0.572403E+02  0.685E-05    3.51       0.0  T
   2    -57.2402563 -0.268372E-10  0.443E-05    3.51     386.8  T
   3    -57.2402563 -0.186944E-10  0.288E-05    3.51     595.5  T

   *** convergence criteria satisfied after 3 iterations ***

         #    Occupation            Energy/Eh            Energy/eV
      -------------------------------------------------------------
         1        2.0000           -0.7290864             -19.8395
       ...           ...                  ...                  ...
        44        2.0000           -0.4178997             -11.3716
        45        2.0000           -0.4103589             -11.1664
        46        2.0000           -0.4085498             -11.1172
        47        2.0000           -0.3990396             -10.8584
        48        2.0000           -0.3947072             -10.7405
        49        2.0000           -0.3763832             -10.2419
        50        2.0000           -0.3608079              -9.8181 (HOMO)
        51                         -0.2317964              -6.3075 (LUMO)
        52                         -0.2255592              -6.1378
        53                         -0.2253005              -6.1307
        54                         -0.1901158              -5.1733
        55                         -0.1581779              -4.3042
       ...                                ...                  ...
        91                          0.7233479              19.6833
      -------------------------------------------------------------
                  HL-Gap            0.1290115 Eh            3.5106 eV
             Fermi-level           -0.2963021 Eh           -8.0628 eV

 SCC (total)                   0 d,  0 h,  0 min,  0.007 sec
 SCC setup                      ...        0 min,  0.000 sec (  2.571%)
 Dispersion                     ...        0 min,  0.000 sec (  1.396%)
 classical contributions        ...        0 min,  0.000 sec (  0.162%)
 integral evaluation            ...        0 min,  0.001 sec ( 13.406%)
 iterations                     ...        0 min,  0.004 sec ( 58.767%)
 molecular gradient             ...        0 min,  0.001 sec ( 20.992%)
 printout                       ...        0 min,  0.000 sec (  2.622%)

         :::::::::::::::::::::::::::::::::::::::::::::::::::::
         ::                     SUMMARY                     ::
         :::::::::::::::::::::::::::::::::::::::::::::::::::::
         :: total energy             -56.481334061702 Eh    ::
         :: gradient norm              0.000602226328 Eh/a0 ::
         :: HOMO-LUMO gap              3.510580616219 eV    ::
         ::.................................................::
         :: SCC energy               -57.239184836165 Eh    ::
         :: -> isotropic ES            0.098325652724 Eh    ::
         :: -> anisotropic ES          0.004555537764 Eh    ::
         :: -> anisotropic XC          0.019251002007 Eh    ::
         :: -> dispersion             -0.040635703432 Eh    ::
         :: repulsion energy           0.757850774463 Eh    ::
         :: add. restraining           0.000000000000 Eh    ::
         :: total charge              -0.000000000000 e     ::
         :::::::::::::::::::::::::::::::::::::::::::::::::::::

           -------------------------------------------------
          |                Property Printout                |
           -------------------------------------------------

    * Orbital Energies and Occupations

         #    Occupation            Energy/Eh            Energy/eV
      -------------------------------------------------------------
         1        2.0000           -0.7290864             -19.8395
       ...           ...                  ...                  ...
        38        2.0000           -0.4609032             -12.5418
        39        2.0000           -0.4582146             -12.4687
        40        2.0000           -0.4474214             -12.1750
        41        2.0000           -0.4466365             -12.1536
        42        2.0000           -0.4421919             -12.0327
        43        2.0000           -0.4201792             -11.4337
        44        2.0000           -0.4178997             -11.3716
        45        2.0000           -0.4103589             -11.1664
        46        2.0000           -0.4085498             -11.1172
        47        2.0000           -0.3990396             -10.8584
        48        2.0000           -0.3947072             -10.7405
        49        2.0000           -0.3763832             -10.2419
        50        2.0000           -0.3608079              -9.8181 (HOMO)
        51                         -0.2317964              -6.3075 (LUMO)
        52                         -0.2255592              -6.1378
        53                         -0.2253005              -6.1307
        54                         -0.1901158              -5.1733
        55                         -0.1581779              -4.3042
        56                         -0.0647436              -1.7618
        57                         -0.0157531              -0.4287
        58                          0.0205307               0.5587
        59                          0.0227637               0.6194
        60                          0.0648014               1.7633
        61                          0.0859000               2.3375
       ...                                ...                  ...
        91                          0.7233479              19.6833
      -------------------------------------------------------------
                  HL-Gap            0.1290115 Eh            3.5106 eV
             Fermi-level           -0.2963021 Eh           -8.0628 eV

     #   Z          covCN         q      C6AA      α(0)
     1   8 O        1.654    -0.374    20.354     6.090
     2   6 C        2.684     0.359    20.901     7.482
     3   8 O        0.856    -0.381    21.310     6.189
     4   1 H        0.799     0.367     0.551     1.167
     5   6 C        3.736    -0.039    21.357     6.595
     6   1 H        0.925     0.075     2.030     2.228
     7   1 H        0.923     0.073     2.058     2.243
     8   7 N        2.688    -0.161    24.480     7.348
     9   1 H        0.860     0.205     1.081     1.628
    10   6 C        2.756     0.268    22.482     7.764
    11   8 O        0.858    -0.458    22.874     6.412
    12   6 C        3.788     0.032    20.041     6.376
    13   1 H        0.923     0.032     2.564     2.504
    14   7 N        2.633    -0.352    29.059     8.006
    15   1 H        0.860     0.142     1.460     1.893
    16   1 H        0.860     0.151     1.396     1.851
    17   6 C        3.808    -0.060    21.656     6.624
    18   1 H        0.924     0.042     2.423     2.434
    19   1 H        0.925     0.055     2.261     2.351
    20   6 C        3.056    -0.038    28.886     8.814
    21   6 C        3.027    -0.011    28.266     8.721
    22   1 H        0.926     0.030     2.586     2.514
    23   7 N        2.779    -0.108    23.358     7.178
    24   1 H        0.860     0.157     1.357     1.825
    25   6 C        3.084     0.043    26.946     8.509
    26   6 C        2.909    -0.050    29.246     8.868
    27   1 H        0.926     0.025     2.654     2.548
    28   6 C        2.925    -0.028    28.695     8.785
    29   1 H        0.926     0.036     2.508     2.476
    30   6 C        2.920    -0.033    28.822     8.804
    31   1 H        0.926     0.036     2.501     2.473
    32   6 C        2.912    -0.037    28.919     8.818
    33   1 H        0.926     0.029     2.595     2.519
    34   6 C        3.116    -0.025    28.467     8.739

 Mol. C6AA /au·bohr⁶  :      13336.554348
 Mol. C8AA /au·bohr⁸  :     312417.835969
 Mol. α(0) /au        :        178.779726


Wiberg/Mayer (AO) data.
largest (>0.10) Wiberg bond orders for each atom

 ---------------------------------------------------------------------------
     #   Z sym  total        # sym  WBO       # sym  WBO       # sym  WBO
 ---------------------------------------------------------------------------
     1   8 O    2.234 --     2 C    1.206     4 H    0.763     3 O    0.182
     2   6 C    3.932 --     3 O    1.770     1 O    1.206     5 C    0.923
     3   8 O    2.062 --     2 C    1.770     1 O    0.182
     4   1 H    0.865 --     1 O    0.763
     5   6 C    3.965 --     8 N    0.992     6 H    0.975     7 H    0.953
                             2 C    0.923
     6   1 H    0.994 --     5 C    0.975
     7   1 H    0.995 --     5 C    0.953
     8   7 N    3.482 --    10 C    1.309     5 C    0.992     9 H    0.916
                            11 O    0.193
     9   1 H    0.958 --     8 N    0.916
    10   6 C    3.948 --    11 O    1.605     8 N    1.309    12 C    0.954
    11   8 O    2.013 --    10 C    1.605     8 N    0.193
    12   6 C    3.982 --    14 N    1.014    13 H    0.955    17 C    0.954
                            10 C    0.954
    13   1 H    0.998 --    12 C    0.955
    14   7 N    3.016 --    12 C    1.014    15 H    0.966    16 H    0.960
    15   1 H    0.980 --    14 N    0.966
    16   1 H    0.977 --    14 N    0.960
    17   6 C    3.992 --    20 C    1.018    19 H    0.971    18 H    0.967
                            12 C    0.954
    18   1 H    0.997 --    17 C    0.967
    19   1 H    0.997 --    17 C    0.971
    20   6 C    3.974 --    21 C    1.578    34 C    1.201    17 C    1.018
    21   6 C    3.950 --    20 C    1.578    23 N    1.196    22 H    0.970
    22   1 H    0.998 --    21 C    0.970
    23   7 N    3.538 --    21 C    1.196    25 C    1.169    24 H    0.948
    24   1 H    0.975 --    23 N    0.948
    25   6 C    3.958 --    26 C    1.337    34 C    1.255    23 N    1.169
    26   6 C    3.989 --    28 C    1.496    25 C    1.337    27 H    0.968
                            32 C    0.116
    27   1 H    0.999 --    26 C    0.968
    28   6 C    3.991 --    26 C    1.496    30 C    1.371    29 H    0.972
    29   1 H    0.998 --    28 C    0.972
    30   6 C    3.991 --    32 C    1.507    28 C    1.371    31 H    0.971
    31   1 H    0.998 --    30 C    0.971
    32   6 C    3.993 --    30 C    1.507    34 C    1.328    33 H    0.968
                            26 C    0.116
    33   1 H    0.999 --    32 C    0.968
    34   6 C    3.984 --    32 C    1.328    25 C    1.255    20 C    1.201
 ---------------------------------------------------------------------------

Topologies differ in total number of bonds
Writing topology from bond orders to xtbtopo.mol

molecular dipole:
                 x           y           z       tot (Debye)
 q only:       -0.114      -2.135      -0.792
   full:       -0.467      -2.885      -0.950       7.810
molecular quadrupole (traceless):
                xx          xy          yy          xz          yz          zz
 q only:        1.381      -0.716      -3.912       4.262       5.425       2.531
  q+dip:        4.545       2.360      -3.741       1.277       7.856      -0.804
   full:        4.862       1.164      -4.470       3.943       6.362      -0.393

           -------------------------------------------------
          |                Geometry Summary                 |
           -------------------------------------------------

      molecular mass/u    :      261.2770023
   center of mass at/Å    :        0.0205996       0.0119298      -0.0114557
  moments of inertia/u·Å² :        0.9625705E+03   0.1198061E+04   0.1644044E+04
rotational constants/cm⁻¹ :        0.1751314E-01   0.1407076E-01   0.1025376E-01

 * 32 selected distances

     #   Z          #   Z                                           value/Å
     1   8 O        2   6 C                                       1.3153802
     2   6 C        3   8 O                                       1.1990017
     1   8 O        4   1 H                                       1.0003792 (min)
     5   6 C        6   1 H                                       1.0890620
     5   6 C        7   1 H                                       1.0984770
     5   6 C        8   7 N                                       1.4479019
     8   7 N        9   1 H                                       1.0108979
     8   7 N       10   6 C                                       1.3362235
    10   6 C       11   8 O                                       1.2267183
    12   6 C       13   1 H                                       1.1029996
    12   6 C       14   7 N                                       1.4573164
    14   7 N       15   1 H                                       1.0147207
    14   7 N       16   1 H                                       1.0140912
    17   6 C       18   1 H                                       1.0930414
    17   6 C       19   1 H                                       1.0901739
    17   6 C       20   6 C                                       1.4922263 (max)
    20   6 C       21   6 C                                       1.3653892
    21   6 C       22   1 H                                       1.0729560
    21   6 C       23   7 N                                       1.3687957
    23   7 N       24   1 H                                       1.0054447
    23   7 N       25   6 C                                       1.3669974
    25   6 C       26   6 C                                       1.3887244
    26   6 C       27   1 H                                       1.0799693
    26   6 C       28   6 C                                       1.3771734
    28   6 C       29   1 H                                       1.0790597
    28   6 C       30   6 C                                       1.3972124
    30   6 C       31   1 H                                       1.0792643
    30   6 C       32   6 C                                       1.3754892
    32   6 C       33   1 H                                       1.0798876
    20   6 C       34   6 C                                       1.4305961
    25   6 C       34   6 C                                       1.4140391
    32   6 C       34   6 C                                       1.3950224

 * 6 distinct bonds (by element types)

   Z      Z             #   av. dist./Å        max./Å        min./Å
   1 H    6 C          10     1.0864891     1.1029996     1.0729560
   6 C    6 C           9     1.4039858     1.4922263     1.3653892
   1 H    7 N           4     1.0112886     1.0147207     1.0054447
   6 C    7 N           5     1.3954470     1.4573164     1.3362235
   1 H    8 O           1     1.0003792     1.0003792     1.0003792
   6 C    8 O           3     1.2470334     1.3153802     1.1990017


optimized geometry written to: xtbopt.xyz


           -------------------------------------------------
          | TOTAL ENERGY              -56.481334061702 Eh   |
          | GRADIENT NORM               0.000602226328 Eh/α |
          | HOMO-LUMO GAP               3.510580616219 eV   |
           -------------------------------------------------

------------------------------------------------------------------------
 * finished run on 2026/10/01 at 18:05:15.562     
------------------------------------------------------------------------
 total:
 * wall-time:     0 d,  0 h,  0 min,  0.308 sec
 *  cpu-time:     0 d,  0 h,  0 min,  4.630 sec
 * ratio c/w:    15.022 speedup
 SCF:
 * wall-time:     0 d,  0 h,  0 min,  0.033 sec
 *  cpu-time:     0 d,  0 h,  0 min,  0.503 sec
 * ratio c/w:    15.025 speedup
 ANC optimizer:
 * wall-time:     0 d,  0 h,  0 min,  0.251 sec
 *  cpu-time:     0 d,  0 h,  0 min,  3.798 sec
 * ratio c/w:    15.124 speedup


--- STDERR ---
normal termination of xtb
Note: The following floating-point exceptions are signalling: IEEE_UNDERFLOW_FLAG IEEE_DENORMAL
