34
 energy: -56.481334061702 gnorm: 0.000602226328 xtb: 6.7.1-6.fc44.fc44
O           -1.06250855456314        2.47974894702843        0.18777576694199
C           -0.61716855395394        2.17438551692422       -1.01166169578645
O            0.30808653324541        2.72848243189285       -1.53557427462898
H           -1.77433676389482        1.84956925270624        0.49911574968078
C           -1.42546191057371        1.08275967054701       -1.75078500734831
H           -0.99901011940695        0.95564385852088       -2.74478518580978
H           -2.45421020341022        1.45679093590902       -1.84259504638937
N           -1.44367226274846       -0.20157332845883       -1.08252103537825
H           -0.99811293116775       -0.99780196413677       -1.51773511515588
C           -2.06543571882555       -0.44546005219559        0.07481307908216
O           -2.60491816842054        0.42240706065438        0.75349028733914
C           -2.02615720602823       -1.90839954060620        0.49051917300460
H           -2.90526886229410       -2.09424859294210        1.13023054167321
N           -1.98305141486470       -2.74707223445159       -0.70050590920183
H           -2.86935449865262       -2.70867560653483       -1.19310158971458
H           -1.81601989408584       -3.71287472502939       -0.44030078007209
C           -0.75455041040757       -2.14123649829938        1.33863219311994
H           -0.69403637224752       -3.20678405853873        1.57461048693818
H           -0.85780029309822       -1.58639264313696        2.27135227424055
C            0.47766162009268       -1.69451786481312        0.62530559794457
C            1.15933236385535       -2.35509529259090       -0.35614729784672
H            0.98200988594630       -3.32986312886083       -0.76799523387179
N            2.19351214621271       -1.58217014667851       -0.81074624590462
H            2.85604041868972       -1.84949011893448       -1.51821716880077
C            2.20173452490639       -0.39955906668620       -0.12514791050725
C            3.04281163877388        0.70044991693269       -0.23062115149353
H            3.85307759059130        0.71614476850140       -0.94445322463278
C            2.79839930872276        1.76947647368704        0.60247617147410
H            3.42545620369498        2.64546603334741        0.54073759051071
C            1.74800508411026        1.74875478801076        1.52358668528967
H            1.58725963651967        2.61065950333737        2.15294534531056
C            0.90988223854673        0.66338861431796        1.63082787720296
H            0.09381282489160        0.66359610434263        2.33806743031020
C            1.12787874400934       -0.43147594062055        0.79426570999887
