34
frame_0054
O      -3.659148853300000      2.556889439700000     -0.115754535700000
C      -3.495953003700000      2.413058679000000     -1.416983829300000
O      -4.294241951600000      2.792896391600000     -2.225839404100000
H      -2.918157751500000      2.140475262200000      0.405983557200000
C      -2.170426473700000      1.736588804600000     -1.832310887400000
H      -1.351095654300000      2.359436326500000     -1.451507995100000
H      -2.123065999800000      1.699719222900000     -2.919884320500000
N      -2.020051803500000      0.395553356500000     -1.304970691400000
H      -2.136037524700000     -0.400119816400000     -1.917153122100000
C      -1.782117224100000      0.126440418600000     -0.017158322100000
O      -1.772335866600000      0.986878853100000      0.856964155400000
C      -1.530566698000000     -1.350163387400000      0.255146174800000
H      -1.674850390300000     -1.524680578400000      1.333159112600000
N      -2.438651693000000     -2.119514924300000     -0.591919292000000
H      -3.400624697700000     -1.984328990700000     -0.297634777300000
H      -2.232892173800000     -3.109988322900000     -0.518125874600000
C      -0.088055685900000     -1.714219166600000     -0.124135182300000
H       0.058308011400000     -1.498966721000000     -1.186837641600000
H       0.031210296400000     -2.796563797300000      0.002664381300000
C       0.967369472000000     -1.016493353400000      0.673275159500000
C       0.842855412900000     -0.232029841400000      1.781787745400000
H      -0.039414861600000      0.086352492900000      2.300324182800000
N       2.077091690800000      0.183842325600000      2.203605850600000
H       2.245537466500000      0.786391617000000      2.990484381200000
C       3.030615310900000     -0.329452088200000      1.375416523700000
C       4.413532430400000     -0.199037932000000      1.393237507500000
H       4.907662879300000      0.392326922200000      2.150163634600000
C       5.128485121100000     -0.851239310300000      0.412352958500000
H       6.205427154200000     -0.772418019700000      0.396318312400000
C       4.487740848500000     -1.616636909000000     -0.566175527100000
H       5.086683711400000     -2.112184520100000     -1.316200376100000
C       3.117863896300000     -1.749430863000000     -0.589649253700000
H       2.632316508800000     -2.344490913800000     -1.349099913600000
C       2.367590500000000     -1.100433130900000      0.390760744000000
