      -----------------------------------------------------------      
     |                   =====================                   |     
     |                           x T B                           |     
     |                   =====================                   |     
     |                         S. Grimme                         |     
     |          Mulliken Center for Theoretical Chemistry        |     
     |                    University of Bonn                     |     
      -----------------------------------------------------------      

   * xtb version 6.7.1-6.fc44.fc44 compiled by Fedora project on Sun Jan 18 23:32:34 UTC 2026

   xtb is free software: you can redistribute it and/or modify it under
   the terms of the GNU Lesser General Public License as published by
   the Free Software Foundation, either version 3 of the License, or
   (at your option) any later version.
   
   xtb is distributed in the hope that it will be useful,
   but WITHOUT ANY WARRANTY; without even the implied warranty of
   MERCHANTABILITY or FITNESS FOR A PARTICULAR PURPOSE.  See the
   GNU Lesser General Public License for more details.
   
   Cite this work as:
   * C. Bannwarth, E. Caldeweyher, S. Ehlert, A. Hansen, P. Pracht,
     J. Seibert, S. Spicher, S. Grimme, WIREs Comput. Mol. Sci., 2020, 11,
     e01493. DOI: 10.1002/wcms.1493
   
   for GFN2-xTB:
   * C. Bannwarth, S. Ehlert and S. Grimme., J. Chem. Theory Comput., 2019,
     15, 1652-1671. DOI: 10.1021/acs.jctc.8b01176
   for GFN1-xTB:
   * S. Grimme, C. Bannwarth, P. Shushkov, J. Chem. Theory Comput., 2017,
     13, 1989-2009. DOI: 10.1021/acs.jctc.7b00118
   for GFN0-xTB:
   * P. Pracht, E. Caldeweyher, S. Ehlert, S. Grimme, ChemRxiv, 2019, preprint.
     DOI: 10.26434/chemrxiv.8326202.v1
   for GFN-FF:
   * S. Spicher and S. Grimme, Angew. Chem. Int. Ed., 2020, 59, 15665-15673.
     DOI: 10.1002/anie.202004239
   
   for ALPB and GBSA implicit solvation:
   * S. Ehlert, M. Stahn, S. Spicher, S. Grimme, J. Chem. Theory Comput.,
     2021, 17, 4250-4261. DOI: 10.1021/acs.jctc.1c00471
   
   for ddCOSMO and CPCM-X implicit solvation:
   * M. Stahn, S. Ehlert, S. Grimme, J. Phys. Chem. A,
     2023, XX, XXXX-XXXX. DOI: 10.1021/acs.jpca.3c04382
   
   for DFT-D4:
   * E. Caldeweyher, C. Bannwarth and S. Grimme, J. Chem. Phys., 2017,
     147, 034112. DOI: 10.1063/1.4993215
   * E. Caldeweyher, S. Ehlert, A. Hansen, H. Neugebauer, S. Spicher,
     C. Bannwarth and S. Grimme, J. Chem. Phys., 2019, 150, 154122.
     DOI: 10.1063/1.5090222
   * E. Caldeweyher, J.-M. Mewes, S. Ehlert and S. Grimme, Phys. Chem. Chem. Phys.
     2020, 22, 8499-8512. DOI: 10.1039/D0CP00502A
   
   for sTDA-xTB:
   * S. Grimme and C. Bannwarth, J. Chem. Phys., 2016, 145, 054103.
     DOI: 10.1063/1.4959605
   
   in the mass-spec context:
   * V. Asgeirsson, C. Bauer and S. Grimme, Chem. Sci., 2017, 8, 4879.
     DOI: 10.1039/c7sc00601b
   * J. Koopman and S. Grimme, ACS Omega 2019, 4, 12, 15120-15133.
     DOI: 10.1021/acsomega.9b02011
   
   for metadynamics refer to:
   * S. Grimme, J. Chem. Theory Comput., 2019, 155, 2847-2862
     DOI: 10.1021/acs.jctc.9b00143
   
   for SPH calculations refer to:
   * S. Spicher and S. Grimme, J. Chem. Theory Comput., 2021, 17, 1701-1714
     DOI: 10.1021/acs.jctc.0c01306
   
   for ONIOM refer to:
   * C. Plett, A. Katbashev, S. Ehlert, S. Grimme, M. Bursch,
     Phys. Chem. Chem. Phys., 2023, 25, 17860-17868. DOI: 10.1039/D3CP02178E
   
   for DIPRO refer to:
   * J. Kohn, N. Gildemeister, S. Grimme, D. Fazzi, A. Hansen,
     J. Chem. Phys., 2023, just accepted.
   
   for PTB refer to:
   * S. Grimme, M. Mueller, A. Hansen, J. Chem. Phys., 2023, 158, 124111.
     DOI: 10.1063/5.0137838
   
   with help from (in alphabetical order)
   P. Atkinson, C. Bannwarth, F. Bohle, G. Brandenburg, E. Caldeweyher
   M. Checinski, S. Dohm, S. Ehlert, S. Ehrlich, I. Gerasimov, C. Hölzer
   A. Katbashev, J. Kohn, J. Koopman, C. Lavigne, S. Lehtola, F. März, M. Müller,
   F. Musil, H. Neugebauer, J. Pisarek, C. Plett, P. Pracht, F. Pultar,
   J. Seibert, P. Shushkov, S. Spicher, M. Stahn, M. Steiner, T. Strunk,
   J. Stückrath, T. Rose, and J. Unsleber
   
 * started run on 2026/10/01 at 18:03:42.207     
   ID    Z sym.   atoms
    1    8 O      1, 3, 11
    2    6 C      2, 5, 10, 12, 17, 20, 21, 25, 26, 28, 30, 32, 34
    3    1 H      4, 6, 7, 9, 13, 15, 16, 18, 19, 22, 24, 27, 29, 31, 33
    4    7 N      8, 14, 23

           -------------------------------------------------
          |                Calculation Setup                |
           -------------------------------------------------

          program call               : /usr/bin/xtb input.xyz --opt --gfn 2 --chrg 0 --uhf 0
          hostname                   : fedora
          coordinate file            : input.xyz
          omp threads                :                    16


           -------------------------------------------------
          |                 G F N 2 - x T B                 |
           -------------------------------------------------

        Reference                      10.1021/acs.jctc.8b01176
      * Hamiltonian:
        H0-scaling (s, p, d)           1.850000    2.230000    2.230000
        zeta-weighting                 0.500000
      * Dispersion:
        s8                             2.700000
        a1                             0.520000
        a2                             5.000000
        s9                             5.000000
      * Repulsion:
        kExp                           1.500000    1.000000
        rExp                           1.000000
      * Coulomb:
        alpha                          2.000000
        third order                    shell-resolved
        anisotropic                    true
        a3                             3.000000
        a5                             4.000000
        cn-shift                       1.200000
        cn-exp                         4.000000
        max-rad                        5.000000


          ...................................................
          :                      SETUP                      :
          :.................................................:
          :  # basis functions                  91          :
          :  # atomic orbitals                  91          :
          :  # shells                           53          :
          :  # electrons                       100          :
          :  max. iterations                   250          :
          :  Hamiltonian                  GFN2-xTB          :
          :  restarted?                      false          :
          :  GBSA solvation                  false          :
          :  PC potential                    false          :
          :  electronic temp.          300.0000000     K    :
          :  accuracy                    1.0000000          :
          :  -> integral cutoff          0.2500000E+02      :
          :  -> integral neglect         0.1000000E-07      :
          :  -> SCF convergence          0.1000000E-05 Eh   :
          :  -> wf. convergence          0.1000000E-03 e    :
          :  Broyden damping             0.4000000          :
          :  net charge                          0          :
          :  unpaired electrons                  0          :
          ...................................................

 iter      E             dE          RMSdq      gap      omega  full diag
   1    -57.0854271 -0.570854E+02  0.418E+00    3.19       0.0  T
   2    -57.2185231 -0.133096E+00  0.242E+00    3.57       1.0  T
   3    -57.2270195 -0.849639E-02  0.132E+00    3.66       1.0  T
   4    -57.2275772 -0.557741E-03  0.447E-01    3.39       1.0  T
   5    -57.2336222 -0.604501E-02  0.120E-01    3.40       1.0  T
   6    -57.2338291 -0.206894E-03  0.589E-02    3.40       1.0  T
   7    -57.2338694 -0.402592E-04  0.253E-02    3.40       1.0  T
   8    -57.2338700 -0.632783E-06  0.111E-02    3.40       1.5  T
   9    -57.2338720 -0.196157E-05  0.351E-03    3.40       4.9  T
  10    -57.2338720 -0.577767E-07  0.154E-03    3.40      11.1  T
  11    -57.2338721 -0.168365E-07  0.653E-04    3.40      26.3  T
  12    -57.2338721 -0.428194E-08  0.225E-04    3.40      76.2  T

   *** convergence criteria satisfied after 12 iterations ***

         #    Occupation            Energy/Eh            Energy/eV
      -------------------------------------------------------------
         1        2.0000           -0.7381606             -20.0864
       ...           ...                  ...                  ...
        44        2.0000           -0.4242580             -11.5446
        45        2.0000           -0.4184819             -11.3875
        46        2.0000           -0.4149343             -11.2909
        47        2.0000           -0.4052951             -11.0286
        48        2.0000           -0.3996430             -10.8748
        49        2.0000           -0.3835100             -10.4358
        50        2.0000           -0.3653211              -9.9409 (HOMO)
        51                         -0.2402522              -6.5376 (LUMO)
        52                         -0.2333791              -6.3506
        53                         -0.2321995              -6.3185
        54                         -0.1990936              -5.4176
        55                         -0.1585934              -4.3155
       ...                                ...                  ...
        91                          0.7161578              19.4876
      -------------------------------------------------------------
                  HL-Gap            0.1250689 Eh            3.4033 eV
             Fermi-level           -0.3027866 Eh           -8.2392 eV

 SCC (total)                   0 d,  0 h,  0 min,  0.162 sec
 SCC setup                      ...        0 min,  0.000 sec (  0.127%)
 Dispersion                     ...        0 min,  0.009 sec (  5.772%)
 classical contributions        ...        0 min,  0.003 sec (  1.787%)
 integral evaluation            ...        0 min,  0.017 sec ( 10.291%)
 iterations                     ...        0 min,  0.112 sec ( 69.185%)
 molecular gradient             ...        0 min,  0.017 sec ( 10.720%)
 printout                       ...        0 min,  0.003 sec (  2.080%)

         :::::::::::::::::::::::::::::::::::::::::::::::::::::
         ::                     SUMMARY                     ::
         :::::::::::::::::::::::::::::::::::::::::::::::::::::
         :: total energy             -56.476331921564 Eh    ::
         :: gradient norm              0.000133952831 Eh/a0 ::
         :: HOMO-LUMO gap              3.403297021356 eV    ::
         ::.................................................::
         :: SCC energy               -57.233652330820 Eh    ::
         :: -> isotropic ES            0.097872564740 Eh    ::
         :: -> anisotropic ES          0.003983012988 Eh    ::
         :: -> anisotropic XC          0.019459348304 Eh    ::
         :: -> dispersion             -0.033962544302 Eh    ::
         :: repulsion energy           0.757320409256 Eh    ::
         :: add. restraining           0.000000000000 Eh    ::
         :: total charge               0.000000000000 e     ::
         :::::::::::::::::::::::::::::::::::::::::::::::::::::

      ----------------------------------------------------------- 
     |                   =====================                   |
     |                        A N C O P T                        |
     |                   =====================                   |
     |               Approximate Normal Coordinate               |
     |                Rational Function Optimizer                |
      ----------------------------------------------------------- 
      ----------------------------------------------------------- 
     |                   =====================                   |
     |                        A N C O P T                        |
     |                   =====================                   |
     |               Approximate Normal Coordinate               |
     |                Rational Function Optimizer                |
      ----------------------------------------------------------- 

          ...................................................
          :                      SETUP                      :
          :.................................................:
          :   optimization level            normal          :
          :   max. optcycles                   200          :
          :   ANC micro-cycles                  20          :
          :   degrees of freedom                96          :
          :.................................................:
          :   RF solver                   davidson          :
          :   write xtbopt.log                true          :
          :   linear?                        false          :
          :   energy convergence         0.5000000E-05 Eh   :
          :   grad. convergence          0.1000000E-02 Eh/α :
          :   maxmium RF displ.          1.0000000          :
          :   Hlow (freq-cutoff)         0.1000000E-01      :
          :   Hmax (freq-cutoff)         5.0000000          :
          :   S6 in model hess.         20.0000000          :
          ...................................................

generating ANC from exact Hessian ...
Using Lindh-Hessian (1995)
 Shifting diagonal of input Hessian by    9.7027418892902707E-003
 Lowest  eigenvalues of input Hessian
    0.000000    0.000000    0.000000    0.000000    0.000000    0.000000
    0.010000    0.010403    0.010853    0.011712    0.013016    0.014311
    0.016638    0.017808    0.018674    0.019671    0.023900    0.026255
 Highest eigenvalues
    2.000790    2.012881    2.099848    2.209853    2.315899    2.367366


........................................................................
.............................. CYCLE    1 ..............................
........................................................................

 iter      E             dE          RMSdq      gap      omega  full diag
   1    -57.2338721 -0.572339E+02  0.106E-04    3.40       0.0  T
   2    -57.2338721 -0.577671E-10  0.616E-05    3.40     278.4  T
   3    -57.2338721 -0.847677E-11  0.395E-05    3.40     434.3  T
     SCC iter.                  ...        0 min,  0.051 sec
     gradient                   ...        0 min,  0.002 sec
 * total energy  :   -56.4763319 Eh     change       -0.5609380E-09 Eh
   gradient norm :     0.0001326 Eh/α   predicted     0.0000000E+00 (-100.00%)
   displ. norm   :     0.0062077 α      lambda       -0.1727361E-06
   maximum displ.:     0.0061215 α      in ANC's #1, #2, #4, ...

   *** GEOMETRY OPTIMIZATION CONVERGED AFTER 1 ITERATIONS ***

------------------------------------------------------------------------
 total energy gain   :        -0.0000000 Eh       -0.0000 kcal/mol
 total RMSD          :         0.0000000 a0        0.0000 Å
 total power (kW/mol):        -0.0000015 (step)   -0.0000 (real)
------------------------------------------------------------------------

 ANCopt (total)                0 d,  0 h,  0 min,  0.066 sec
 optimizer setup                ...        0 min,  0.000 sec (  0.082%)
 model hessian                  ...        0 min,  0.005 sec (  7.003%)
 ANC generation                 ...        0 min,  0.008 sec ( 11.524%)
 coordinate transformation      ...        0 min,  0.000 sec (  0.024%)
 single point calculation       ...        0 min,  0.053 sec ( 80.462%)
 optimization log               ...        0 min,  0.000 sec (  0.148%)
 hessian update                 ...        0 min,  0.000 sec (  0.001%)
 rational function              ...        0 min,  0.000 sec (  0.242%)

================
 final structure:
================
34
 xtb: 6.7.1-6.fc44.fc44
O           -3.65914885330000        2.55688943970000       -0.11575453570000
C           -3.49595300370000        2.41305867900000       -1.41698382930000
O           -4.29424195160000        2.79289639160000       -2.22583940410000
H           -2.91815775150000        2.14047526220000        0.40598355720000
C           -2.17042647370000        1.73658880460000       -1.83231088740000
H           -1.35109565430000        2.35943632650000       -1.45150799510000
H           -2.12306599980000        1.69971922290000       -2.91988432050000
N           -2.02005180350000        0.39555335650000       -1.30497069140000
H           -2.13603752470000       -0.40011981640000       -1.91715312210000
C           -1.78211722410000        0.12644041860000       -0.01715832210000
O           -1.77233586660000        0.98687885310000        0.85696415540000
C           -1.53056669800000       -1.35016338740000        0.25514617480000
H           -1.67485039030000       -1.52468057840000        1.33315911260000
N           -2.43865169300000       -2.11951492430000       -0.59191929200000
H           -3.40062469770000       -1.98432899070000       -0.29763477730000
H           -2.23289217380000       -3.10998832290000       -0.51812587460000
C           -0.08805568590000       -1.71421916660000       -0.12413518230000
H            0.05830801140000       -1.49896672100000       -1.18683764160000
H            0.03121029640000       -2.79656379730000        0.00266438130000
C            0.96736947200000       -1.01649335340000        0.67327515950000
C            0.84285541290000       -0.23202984140000        1.78178774540000
H           -0.03941486160000        0.08635249290000        2.30032418280000
N            2.07709169080000        0.18384232560000        2.20360585060000
H            2.24553746650000        0.78639161700000        2.99048438120000
C            3.03061531090000       -0.32945208820000        1.37541652370000
C            4.41353243040000       -0.19903793200000        1.39323750750000
H            4.90766287930000        0.39232692220000        2.15016363460000
C            5.12848512110000       -0.85123931030000        0.41235295850000
H            6.20542715420000       -0.77241801970000        0.39631831240000
C            4.48774084850000       -1.61663690900000       -0.56617552710000
H            5.08668371140000       -2.11218452010000       -1.31620037610000
C            3.11786389630000       -1.74943086300000       -0.58964925370000
H            2.63231650880000       -2.34449091380000       -1.34909991360000
C            2.36759050000000       -1.10043313090000        0.39076074400000

 Bond Distances (Angstroems)
 ---------------------------
O1-C2=1.3193         O1-H4=0.9973         C2-O1=1.3193         C2-O3=1.1982         C2-C5=1.5450         O3-C2=1.1982         
H4-O1=0.9973         C5-C2=1.5450         C5-H6=1.0974         C5-H7=1.0892         C5-N8=1.4488         H6-C5=1.0974         
H7-C5=1.0892         N8-C5=1.4488         N8-H9=1.0106         N8-C10=1.3370        H9-N8=1.0106         C10-N8=1.3370        
C10-O11=1.2266       C10-C12=1.5224       O11-C10=1.2266       C12-C10=1.5224       C12-H13=1.1015       C12-N14=1.4608       
C12-C17=1.5353       H13-C12=1.1015       N14-C12=1.4608       N14-H15=1.0150       N14-H16=1.0143       H15-N14=1.0150       
H16-N14=1.0143       C17-C12=1.5353       C17-H18=1.0941       C17-H19=1.0963       C17-C20=1.4955       H18-C17=1.0941       
H19-C17=1.0963       C20-C17=1.4955       C20-C21=1.3637       C20-C34=1.4309       C21-C20=1.3637       C21-H22=1.0718       
C21-N23=1.3690       H22-C21=1.0718       N23-C21=1.3690       N23-H24=1.0053       N23-C25=1.3633       H24-N23=1.0053       
C25-N23=1.3633       C25-C26=1.3892       C25-C34=1.4155       C26-C25=1.3892       C26-H27=1.0802       C26-C28=1.3779       
H27-C26=1.0802       C28-C26=1.3779       C28-H29=1.0799       C28-C30=1.3978       H29-C28=1.0799       C30-C28=1.3978       
C30-H31=1.0802       C30-C32=1.3765       H31-C30=1.0802       C32-C30=1.3765       C32-H33=1.0801       C32-C34=1.3947       
H33-C32=1.0801       C34-C20=1.4309       C34-C25=1.4155       C34-C32=1.3947       
 C  H  Rav=1.0871 sigma=0.0094  Rmin=1.0718  Rmax=1.1015    10
 C  C  Rav=1.4370 sigma=0.0650  Rmin=1.3637  Rmax=1.5450    12
 N  H  Rav=1.0113 sigma=0.0039  Rmin=1.0053  Rmax=1.0150     4
 N  C  Rav=1.3958 sigma=0.0495  Rmin=1.3370  Rmax=1.4608     5
 O  H  Rav=0.9973 sigma=0.0000  Rmin=0.9973  Rmax=0.9973     1
 O  C  Rav=1.2480 sigma=0.0517  Rmin=1.1982  Rmax=1.3193     3

 selected bond angles (degree)
 --------------------
H4-O1-C2=112.24                O3-C2-O1=123.29                C5-C2-O1=114.77                C5-C2-O3=121.93                
H6-C5-C2=107.38                H7-C5-C2=108.69                H7-C5-H6=109.46                N8-C5-C2=113.36                
N8-C5-H6=108.76                N8-C5-H7=109.12                H9-N8-C5=119.76                C10-N8-C5=123.74               
C10-N8-H9=116.45               O11-C10-N8=123.14              C12-C10-N8=113.39              C12-C10-O11=123.48             

 selected dihedral angles (degree)
 ---------------------------------
O3-C2-O1-H4=177.06            C5-C2-O1-H4=355.84            H6-C5-C2-O1=300.28            H6-C5-C2-O3=119.09            
H7-C5-C2-O1=181.95            H7-C5-C2-O3=  0.76            N8-C5-C2-O1= 60.43            N8-C5-C2-O3=239.23            
H9-N8-C5-C2=105.45            H9-N8-C5-H6=224.81            H9-N8-C5-H7=344.17            C10-N8-C5-C2=288.19           
C10-N8-C5-H6= 47.55           C10-N8-C5-H7=166.91           O11-C10-N8-C5=  5.88          O11-C10-N8-H9=188.53          
C12-C10-N8-C5=185.66          C12-C10-N8-H9=  8.32          
           -------------------------------------------------
          |                Final Singlepoint                |
           -------------------------------------------------

          ...................................................
          :                      SETUP                      :
          :.................................................:
          :  # basis functions                  91          :
          :  # atomic orbitals                  91          :
          :  # shells                           53          :
          :  # electrons                       100          :
          :  max. iterations                   250          :
          :  Hamiltonian                  GFN2-xTB          :
          :  restarted?                      false          :
          :  GBSA solvation                  false          :
          :  PC potential                    false          :
          :  electronic temp.          300.0000000     K    :
          :  accuracy                    1.0000000          :
          :  -> integral cutoff          0.2500000E+02      :
          :  -> integral neglect         0.1000000E-07      :
          :  -> SCF convergence          0.1000000E-05 Eh   :
          :  -> wf. convergence          0.1000000E-03 e    :
          :  Broyden damping             0.4000000          :
          :  net charge                          0          :
          :  unpaired electrons                  0          :
          ...................................................

 iter      E             dE          RMSdq      gap      omega  full diag
   1    -57.2338721 -0.572339E+02  0.117E-05    3.40       0.0  T
   2    -57.2338721 -0.795808E-12  0.813E-06    3.40    2108.2  T
   3    -57.2338721 -0.895284E-12  0.503E-06    3.40    3406.4  T

   *** convergence criteria satisfied after 3 iterations ***

         #    Occupation            Energy/Eh            Energy/eV
      -------------------------------------------------------------
         1        2.0000           -0.7381622             -20.0864
       ...           ...                  ...                  ...
        44        2.0000           -0.4242582             -11.5447
        45        2.0000           -0.4184818             -11.3875
        46        2.0000           -0.4149341             -11.2909
        47        2.0000           -0.4052952             -11.0286
        48        2.0000           -0.3996430             -10.8748
        49        2.0000           -0.3835099             -10.4358
        50        2.0000           -0.3653207              -9.9409 (HOMO)
        51                         -0.2402524              -6.5376 (LUMO)
        52                         -0.2333801              -6.3506
        53                         -0.2321992              -6.3185
        54                         -0.1990935              -5.4176
        55                         -0.1585929              -4.3155
       ...                                ...                  ...
        91                          0.7161579              19.4876
      -------------------------------------------------------------
                  HL-Gap            0.1250683 Eh            3.4033 eV
             Fermi-level           -0.3027866 Eh           -8.2392 eV

 SCC (total)                   0 d,  0 h,  0 min,  0.077 sec
 SCC setup                      ...        0 min,  0.002 sec (  2.515%)
 Dispersion                     ...        0 min,  0.010 sec ( 12.453%)
 classical contributions        ...        0 min,  0.005 sec (  5.948%)
 integral evaluation            ...        0 min,  0.001 sec (  1.222%)
 iterations                     ...        0 min,  0.016 sec ( 21.166%)
 molecular gradient             ...        0 min,  0.043 sec ( 55.936%)
 printout                       ...        0 min,  0.001 sec (  0.725%)

         :::::::::::::::::::::::::::::::::::::::::::::::::::::
         ::                     SUMMARY                     ::
         :::::::::::::::::::::::::::::::::::::::::::::::::::::
         :: total energy             -56.476331922148 Eh    ::
         :: gradient norm              0.000132799470 Eh/a0 ::
         :: HOMO-LUMO gap              3.403280692054 eV    ::
         ::.................................................::
         :: SCC energy               -57.233652331404 Eh    ::
         :: -> isotropic ES            0.097871736769 Eh    ::
         :: -> anisotropic ES          0.003983148209 Eh    ::
         :: -> anisotropic XC          0.019459202797 Eh    ::
         :: -> dispersion             -0.033962559770 Eh    ::
         :: repulsion energy           0.757320409256 Eh    ::
         :: add. restraining           0.000000000000 Eh    ::
         :: total charge               0.000000000000 e     ::
         :::::::::::::::::::::::::::::::::::::::::::::::::::::

           -------------------------------------------------
          |                Property Printout                |
           -------------------------------------------------

    * Orbital Energies and Occupations

         #    Occupation            Energy/Eh            Energy/eV
      -------------------------------------------------------------
         1        2.0000           -0.7381622             -20.0864
       ...           ...                  ...                  ...
        38        2.0000           -0.4670521             -12.7091
        39        2.0000           -0.4665849             -12.6964
        40        2.0000           -0.4563182             -12.4170
        41        2.0000           -0.4543739             -12.3641
        42        2.0000           -0.4484820             -12.2038
        43        2.0000           -0.4298761             -11.6975
        44        2.0000           -0.4242582             -11.5447
        45        2.0000           -0.4184818             -11.3875
        46        2.0000           -0.4149341             -11.2909
        47        2.0000           -0.4052952             -11.0286
        48        2.0000           -0.3996430             -10.8748
        49        2.0000           -0.3835099             -10.4358
        50        2.0000           -0.3653207              -9.9409 (HOMO)
        51                         -0.2402524              -6.5376 (LUMO)
        52                         -0.2333801              -6.3506
        53                         -0.2321992              -6.3185
        54                         -0.1990935              -5.4176
        55                         -0.1585929              -4.3155
        56                         -0.0727976              -1.9809
        57                         -0.0228716              -0.6224
        58                          0.0120699               0.3284
        59                          0.0257680               0.7012
        60                          0.0532066               1.4478
        61                          0.0772410               2.1018
       ...                                ...                  ...
        91                          0.7161579              19.4876
      -------------------------------------------------------------
                  HL-Gap            0.1250683 Eh            3.4033 eV
             Fermi-level           -0.3027866 Eh           -8.2392 eV

     #   Z          covCN         q      C6AA      α(0)
     1   8 O        1.655    -0.376    20.391     6.096
     2   6 C        2.684     0.357    20.933     7.487
     3   8 O        0.856    -0.376    21.198     6.173
     4   1 H        0.800     0.364     0.558     1.174
     5   6 C        3.737    -0.041    21.385     6.599
     6   1 H        0.924     0.078     1.998     2.210
     7   1 H        0.925     0.079     1.990     2.206
     8   7 N        2.688    -0.159    24.433     7.341
     9   1 H        0.860     0.205     1.082     1.630
    10   6 C        2.757     0.267    22.489     7.766
    11   8 O        0.858    -0.460    22.906     6.417
    12   6 C        3.788     0.030    20.078     6.382
    13   1 H        0.923     0.035     2.523     2.484
    14   7 N        2.636    -0.355    29.143     8.018
    15   1 H        0.860     0.145     1.436     1.877
    16   1 H        0.860     0.152     1.390     1.847
    17   6 C        3.808    -0.061    21.667     6.626
    18   1 H        0.924     0.049     2.328     2.386
    19   1 H        0.924     0.049     2.337     2.390
    20   6 C        3.054    -0.037    28.854     8.809
    21   6 C        3.030    -0.008    28.182     8.708
    22   1 H        0.926     0.050     2.325     2.385
    23   7 N        2.781    -0.103    23.259     7.163
    24   1 H        0.860     0.160     1.335     1.810
    25   6 C        3.083     0.045    26.910     8.504
    26   6 C        2.908    -0.053    29.313     8.878
    27   1 H        0.926     0.024     2.679     2.559
    28   6 C        2.924    -0.037    28.912     8.818
    29   1 H        0.926     0.028     2.618     2.530
    30   6 C        2.920    -0.042    29.040     8.837
    31   1 H        0.926     0.026     2.647     2.544
    32   6 C        2.911    -0.038    28.952     8.823
    33   1 H        0.926     0.024     2.677     2.559
    34   6 C        3.120    -0.021    28.362     8.722

 Mol. C6AA /au·bohr⁶  :      13333.065173
 Mol. C8AA /au·bohr⁸  :     312424.800452
 Mol. α(0) /au        :        178.757590


Wiberg/Mayer (AO) data.
largest (>0.10) Wiberg bond orders for each atom

 ---------------------------------------------------------------------------
     #   Z sym  total        # sym  WBO       # sym  WBO       # sym  WBO
 ---------------------------------------------------------------------------
     1   8 O    2.231 --     2 C    1.197     4 H    0.773     3 O    0.182
     2   6 C    3.931 --     3 O    1.776     1 O    1.197     5 C    0.925
     3   8 O    2.068 --     2 C    1.776     1 O    0.182
     4   1 H    0.868 --     1 O    0.773
     5   6 C    3.963 --     8 N    0.992     7 H    0.973     6 H    0.953
                             2 C    0.925
     6   1 H    0.994 --     5 C    0.953
     7   1 H    0.994 --     5 C    0.973
     8   7 N    3.482 --    10 C    1.310     5 C    0.992     9 H    0.920
                            11 O    0.193
     9   1 H    0.958 --     8 N    0.920
    10   6 C    3.947 --    11 O    1.607     8 N    1.310    12 C    0.951
    11   8 O    2.009 --    10 C    1.607     8 N    0.193
    12   6 C    3.982 --    14 N    1.009    17 C    0.974    13 H    0.958
                            10 C    0.951
    13   1 H    0.999 --    12 C    0.958
    14   7 N    3.011 --    12 C    1.009    15 H    0.965    16 H    0.960
    15   1 H    0.979 --    14 N    0.965
    16   1 H    0.977 --    14 N    0.960
    17   6 C    3.992 --    20 C    1.014    12 C    0.974    18 H    0.965
                            19 H    0.958
    18   1 H    0.997 --    17 C    0.965
    19   1 H    0.997 --    17 C    0.958
    20   6 C    3.974 --    21 C    1.588    34 C    1.201    17 C    1.014
    21   6 C    3.952 --    20 C    1.588    23 N    1.194    22 H    0.966
    22   1 H    0.997 --    21 C    0.966
    23   7 N    3.544 --    21 C    1.194    25 C    1.179    24 H    0.947
    24   1 H    0.974 --    23 N    0.947
    25   6 C    3.959 --    26 C    1.338    34 C    1.247    23 N    1.179
    26   6 C    3.989 --    28 C    1.494    25 C    1.338    27 H    0.969
                            32 C    0.113
    27   1 H    0.999 --    26 C    0.969
    28   6 C    3.991 --    26 C    1.494    30 C    1.372    29 H    0.972
    29   1 H    0.999 --    28 C    0.972
    30   6 C    3.991 --    32 C    1.504    28 C    1.372    31 H    0.972
    31   1 H    0.999 --    30 C    0.972
    32   6 C    3.992 --    30 C    1.504    34 C    1.332    33 H    0.970
                            26 C    0.113
    33   1 H    0.999 --    32 C    0.970
    34   6 C    3.984 --    32 C    1.332    25 C    1.247    20 C    1.201
 ---------------------------------------------------------------------------

Topologies differ in total number of bonds
Writing topology from bond orders to xtbtopo.mol

molecular dipole:
                 x           y           z       tot (Debye)
 q only:        1.120      -1.283       0.173
   full:        1.303      -1.687       0.593       5.623
molecular quadrupole (traceless):
                xx          xy          yy          xz          yz          zz
 q only:      -15.687      22.654       3.253      -2.789       6.466      12.434
  q+dip:      -17.272      30.843       2.847      -5.601      10.179      14.425
   full:      -17.816      31.187       4.461      -5.307       8.124      13.355

           -------------------------------------------------
          |                Geometry Summary                 |
           -------------------------------------------------

      molecular mass/u    :      261.2770023
   center of mass at/Å    :        0.0000000      -0.0000000      -0.0000000
  moments of inertia/u·Å² :        0.6341688E+03   0.2929871E+04   0.3042955E+04
rotational constants/cm⁻¹ :        0.2658225E-01   0.5753712E-02   0.5539890E-02

 * 32 selected distances

     #   Z          #   Z                                           value/Å
     1   8 O        2   6 C                                       1.3192870
     2   6 C        3   8 O                                       1.1982444
     1   8 O        4   1 H                                       0.9973362 (min)
     5   6 C        6   1 H                                       1.0973847
     5   6 C        7   1 H                                       1.0892284
     5   6 C        8   7 N                                       1.4488191
     8   7 N        9   1 H                                       1.0106018
     8   7 N       10   6 C                                       1.3369726
    10   6 C       11   8 O                                       1.2265971
    12   6 C       13   1 H                                       1.1015381
    12   6 C       14   7 N                                       1.4608355
    14   7 N       15   1 H                                       1.0150226
    14   7 N       16   1 H                                       1.0143077
    12   6 C       17   6 C                                       1.5353271 (max)
    17   6 C       18   1 H                                       1.0941173
    17   6 C       19   1 H                                       1.0962539
    20   6 C       21   6 C                                       1.3637035
    21   6 C       22   1 H                                       1.0717502
    21   6 C       23   7 N                                       1.3690214
    23   7 N       24   1 H                                       1.0052948
    23   7 N       25   6 C                                       1.3632961
    25   6 C       26   6 C                                       1.3891672
    26   6 C       27   1 H                                       1.0801920
    26   6 C       28   6 C                                       1.3779183
    28   6 C       29   1 H                                       1.0799418
    28   6 C       30   6 C                                       1.3978215
    30   6 C       31   1 H                                       1.0802025
    30   6 C       32   6 C                                       1.3764986
    32   6 C       33   1 H                                       1.0801010
    20   6 C       34   6 C                                       1.4309017
    25   6 C       34   6 C                                       1.4154720
    32   6 C       34   6 C                                       1.3947445

 * 6 distinct bonds (by element types)

   Z      Z             #   av. dist./Å        max./Å        min./Å
   1 H    6 C          10     1.0870710     1.1015381     1.0717502
   6 C    6 C           9     1.4090616     1.5353271     1.3637035
   1 H    7 N           4     1.0113067     1.0150226     1.0052948
   6 C    7 N           5     1.3957890     1.4608355     1.3369726
   1 H    8 O           1     0.9973362     0.9973362     0.9973362
   6 C    8 O           3     1.2480428     1.3192870     1.1982444


optimized geometry written to: xtbopt.xyz


           -------------------------------------------------
          | TOTAL ENERGY              -56.476331922148 Eh   |
          | GRADIENT NORM               0.000132799470 Eh/α |
          | HOMO-LUMO GAP               3.403280692054 eV   |
           -------------------------------------------------

------------------------------------------------------------------------
 * finished run on 2026/10/01 at 18:03:42.543     
------------------------------------------------------------------------
 total:
 * wall-time:     0 d,  0 h,  0 min,  0.335 sec
 *  cpu-time:     0 d,  0 h,  0 min,  4.608 sec
 * ratio c/w:    13.735 speedup
 SCF:
 * wall-time:     0 d,  0 h,  0 min,  0.162 sec
 *  cpu-time:     0 d,  0 h,  0 min,  2.290 sec
 * ratio c/w:    14.136 speedup
 ANC optimizer:
 * wall-time:     0 d,  0 h,  0 min,  0.145 sec
 *  cpu-time:     0 d,  0 h,  0 min,  1.972 sec
 * ratio c/w:    13.557 speedup


--- STDERR ---
normal termination of xtb
Note: The following floating-point exceptions are signalling: IEEE_UNDERFLOW_FLAG IEEE_DENORMAL
