68
 energy: -106.573596811424 gnorm: 0.000934617103 xtb: 6.7.1-6.fc44.fc44
O            1.26154273362147       -0.30059714180999        1.68009333336251
O            1.02730653378200       -0.93703490978773       -1.58113374175787
O           -3.42454104913060       -2.62764576465780       -0.19634212372115
O           -3.13181051012943        3.07764421893012        0.36353749021587
O           -1.27152510377144        1.62031693667040       -1.40995252345338
O            2.41682845080944        2.96311601629751        1.16812639647118
N            0.32472036731927       -2.40203631519441       -0.05743857749025
N           -2.18460356084656       -0.91143442205738       -0.98299267627079
N           -3.83131122650520        0.96155432301945        0.21229549916505
N           -0.53740521010480        2.04449874534156        0.67701589219028
N            1.96519954257657        1.72932941316738       -0.66759978941098
N            3.17066743077917       -0.45863813916364        0.51781100096575
C            2.00005474737905       -0.94873020913404        0.95611746753719
C            1.64133451276678       -2.38638298739059        0.57794914462716
C            1.46999576094749       -3.25583872143522        1.82663966115662
C            0.30545968884802       -4.17097922022384        1.45885327292123
C           -0.60699127458676       -3.22675979626399        0.68530751167635
C            0.12178540642263       -1.63686279529044       -1.13662219480104
C           -1.26680709904409       -1.69365274805001       -1.78652021417527
C           -1.21331028714154       -1.13472655186983       -3.20327810048365
C           -3.17574005275028       -1.43583590835905       -0.25990151485123
C           -3.97389593037467       -0.42429345844618        0.59688412900256
C           -5.45148870001986       -0.80880996775973        0.56709545156440
C           -2.93976686597148        1.90460192583464        0.59781718229794
C           -1.67762069332069        1.43933469610305        1.34279394513880
C           -1.72409923411136        1.90993220957625        2.79061255656474
C           -0.41924449841786        2.06076271790471       -0.65128956167398
C            0.91934033455439        2.61342638627886       -1.15214977095860
C            0.95643611741214        2.67773919675712       -2.67079288387800
C            2.57530352110771        1.95283565440995        0.50805938455651
C            3.57100975972840        0.87234541448702        0.94460906519870
C            4.94605832487003        1.07518060205882        0.30441092477593
C            4.86785468334738        0.22089511445386       -0.95807466411343
C            4.04274966698616       -0.98829323848252       -0.51549754615458
H            2.37319427024163       -2.81301102740741       -0.11349712488795
H            2.38151235695403       -3.79571588948510        2.07499375136777
H            1.19155679052837       -2.61809100235565        2.66717871768307
H            0.64717243889347       -4.97958689168226        0.81121187806243
H           -0.18602831903737       -4.59973669968899        2.32864442132104
H           -1.30956710956618       -3.74196879994668        0.03226519458565
H           -1.18185738715497       -2.60314478324323        1.37957624645126
H           -2.06401470333960        0.10164147911511       -1.07135867864089
H           -1.62840530388798       -2.72773554173089       -1.79204274293924
H           -0.45121503948074       -1.65011159146432       -3.78166133375268
H           -0.97176628090334       -0.07587554956772       -3.16177759692555
H           -2.17812996061421       -1.26035801848918       -3.68734183858220
H           -4.59528571205241        1.33731771241279       -0.33453947461233
H           -3.60277172050941       -0.55317782968674        1.62284719118070
H           -6.01618681448447       -0.22206265604683        1.28718319463047
H           -5.54931939576898       -1.86437120453088        0.80480489244727
H           -5.86087515976899       -0.64377505800080       -0.42753258383735
H            0.20655923740571        2.40781867068280        1.25625712144054
H           -1.56818308251185        0.34884350948122        1.30147711499989
H           -2.55789326919309        1.44636944360804        3.31294795491915
H           -1.85011875562910        2.98963809234626        2.81887296907964
H           -0.79822727044543        1.63817146885930        3.29199709250913
H            1.94485901047592        0.79684743562237       -1.06781392994396
H            1.09219179737855        3.59881843882044       -0.70555993116721
H            1.89027632371711        3.11922706890459       -3.00885198294190
H            0.12462020576560        3.27564531511595       -3.03117942091817
H            0.86464908122320        1.67417996223506       -3.07944492434947
H            3.60939630516751        0.91880192307156        2.03835962595685
H            5.72412817676653        0.70061207677137        0.97068189949843
H            5.14173868499405        2.12482774514986        0.09596692043467
H            5.84897951074004       -0.06775787041137       -1.32909925384711
H            4.34225196834554        0.76293323609406       -1.74393938311314
H            3.45701249225823       -1.39806013185658       -1.33997266811248
H            4.68788413636046       -1.77147860044082       -0.09907501040240
