34
frame_0053
O       0.208490401981131      1.923357611300579     -1.055444880836341
C      -1.075701383441583      2.485390125249321     -1.533003272103671
O      -1.070597437910420      3.414502581866176     -2.175340909432355
H       0.175727298463735      1.080110828214527     -0.517127154598768
C      -2.028540762568257      1.625148999685631     -0.839719699174188
H      -3.048961961153255      1.961166993594145     -1.404855375324832
H      -2.149409535889633      1.950567831802648      0.294256936646987
N      -2.122195301309326      0.067818819651202     -0.781883500681383
H      -2.130799414880527     -0.322673675747212     -1.525453804463190
C      -2.164410360994586     -0.373111812091528      0.551821871825566
O      -2.214032628000174      0.201114506910615      1.428604168726553
C      -1.965700731955868     -1.992919500707187      0.315052414635198
H      -2.768776372588836     -2.545129370841918      0.534846057886199
N      -1.917549479787694     -2.351679738454585     -1.137279757136158
H      -2.102148982597675     -3.428035145037909     -1.255552477050007
H      -0.740865289059257     -2.236488410327882     -1.513680010027956
C      -0.861701730441536     -2.116939943162814      1.091425461484462
H      -0.524642332331497     -3.472758284145478      1.318333947641802
H      -0.905262660398746     -1.936586249204966      2.193948727164662
C       0.469575330213195     -1.825252671408582      0.751495960940962
C       1.382693529869662     -2.352542081650551     -0.252624666175115
H       1.433319082351448     -3.520635140769778     -0.878700363999999
N       2.584017102440663     -1.763792737834798     -0.384872585805142
H       3.132064394236384     -1.691587710074240     -1.303275293475263
C       2.247232229283306     -0.454438498657969      0.088536131097745
C       3.086836255471265      0.582482919729550      0.190956923858889
H       3.892594251056287      0.521270549208188     -0.621047302151740
C       2.623012295584476      1.582578500162004      0.981292738365085
H       3.406331997571455      2.497744904048359      0.968474502414015
C       1.758504965180918      1.587128807719369      1.759415781057470
H       1.456092220934089      2.347270432228871      2.350151554808137
C       0.863593071088788      0.481827117873729      1.557548408072941
H      -0.207736017556941      0.272429532435862      2.326357782036678
C       1.275730520398598     -0.547391821920828      0.984642171048552
