34
 energy: -56.476738761773 gnorm: 0.000771870123 xtb: 6.7.1-6.fc44.fc44
O            0.18645511686245        1.80017477544884       -1.14589821112920
C           -0.98835357472687        2.33757525442103       -1.47462179920849
O           -1.07767928511595        3.26620069800216       -2.22397366746035
H            0.10609118824270        1.10683628967170       -0.46501754920394
C           -2.20371109808232        1.66291132966629       -0.83394087724978
H           -3.09605914737099        1.92813476507825       -1.40815309127150
H           -2.31767875801771        2.04009100132474        0.18993780179218
N           -2.02468281564418        0.23593144821626       -0.74055346407983
H           -2.04414461079956       -0.32476908189844       -1.58214224518037
C           -2.10129591823483       -0.43779026194463        0.42736645188296
O           -2.25343537119856        0.10256576542367        1.50255577448348
C           -1.92583494605992       -1.95076909068894        0.28176187817762
H           -2.83458151910990       -2.40600496040944        0.69008636948363
N           -1.80335827887980       -2.32903857603525       -1.11797707525837
H           -2.04716178681820       -3.30488000532512       -1.24241869255451
H           -0.83412283155343       -2.22047370821420       -1.41085745655996
C           -0.72050498756948       -2.38550223778372        1.15666758106568
H           -0.68603805128317       -3.47690901512522        1.19008179064614
H           -0.88133595961379       -2.00626021358220        2.16569720756051
C            0.55903787164561       -1.85217877216203        0.60373023402273
C            1.36450086973448       -2.45731488665640       -0.32030937651165
H            1.27830899732649       -3.43215504330197       -0.76346504280033
N            2.42127305642051       -1.64563070821323       -0.63328003711726
H            3.16782253546576       -1.87545072588807       -1.26643303772252
C            2.32320584758460       -0.49219117948225        0.08981582576708
C            3.15339074685586        0.62124159102127        0.12781680831599
H            4.04146569252727        0.67272610429070       -0.48373207936963
C            2.80401273437846        1.64795218241612        0.97640430018462
H            3.42753936143206        2.52686735895175        1.03314080790445
C            1.65762521420963        1.57393891676504        1.77369810749517
H            1.42476454811390        2.39758024757653        2.43150051393046
C            0.82674652076113        0.47614577905132        1.74034899901788
H           -0.05745419947987        0.42955197498988        2.35735689405406
C            1.15197540125733       -0.57915874596188        0.88210684416860
