34
frame_0018
O      -0.582268467400000      2.035776331500000     -1.153709570000000
C      -1.511416462200000      2.387824137000000     -0.286756243700000
O      -1.369975609000000      3.294525658900000      0.487582687000000
H      -0.804192884900000      1.181807244200000     -1.615303889500000
C      -2.807756532900000      1.552674915300000     -0.344846188800000
H      -3.153017212000000      1.526092807900000     -1.385024769100000
H      -3.564402759200000      2.024108881200000      0.281054402600000
N      -2.597017183200000      0.188137491300000      0.110022263200000
H      -2.887065926400000     -0.046107669700000      1.044651995900000
C      -1.861169312200000     -0.693706632300000     -0.589606824500000
O      -1.375595315500000     -0.414318933300000     -1.679436637300000
C      -1.663855171800000     -2.064920377700000      0.057743582900000
H      -2.642756969400000     -2.480219625000000      0.328201138100000
N      -1.018151401500000     -2.997188514500000     -0.839515975600000
H      -0.153674272600000     -2.583365947900000     -1.177449446600000
H      -1.600930607700000     -3.162518328900000     -1.653838188000000
C      -0.808341114300000     -1.887129024300000      1.341936196100000
H      -0.302988538600000     -2.836739292100000      1.520383451500000
H      -1.462360643800000     -1.679273676200000      2.191127375200000
C       0.188373354200000     -0.780617149800000      1.201889971000000
C       0.043661483200000      0.503754944900000      1.648588626400000
H      -0.744207234700000      0.936972163300000      2.236893754800000
N       1.113242619200000      1.262915065200000      1.271431271700000
H       1.182984407800000      2.258375919600000      1.399285895400000
C       1.970861125100000      0.487595528500000      0.549544296300000
C       3.180621326000000      0.805169849000000     -0.055375378200000
H       3.572128094300000      1.810598450400000     -0.017364179500000
C       3.855725542700000     -0.206358696600000     -0.701641725200000
H       4.797630404300000      0.005067016100000     -1.185808595000000
C       3.350993844200000     -1.509885203500000     -0.735691712000000
H       3.920664151700000     -2.277540733700000     -1.238866013800000
C       2.152475093500000     -1.831950117700000     -0.141487932700000
H       1.783001864400000     -2.846754997600000     -0.158479542600000
C       1.433322867300000     -0.822333823900000      0.500422528800000
