      -----------------------------------------------------------      
     |                   =====================                   |     
     |                           x T B                           |     
     |                   =====================                   |     
     |                         S. Grimme                         |     
     |          Mulliken Center for Theoretical Chemistry        |     
     |                    University of Bonn                     |     
      -----------------------------------------------------------      

   * xtb version 6.7.1-6.fc44.fc44 compiled by Fedora project on Sun Jan 18 23:32:34 UTC 2026

   xtb is free software: you can redistribute it and/or modify it under
   the terms of the GNU Lesser General Public License as published by
   the Free Software Foundation, either version 3 of the License, or
   (at your option) any later version.
   
   xtb is distributed in the hope that it will be useful,
   but WITHOUT ANY WARRANTY; without even the implied warranty of
   MERCHANTABILITY or FITNESS FOR A PARTICULAR PURPOSE.  See the
   GNU Lesser General Public License for more details.
   
   Cite this work as:
   * C. Bannwarth, E. Caldeweyher, S. Ehlert, A. Hansen, P. Pracht,
     J. Seibert, S. Spicher, S. Grimme, WIREs Comput. Mol. Sci., 2020, 11,
     e01493. DOI: 10.1002/wcms.1493
   
   for GFN2-xTB:
   * C. Bannwarth, S. Ehlert and S. Grimme., J. Chem. Theory Comput., 2019,
     15, 1652-1671. DOI: 10.1021/acs.jctc.8b01176
   for GFN1-xTB:
   * S. Grimme, C. Bannwarth, P. Shushkov, J. Chem. Theory Comput., 2017,
     13, 1989-2009. DOI: 10.1021/acs.jctc.7b00118
   for GFN0-xTB:
   * P. Pracht, E. Caldeweyher, S. Ehlert, S. Grimme, ChemRxiv, 2019, preprint.
     DOI: 10.26434/chemrxiv.8326202.v1
   for GFN-FF:
   * S. Spicher and S. Grimme, Angew. Chem. Int. Ed., 2020, 59, 15665-15673.
     DOI: 10.1002/anie.202004239
   
   for ALPB and GBSA implicit solvation:
   * S. Ehlert, M. Stahn, S. Spicher, S. Grimme, J. Chem. Theory Comput.,
     2021, 17, 4250-4261. DOI: 10.1021/acs.jctc.1c00471
   
   for ddCOSMO and CPCM-X implicit solvation:
   * M. Stahn, S. Ehlert, S. Grimme, J. Phys. Chem. A,
     2023, XX, XXXX-XXXX. DOI: 10.1021/acs.jpca.3c04382
   
   for DFT-D4:
   * E. Caldeweyher, C. Bannwarth and S. Grimme, J. Chem. Phys., 2017,
     147, 034112. DOI: 10.1063/1.4993215
   * E. Caldeweyher, S. Ehlert, A. Hansen, H. Neugebauer, S. Spicher,
     C. Bannwarth and S. Grimme, J. Chem. Phys., 2019, 150, 154122.
     DOI: 10.1063/1.5090222
   * E. Caldeweyher, J.-M. Mewes, S. Ehlert and S. Grimme, Phys. Chem. Chem. Phys.
     2020, 22, 8499-8512. DOI: 10.1039/D0CP00502A
   
   for sTDA-xTB:
   * S. Grimme and C. Bannwarth, J. Chem. Phys., 2016, 145, 054103.
     DOI: 10.1063/1.4959605
   
   in the mass-spec context:
   * V. Asgeirsson, C. Bauer and S. Grimme, Chem. Sci., 2017, 8, 4879.
     DOI: 10.1039/c7sc00601b
   * J. Koopman and S. Grimme, ACS Omega 2019, 4, 12, 15120-15133.
     DOI: 10.1021/acsomega.9b02011
   
   for metadynamics refer to:
   * S. Grimme, J. Chem. Theory Comput., 2019, 155, 2847-2862
     DOI: 10.1021/acs.jctc.9b00143
   
   for SPH calculations refer to:
   * S. Spicher and S. Grimme, J. Chem. Theory Comput., 2021, 17, 1701-1714
     DOI: 10.1021/acs.jctc.0c01306
   
   for ONIOM refer to:
   * C. Plett, A. Katbashev, S. Ehlert, S. Grimme, M. Bursch,
     Phys. Chem. Chem. Phys., 2023, 25, 17860-17868. DOI: 10.1039/D3CP02178E
   
   for DIPRO refer to:
   * J. Kohn, N. Gildemeister, S. Grimme, D. Fazzi, A. Hansen,
     J. Chem. Phys., 2023, just accepted.
   
   for PTB refer to:
   * S. Grimme, M. Mueller, A. Hansen, J. Chem. Phys., 2023, 158, 124111.
     DOI: 10.1063/5.0137838
   
   with help from (in alphabetical order)
   P. Atkinson, C. Bannwarth, F. Bohle, G. Brandenburg, E. Caldeweyher
   M. Checinski, S. Dohm, S. Ehlert, S. Ehrlich, I. Gerasimov, C. Hölzer
   A. Katbashev, J. Kohn, J. Koopman, C. Lavigne, S. Lehtola, F. März, M. Müller,
   F. Musil, H. Neugebauer, J. Pisarek, C. Plett, P. Pracht, F. Pultar,
   J. Seibert, P. Shushkov, S. Spicher, M. Stahn, M. Steiner, T. Strunk,
   J. Stückrath, T. Rose, and J. Unsleber
   
 * started run on 2026/10/01 at 18:03:16.119     
   ID    Z sym.   atoms
    1    8 O      1, 3, 11
    2    6 C      2, 5, 10, 12, 17, 20, 21, 25, 26, 28, 30, 32, 34
    3    1 H      4, 6, 7, 9, 13, 15, 16, 18, 19, 22, 24, 27, 29, 31, 33
    4    7 N      8, 14, 23

           -------------------------------------------------
          |                Calculation Setup                |
           -------------------------------------------------

          program call               : /usr/bin/xtb input.xyz --opt --gfn 2 --chrg 0 --uhf 0
          hostname                   : fedora
          coordinate file            : input.xyz
          omp threads                :                    16


           -------------------------------------------------
          |                 G F N 2 - x T B                 |
           -------------------------------------------------

        Reference                      10.1021/acs.jctc.8b01176
      * Hamiltonian:
        H0-scaling (s, p, d)           1.850000    2.230000    2.230000
        zeta-weighting                 0.500000
      * Dispersion:
        s8                             2.700000
        a1                             0.520000
        a2                             5.000000
        s9                             5.000000
      * Repulsion:
        kExp                           1.500000    1.000000
        rExp                           1.000000
      * Coulomb:
        alpha                          2.000000
        third order                    shell-resolved
        anisotropic                    true
        a3                             3.000000
        a5                             4.000000
        cn-shift                       1.200000
        cn-exp                         4.000000
        max-rad                        5.000000


          ...................................................
          :                      SETUP                      :
          :.................................................:
          :  # basis functions                  91          :
          :  # atomic orbitals                  91          :
          :  # shells                           53          :
          :  # electrons                       100          :
          :  max. iterations                   250          :
          :  Hamiltonian                  GFN2-xTB          :
          :  restarted?                      false          :
          :  GBSA solvation                  false          :
          :  PC potential                    false          :
          :  electronic temp.          300.0000000     K    :
          :  accuracy                    1.0000000          :
          :  -> integral cutoff          0.2500000E+02      :
          :  -> integral neglect         0.1000000E-07      :
          :  -> SCF convergence          0.1000000E-05 Eh   :
          :  -> wf. convergence          0.1000000E-03 e    :
          :  Broyden damping             0.4000000          :
          :  net charge                          0          :
          :  unpaired electrons                  0          :
          ...................................................

 iter      E             dE          RMSdq      gap      omega  full diag
   1    -57.0886264 -0.570886E+02  0.413E+00    3.16       0.0  T
   2    -57.2187060 -0.130080E+00  0.242E+00    3.28       1.0  T
   3    -57.2264458 -0.773975E-02  0.134E+00    3.52       1.0  T
   4    -57.2280691 -0.162330E-02  0.554E-01    3.12       1.0  T
   5    -57.2369051 -0.883602E-02  0.121E-01    3.13       1.0  T
   6    -57.2370923 -0.187185E-03  0.590E-02    3.13       1.0  T
   7    -57.2371283 -0.360364E-04  0.252E-02    3.13       1.0  T
   8    -57.2371291 -0.756111E-06  0.116E-02    3.13       1.5  T
   9    -57.2371312 -0.218672E-05  0.349E-03    3.13       4.9  T
  10    -57.2371313 -0.544810E-07  0.149E-03    3.13      11.5  T
  11    -57.2371313 -0.154477E-07  0.650E-04    3.13      26.4  T
  12    -57.2371313 -0.469420E-08  0.235E-04    3.13      73.0  T

   *** convergence criteria satisfied after 12 iterations ***

         #    Occupation            Energy/Eh            Energy/eV
      -------------------------------------------------------------
         1        2.0000           -0.7466475             -20.3173
       ...           ...                  ...                  ...
        44        2.0000           -0.4242994             -11.5458
        45        2.0000           -0.4134258             -11.2499
        46        2.0000           -0.4126341             -11.2283
        47        2.0000           -0.4121777             -11.2159
        48        2.0000           -0.3791044             -10.3160
        49        2.0000           -0.3785113             -10.2998
        50        2.0000           -0.3619576              -9.8494 (HOMO)
        51                         -0.2467925              -6.7156 (LUMO)
        52                         -0.2394408              -6.5155
        53                         -0.2278697              -6.2006
        54                         -0.1938185              -5.2741
        55                         -0.1594155              -4.3379
       ...                                ...                  ...
        91                          0.7203540              19.6018
      -------------------------------------------------------------
                  HL-Gap            0.1151650 Eh            3.1338 eV
             Fermi-level           -0.3043750 Eh           -8.2825 eV

 SCC (total)                   0 d,  0 h,  0 min,  0.228 sec
 SCC setup                      ...        0 min,  0.001 sec (  0.333%)
 Dispersion                     ...        0 min,  0.009 sec (  3.829%)
 classical contributions        ...        0 min,  0.003 sec (  1.273%)
 integral evaluation            ...        0 min,  0.006 sec (  2.650%)
 iterations                     ...        0 min,  0.158 sec ( 69.386%)
 molecular gradient             ...        0 min,  0.051 sec ( 22.348%)
 printout                       ...        0 min,  0.000 sec (  0.173%)

         :::::::::::::::::::::::::::::::::::::::::::::::::::::
         ::                     SUMMARY                     ::
         :::::::::::::::::::::::::::::::::::::::::::::::::::::
         :: total energy             -56.480407581611 Eh    ::
         :: gradient norm              0.000189844355 Eh/a0 ::
         :: HOMO-LUMO gap              3.133800145202 eV    ::
         ::.................................................::
         :: SCC energy               -57.236237280786 Eh    ::
         :: -> isotropic ES            0.096956534467 Eh    ::
         :: -> anisotropic ES          0.004217402779 Eh    ::
         :: -> anisotropic XC          0.019689312064 Eh    ::
         :: -> dispersion             -0.039676989377 Eh    ::
         :: repulsion energy           0.755829699175 Eh    ::
         :: add. restraining           0.000000000000 Eh    ::
         :: total charge               0.000000000000 e     ::
         :::::::::::::::::::::::::::::::::::::::::::::::::::::

      ----------------------------------------------------------- 
     |                   =====================                   |
     |                        A N C O P T                        |
     |                   =====================                   |
     |               Approximate Normal Coordinate               |
     |                Rational Function Optimizer                |
      ----------------------------------------------------------- 
      ----------------------------------------------------------- 
     |                   =====================                   |
     |                        A N C O P T                        |
     |                   =====================                   |
     |               Approximate Normal Coordinate               |
     |                Rational Function Optimizer                |
      ----------------------------------------------------------- 

          ...................................................
          :                      SETUP                      :
          :.................................................:
          :   optimization level            normal          :
          :   max. optcycles                   200          :
          :   ANC micro-cycles                  20          :
          :   degrees of freedom                96          :
          :.................................................:
          :   RF solver                   davidson          :
          :   write xtbopt.log                true          :
          :   linear?                        false          :
          :   energy convergence         0.5000000E-05 Eh   :
          :   grad. convergence          0.1000000E-02 Eh/α :
          :   maxmium RF displ.          1.0000000          :
          :   Hlow (freq-cutoff)         0.1000000E-01      :
          :   Hmax (freq-cutoff)         5.0000000          :
          :   S6 in model hess.         20.0000000          :
          ...................................................

generating ANC from exact Hessian ...
Using Lindh-Hessian (1995)
 Shifting diagonal of input Hessian by    9.6297715467024009E-003
 Lowest  eigenvalues of input Hessian
    0.000000    0.000000    0.000000    0.000000    0.000000    0.000000
    0.010000    0.010805    0.011378    0.012293    0.012958    0.014786
    0.016806    0.018862    0.019618    0.021004    0.025324    0.026100
 Highest eigenvalues
    1.999542    2.007799    2.100701    2.208282    2.285922    2.354818


........................................................................
.............................. CYCLE    1 ..............................
........................................................................

 iter      E             dE          RMSdq      gap      omega  full diag
   1    -57.2371313 -0.572371E+02  0.106E-04    3.13       0.0  T
   2    -57.2371313 -0.721840E-10  0.624E-05    3.13     274.8  T
   3    -57.2371313 -0.214939E-10  0.400E-05    3.13     428.9  T
     SCC iter.                  ...        0 min,  0.110 sec
     gradient                   ...        0 min,  0.030 sec
 * total energy  :   -56.4804076 Eh     change       -0.4957172E-09 Eh
   gradient norm :     0.0001905 Eh/α   predicted     0.0000000E+00 (-100.00%)
   displ. norm   :     0.0015986 α      lambda       -0.4939199E-07
   maximum displ.:     0.0010061 α      in ANC's #1, #21, #9, ...

   *** GEOMETRY OPTIMIZATION CONVERGED AFTER 1 ITERATIONS ***

------------------------------------------------------------------------
 total energy gain   :        -0.0000000 Eh       -0.0000 kcal/mol
 total RMSD          :         0.0000001 a0        0.0000 Å
 total power (kW/mol):        -0.0000013 (step)   -0.0000 (real)
------------------------------------------------------------------------

 ANCopt (total)                0 d,  0 h,  0 min,  0.194 sec
 optimizer setup                ...        0 min,  0.000 sec (  0.078%)
 model hessian                  ...        0 min,  0.010 sec (  5.126%)
 ANC generation                 ...        0 min,  0.043 sec ( 22.083%)
 coordinate transformation      ...        0 min,  0.000 sec (  0.009%)
 single point calculation       ...        0 min,  0.141 sec ( 72.436%)
 optimization log               ...        0 min,  0.000 sec (  0.042%)
 hessian update                 ...        0 min,  0.000 sec (  0.000%)
 rational function              ...        0 min,  0.000 sec (  0.081%)

================
 final structure:
================
34
 xtb: 6.7.1-6.fc44.fc44
O           -0.58226846740000        2.03577633150000       -1.15370957000000
C           -1.51141646220000        2.38782413700000       -0.28675624370000
O           -1.36997560900000        3.29452565890000        0.48758268700000
H           -0.80419288490000        1.18180724420000       -1.61530388950000
C           -2.80775653290000        1.55267491530000       -0.34484618880000
H           -3.15301721200000        1.52609280790000       -1.38502476910000
H           -3.56440275920000        2.02410888120000        0.28105440260000
N           -2.59701718320000        0.18813749130000        0.11002226320000
H           -2.88706592640000       -0.04610766970000        1.04465199590000
C           -1.86116931220000       -0.69370663230000       -0.58960682450000
O           -1.37559531550000       -0.41431893330000       -1.67943663730000
C           -1.66385517180000       -2.06492037770000        0.05774358290000
H           -2.64275696940000       -2.48021962500000        0.32820113810000
N           -1.01815140150000       -2.99718851450000       -0.83951597560000
H           -0.15367427260000       -2.58336594790000       -1.17744944660000
H           -1.60093060770000       -3.16251832890000       -1.65383818800000
C           -0.80834111430000       -1.88712902430000        1.34193619610000
H           -0.30298853860000       -2.83673929210000        1.52038345150000
H           -1.46236064380000       -1.67927367620000        2.19112737520000
C            0.18837335420000       -0.78061714980000        1.20188997100000
C            0.04366148320000        0.50375494490000        1.64858862640000
H           -0.74420723470000        0.93697216330000        2.23689375480000
N            1.11324261920000        1.26291506520000        1.27143127170000
H            1.18298440780000        2.25837591960000        1.39928589540000
C            1.97086112510000        0.48759552850000        0.54954429630000
C            3.18062132600000        0.80516984900000       -0.05537537820000
H            3.57212809430000        1.81059845040000       -0.01736417950000
C            3.85572554270000       -0.20635869660000       -0.70164172520000
H            4.79763040430000        0.00506701610000       -1.18580859500000
C            3.35099384420000       -1.50988520350000       -0.73569171200000
H            3.92066415170000       -2.27754073370000       -1.23886601380000
C            2.15247509350000       -1.83195011770000       -0.14148793270000
H            1.78300186440000       -2.84675499760000       -0.15847954260000
C            1.43332286730000       -0.82233382390000        0.50042252880000

 Bond Distances (Angstroems)
 ---------------------------
O1-C2=1.3187         O1-H4=0.9958         C2-O1=1.3187         C2-O3=1.2007         C2-C5=1.5432         O3-C2=1.2007         
H4-O1=0.9958         C5-C2=1.5432         C5-H6=1.0963         C5-H7=1.0893         C5-N8=1.4537         H6-C5=1.0963         
H7-C5=1.0893         N8-C5=1.4537         N8-H9=1.0062         N8-C10=1.3448        H9-N8=1.0062         C10-N8=1.3448        
C10-O11=1.2254       C10-C12=1.5291       O11-C10=1.2254       C12-C10=1.5291       C12-H13=1.0972       C12-N14=1.4461       
C12-C17=1.5533       H13-C12=1.0972       N14-C12=1.4461       N14-H15=1.0163       N14-H16=1.0149       H15-N14=1.0163       
H16-N14=1.0149       C17-C12=1.5533       C17-H18=1.0904       C17-H19=1.0918       C17-C20=1.4958       H18-C17=1.0904       
H19-C17=1.0918       C20-C17=1.4958       C20-C21=1.3675       C20-C34=1.4296       C21-C20=1.3675       C21-H22=1.0745       
C21-N23=1.3648       H22-C21=1.0745       N23-C21=1.3648       N23-H24=1.0061       N23-C25=1.3630       H24-N23=1.0061       
C25-N23=1.3630       C25-C26=1.3894       C25-C34=1.4168       C26-C25=1.3894       C26-H27=1.0796       C26-C28=1.3772       
H27-C26=1.0796       C28-C26=1.3772       C28-H29=1.0800       C28-C30=1.3982       H29-C28=1.0800       C30-C28=1.3982       
C30-H31=1.0803       C30-C32=1.3760       H31-C30=1.0803       C32-C30=1.3760       C32-H33=1.0801       C32-C34=1.3959       
H33-C32=1.0801       C34-C20=1.4296       C34-C25=1.4168       C34-C32=1.3959       
 C  H  Rav=1.0859 sigma=0.0076  Rmin=1.0745  Rmax=1.0972    10
 C  C  Rav=1.4393 sigma=0.0675  Rmin=1.3675  Rmax=1.5533    12
 N  H  Rav=1.0109 sigma=0.0047  Rmin=1.0061  Rmax=1.0163     4
 N  C  Rav=1.3945 sigma=0.0458  Rmin=1.3448  Rmax=1.4537     5
 O  H  Rav=0.9958 sigma=0.0000  Rmin=0.9958  Rmax=0.9958     1
 O  C  Rav=1.2483 sigma=0.0508  Rmin=1.2007  Rmax=1.3187     3

 selected bond angles (degree)
 --------------------
H4-O1-C2=112.13                O3-C2-O1=122.86                C5-C2-O1=115.00                C5-C2-O3=122.13                
H6-C5-C2=108.26                H7-C5-C2=109.13                H7-C5-H6=109.69                N8-C5-C2=111.99                
N8-C5-H6=108.65                N8-C5-H7=109.10                H9-N8-C5=117.86                C10-N8-C5=122.14               
C10-N8-H9=119.23               O11-C10-N8=122.01              C12-C10-N8=116.00              C12-C10-O11=121.99             

 selected dihedral angles (degree)
 ---------------------------------
O3-C2-O1-H4=170.93            C5-C2-O1-H4=350.50            H6-C5-C2-O1=308.93            H6-C5-C2-O3=128.50            
H7-C5-C2-O1=189.59            H7-C5-C2-O3=  9.16            N8-C5-C2-O1= 68.70            N8-C5-C2-O3=248.26            
H9-N8-C5-C2=101.12            H9-N8-C5-H6=220.66            H9-N8-C5-H7=340.21            C10-N8-C5-C2=291.24           
C10-N8-C5-H6= 50.78           C10-N8-C5-H7=170.32           O11-C10-N8-C5=356.71          O11-C10-N8-H9=186.96          
C12-C10-N8-C5=176.57          C12-C10-N8-H9=  6.82          
           -------------------------------------------------
          |                Final Singlepoint                |
           -------------------------------------------------

          ...................................................
          :                      SETUP                      :
          :.................................................:
          :  # basis functions                  91          :
          :  # atomic orbitals                  91          :
          :  # shells                           53          :
          :  # electrons                       100          :
          :  max. iterations                   250          :
          :  Hamiltonian                  GFN2-xTB          :
          :  restarted?                      false          :
          :  GBSA solvation                  false          :
          :  PC potential                    false          :
          :  electronic temp.          300.0000000     K    :
          :  accuracy                    1.0000000          :
          :  -> integral cutoff          0.2500000E+02      :
          :  -> integral neglect         0.1000000E-07      :
          :  -> SCF convergence          0.1000000E-05 Eh   :
          :  -> wf. convergence          0.1000000E-03 e    :
          :  Broyden damping             0.4000000          :
          :  net charge                          0          :
          :  unpaired electrons                  0          :
          ...................................................

 iter      E             dE          RMSdq      gap      omega  full diag
   1    -57.2371313 -0.572371E+02  0.123E-05    3.13       0.0  T
   2    -57.2371313 -0.110134E-11  0.869E-06    3.13    1974.0  T
   3    -57.2371313 -0.104450E-11  0.528E-06    3.13    3250.6  T

   *** convergence criteria satisfied after 3 iterations ***

         #    Occupation            Energy/Eh            Energy/eV
      -------------------------------------------------------------
         1        2.0000           -0.7466483             -20.3173
       ...           ...                  ...                  ...
        44        2.0000           -0.4243000             -11.5458
        45        2.0000           -0.4134256             -11.2499
        46        2.0000           -0.4126339             -11.2283
        47        2.0000           -0.4121774             -11.2159
        48        2.0000           -0.3791045             -10.3160
        49        2.0000           -0.3785119             -10.2998
        50        2.0000           -0.3619575              -9.8494 (HOMO)
        51                         -0.2467927              -6.7156 (LUMO)
        52                         -0.2394405              -6.5155
        53                         -0.2278695              -6.2006
        54                         -0.1938180              -5.2741
        55                         -0.1594154              -4.3379
       ...                                ...                  ...
        91                          0.7203540              19.6018
      -------------------------------------------------------------
                  HL-Gap            0.1151648 Eh            3.1338 eV
             Fermi-level           -0.3043751 Eh           -8.2825 eV

 SCC (total)                   0 d,  0 h,  0 min,  0.426 sec
 SCC setup                      ...        0 min,  0.001 sec (  0.194%)
 Dispersion                     ...        0 min,  0.000 sec (  0.023%)
 classical contributions        ...        0 min,  0.000 sec (  0.003%)
 integral evaluation            ...        0 min,  0.003 sec (  0.790%)
 iterations                     ...        0 min,  0.405 sec ( 95.172%)
 molecular gradient             ...        0 min,  0.016 sec (  3.709%)
 printout                       ...        0 min,  0.000 sec (  0.107%)

         :::::::::::::::::::::::::::::::::::::::::::::::::::::
         ::                     SUMMARY                     ::
         :::::::::::::::::::::::::::::::::::::::::::::::::::::
         :: total energy             -56.480407582127 Eh    ::
         :: gradient norm              0.000190606062 Eh/a0 ::
         :: HOMO-LUMO gap              3.133794468275 eV    ::
         ::.................................................::
         :: SCC energy               -57.236237281302 Eh    ::
         :: -> isotropic ES            0.096955285590 Eh    ::
         :: -> anisotropic ES          0.004217672912 Eh    ::
         :: -> anisotropic XC          0.019689182699 Eh    ::
         :: -> dispersion             -0.039677014200 Eh    ::
         :: repulsion energy           0.755829699175 Eh    ::
         :: add. restraining           0.000000000000 Eh    ::
         :: total charge              -0.000000000000 e     ::
         :::::::::::::::::::::::::::::::::::::::::::::::::::::

           -------------------------------------------------
          |                Property Printout                |
           -------------------------------------------------

    * Orbital Energies and Occupations

         #    Occupation            Energy/Eh            Energy/eV
      -------------------------------------------------------------
         1        2.0000           -0.7466483             -20.3173
       ...           ...                  ...                  ...
        38        2.0000           -0.4706552             -12.8072
        39        2.0000           -0.4580141             -12.4632
        40        2.0000           -0.4561718             -12.4131
        41        2.0000           -0.4503023             -12.2534
        42        2.0000           -0.4491266             -12.2214
        43        2.0000           -0.4304705             -11.7137
        44        2.0000           -0.4243000             -11.5458
        45        2.0000           -0.4134256             -11.2499
        46        2.0000           -0.4126339             -11.2283
        47        2.0000           -0.4121774             -11.2159
        48        2.0000           -0.3791045             -10.3160
        49        2.0000           -0.3785119             -10.2998
        50        2.0000           -0.3619575              -9.8494 (HOMO)
        51                         -0.2467927              -6.7156 (LUMO)
        52                         -0.2394405              -6.5155
        53                         -0.2278695              -6.2006
        54                         -0.1938180              -5.2741
        55                         -0.1594154              -4.3379
        56                         -0.0687273              -1.8702
        57                         -0.0264902              -0.7208
        58                          0.0296850               0.8078
        59                          0.0420831               1.1451
        60                          0.0531850               1.4472
        61                          0.0686194               1.8672
       ...                                ...                  ...
        91                          0.7203540              19.6018
      -------------------------------------------------------------
                  HL-Gap            0.1151648 Eh            3.1338 eV
             Fermi-level           -0.3043751 Eh           -8.2825 eV

     #   Z          covCN         q      C6AA      α(0)
     1   8 O        1.655    -0.375    20.364     6.092
     2   6 C        2.685     0.359    20.916     7.484
     3   8 O        0.856    -0.386    21.410     6.204
     4   1 H        0.800     0.366     0.553     1.169
     5   6 C        3.738    -0.036    21.307     6.587
     6   1 H        0.924     0.078     2.001     2.212
     7   1 H        0.925     0.075     2.031     2.228
     8   7 N        2.685    -0.174    24.757     7.390
     9   1 H        0.860     0.182     1.203     1.718
    10   6 C        2.755     0.263    22.572     7.780
    11   8 O        0.859    -0.455    22.801     6.402
    12   6 C        3.784     0.033    20.038     6.376
    13   1 H        0.924     0.038     2.474     2.460
    14   7 N        2.632    -0.337    28.671     7.952
    15   1 H        0.860     0.167     1.290     1.779
    16   1 H        0.860     0.144     1.440     1.880
    17   6 C        3.806    -0.068    21.795     6.646
    18   1 H        0.924     0.071     2.069     2.250
    19   1 H        0.924     0.030     2.581     2.512
    20   6 C        3.054    -0.042    28.985     8.829
    21   6 C        3.040    -0.012    28.273     8.721
    22   1 H        0.926     0.023     2.683     2.561
    23   7 N        2.776    -0.098    23.159     7.147
    24   1 H        0.860     0.174     1.250     1.752
    25   6 C        3.093     0.048    26.821     8.488
    26   6 C        2.909    -0.050    29.242     8.867
    27   1 H        0.926     0.028     2.616     2.529
    28   6 C        2.924    -0.035    28.883     8.813
    29   1 H        0.926     0.028     2.613     2.528
    30   6 C        2.920    -0.042    29.032     8.836
    31   1 H        0.926     0.026     2.647     2.544
    32   6 C        2.911    -0.040    28.999     8.830
    33   1 H        0.926     0.034     2.533     2.489
    34   6 C        3.117    -0.017    28.272     8.709

 Mol. C6AA /au·bohr⁶  :      13334.452469
 Mol. C8AA /au·bohr⁸  :     312440.969979
 Mol. α(0) /au        :        178.765733


Wiberg/Mayer (AO) data.
largest (>0.10) Wiberg bond orders for each atom

 ---------------------------------------------------------------------------
     #   Z sym  total        # sym  WBO       # sym  WBO       # sym  WBO
 ---------------------------------------------------------------------------
     1   8 O    2.233 --     2 C    1.200     4 H    0.774     3 O    0.181
     2   6 C    3.929 --     3 O    1.764     1 O    1.200     5 C    0.928
     3   8 O    2.055 --     2 C    1.764     1 O    0.181
     4   1 H    0.866 --     1 O    0.774
     5   6 C    3.965 --     8 N    0.986     7 H    0.975     6 H    0.957
                             2 C    0.928
     6   1 H    0.994 --     5 C    0.957
     7   1 H    0.994 --     5 C    0.975
     8   7 N    3.449 --    10 C    1.274     5 C    0.986     9 H    0.938
                            11 O    0.182
     9   1 H    0.967 --     8 N    0.938
    10   6 C    3.934 --    11 O    1.625     8 N    1.274    12 C    0.940
    11   8 O    2.015 --    10 C    1.625     8 N    0.182
    12   6 C    3.989 --    14 N    1.037    13 H    0.954    17 C    0.950
                            10 C    0.940
    13   1 H    0.998 --    12 C    0.954
    14   7 N    3.015 --    12 C    1.037    16 H    0.962    15 H    0.948
    15   1 H    0.972 --    14 N    0.948
    16   1 H    0.979 --    14 N    0.962
    17   6 C    3.992 --    20 C    1.017    19 H    0.975    18 H    0.965
                            12 C    0.950
    18   1 H    0.994 --    17 C    0.965
    19   1 H    0.999 --    17 C    0.975
    20   6 C    3.973 --    21 C    1.569    34 C    1.207    17 C    1.017
    21   6 C    3.952 --    20 C    1.569    23 N    1.207    22 H    0.969
    22   1 H    0.999 --    21 C    0.969
    23   7 N    3.556 --    21 C    1.207    25 C    1.182    24 H    0.941
    24   1 H    0.969 --    23 N    0.941
    25   6 C    3.959 --    26 C    1.335    34 C    1.248    23 N    1.182
    26   6 C    3.989 --    28 C    1.498    25 C    1.335    27 H    0.968
                            32 C    0.114
    27   1 H    0.999 --    26 C    0.968
    28   6 C    3.991 --    26 C    1.498    30 C    1.369    29 H    0.972
    29   1 H    0.999 --    28 C    0.972
    30   6 C    3.991 --    32 C    1.507    28 C    1.369    31 H    0.972
    31   1 H    0.999 --    30 C    0.972
    32   6 C    3.992 --    30 C    1.507    34 C    1.328    33 H    0.965
                            26 C    0.114
    33   1 H    0.998 --    32 C    0.965
    34   6 C    3.984 --    32 C    1.328    25 C    1.248    20 C    1.207
 ---------------------------------------------------------------------------

Topologies differ in total number of bonds
Writing topology from bond orders to xtbtopo.mol

molecular dipole:
                 x           y           z       tot (Debye)
 q only:       -0.953      -0.720       0.590
   full:       -1.375      -0.500       0.552       3.974
molecular quadrupole (traceless):
                xx          xy          yy          xz          yz          zz
 q only:       11.035       3.068     -10.470      -1.612      -1.917      -0.565
  q+dip:       15.952       4.981     -14.867      -3.650       0.167      -1.084
   full:       15.701       4.559     -16.305      -1.434      -0.797       0.604

           -------------------------------------------------
          |                Geometry Summary                 |
           -------------------------------------------------

      molecular mass/u    :      261.2770023
   center of mass at/Å    :       -0.0000000      -0.0000000      -0.0000000
  moments of inertia/u·Å² :        0.9232062E+03   0.1338430E+04   0.1814194E+04
rotational constants/cm⁻¹ :        0.1825988E-01   0.1259508E-01   0.9292079E-02

 * 31 selected distances

     #   Z          #   Z                                           value/Å
     1   8 O        2   6 C                                       1.3186592
     2   6 C        3   8 O                                       1.2007140
     1   8 O        4   1 H                                       0.9957827 (min)
     5   6 C        6   1 H                                       1.0963044
     5   6 C        7   1 H                                       1.0892728
     5   6 C        8   7 N                                       1.4537122 (max)
     8   7 N        9   1 H                                       1.0062465
     8   7 N       10   6 C                                       1.3448429
    10   6 C       11   8 O                                       1.2253852
    12   6 C       13   1 H                                       1.0972100
    12   6 C       14   7 N                                       1.4460748
    14   7 N       15   1 H                                       1.0162525
    14   7 N       16   1 H                                       1.0149317
    17   6 C       18   1 H                                       1.0904057
    17   6 C       19   1 H                                       1.0918202
    20   6 C       21   6 C                                       1.3675135
    21   6 C       22   1 H                                       1.0744847
    21   6 C       23   7 N                                       1.3647622
    23   7 N       24   1 H                                       1.0060583
    23   7 N       25   6 C                                       1.3629934
    25   6 C       26   6 C                                       1.3893529
    26   6 C       27   1 H                                       1.0796339
    26   6 C       28   6 C                                       1.3771769
    28   6 C       29   1 H                                       1.0799553
    28   6 C       30   6 C                                       1.3982472
    30   6 C       31   1 H                                       1.0802795
    30   6 C       32   6 C                                       1.3759548
    32   6 C       33   1 H                                       1.0801057
    20   6 C       34   6 C                                       1.4295791
    25   6 C       34   6 C                                       1.4167835
    32   6 C       34   6 C                                       1.3959063

 * 6 distinct bonds (by element types)

   Z      Z             #   av. dist./Å        max./Å        min./Å
   1 H    6 C          10     1.0859472     1.0972100     1.0744847
   6 C    6 C           8     1.3938143     1.4295791     1.3675135
   1 H    7 N           4     1.0108722     1.0162525     1.0060583
   6 C    7 N           5     1.3944771     1.4537122     1.3448429
   1 H    8 O           1     0.9957827     0.9957827     0.9957827
   6 C    8 O           3     1.2482528     1.3186592     1.2007140


optimized geometry written to: xtbopt.xyz


           -------------------------------------------------
          | TOTAL ENERGY              -56.480407582127 Eh   |
          | GRADIENT NORM               0.000190606062 Eh/α |
          | HOMO-LUMO GAP               3.133794468275 eV   |
           -------------------------------------------------

------------------------------------------------------------------------
 * finished run on 2026/10/01 at 18:03:16.988     
------------------------------------------------------------------------
 total:
 * wall-time:     0 d,  0 h,  0 min,  0.868 sec
 *  cpu-time:     0 d,  0 h,  0 min, 11.733 sec
 * ratio c/w:    13.518 speedup
 SCF:
 * wall-time:     0 d,  0 h,  0 min,  0.228 sec
 *  cpu-time:     0 d,  0 h,  0 min,  3.152 sec
 * ratio c/w:    13.817 speedup
 ANC optimizer:
 * wall-time:     0 d,  0 h,  0 min,  0.621 sec
 *  cpu-time:     0 d,  0 h,  0 min,  8.313 sec
 * ratio c/w:    13.387 speedup


--- STDERR ---
normal termination of xtb
Note: The following floating-point exceptions are signalling: IEEE_UNDERFLOW_FLAG IEEE_DENORMAL
