34
 energy: -56.480407582127 gnorm: 0.000190606062 xtb: 6.7.1-6.fc44.fc44
O           -0.58226846740000        2.03577633150000       -1.15370957000000
C           -1.51141646220000        2.38782413700000       -0.28675624370000
O           -1.36997560900000        3.29452565890000        0.48758268700000
H           -0.80419288490000        1.18180724420000       -1.61530388950000
C           -2.80775653290000        1.55267491530000       -0.34484618880000
H           -3.15301721200000        1.52609280790000       -1.38502476910000
H           -3.56440275920000        2.02410888120000        0.28105440260000
N           -2.59701718320000        0.18813749130000        0.11002226320000
H           -2.88706592640000       -0.04610766970000        1.04465199590000
C           -1.86116931220000       -0.69370663230000       -0.58960682450000
O           -1.37559531550000       -0.41431893330000       -1.67943663730000
C           -1.66385517180000       -2.06492037770000        0.05774358290000
H           -2.64275696940000       -2.48021962500000        0.32820113810000
N           -1.01815140150000       -2.99718851450000       -0.83951597560000
H           -0.15367427260000       -2.58336594790000       -1.17744944660000
H           -1.60093060770000       -3.16251832890000       -1.65383818800000
C           -0.80834111430000       -1.88712902430000        1.34193619610000
H           -0.30298853860000       -2.83673929210000        1.52038345150000
H           -1.46236064380000       -1.67927367620000        2.19112737520000
C            0.18837335420000       -0.78061714980000        1.20188997100000
C            0.04366148320000        0.50375494490000        1.64858862640000
H           -0.74420723470000        0.93697216330000        2.23689375480000
N            1.11324261920000        1.26291506520000        1.27143127170000
H            1.18298440780000        2.25837591960000        1.39928589540000
C            1.97086112510000        0.48759552850000        0.54954429630000
C            3.18062132600000        0.80516984900000       -0.05537537820000
H            3.57212809430000        1.81059845040000       -0.01736417950000
C            3.85572554270000       -0.20635869660000       -0.70164172520000
H            4.79763040430000        0.00506701610000       -1.18580859500000
C            3.35099384420000       -1.50988520350000       -0.73569171200000
H            3.92066415170000       -2.27754073370000       -1.23886601380000
C            2.15247509350000       -1.83195011770000       -0.14148793270000
H            1.78300186440000       -2.84675499760000       -0.15847954260000
C            1.43332286730000       -0.82233382390000        0.50042252880000
