34
frame_0017
O      -4.087826037102218      2.019598131422135     -0.163120355605253
C      -3.374873751569176      2.668580344681340     -1.232524933062189
O      -4.084305920108603      3.311311358643280     -2.119610221054446
H      -3.357679305915049      1.557981389104836      0.332507955059041
C      -1.971387951299992      2.288088684306724     -1.347175318937812
H      -1.319848878991071      2.735984316609776     -0.239762478658380
H      -1.374907048833286      2.790561034631653     -2.007042790242441
N      -1.617684339220936      0.770883837881074     -1.289883451496758
H      -1.244061780828120      0.111407570448553     -2.219741413958477
C      -1.771459763018177      0.095796583827991     -0.011864456582266
O      -2.113088516935061      0.215010025301891      0.820171091030634
C      -1.166045407995911     -1.624899575672079     -0.370706579835457
H      -2.136953167017625     -1.974026807840398     -0.087119391151800
N      -0.619622120085624     -1.694899415320556     -1.591955738789157
H       0.399653985157528     -1.186267248589788     -1.452103219592282
H      -0.384211643676688     -2.595955549122390     -1.933960528903190
C      -0.341656466291023     -1.764355254385980      1.130140600556709
H      -0.153439398811018     -3.144660873831850      0.969162473752073
H      -1.104969872141848     -1.801252856165134      1.828734214073604
C       0.521642339637814     -0.976274136209356      1.118023840290701
C       0.739204544874695      0.098279289677425      1.844885180819119
H       0.131233754507361      0.761088546963424      2.120796902670636
N       2.203245052766696      0.467672240249886      1.712557806245537
H       2.516489603310667      1.397815944419130      2.222495384596801
C       2.976953107250968     -0.207645600460671      0.837342612381316
C       4.274875024885063     -0.145610230177591      0.655950455910268
H       4.898477914526456      0.638658541987540      0.955156721464249
C       4.656037641374603     -1.290011113566044      0.154692243858006
H       5.737440560011922     -1.336977273591296     -0.309281171563520
C       3.864807126042804     -2.049800345626126     -0.514842995426811
H       4.104277843618751     -3.214203841286134     -1.050340980308035
C       2.467440101389573     -2.296364418335441     -0.274073464895582
H       1.946832817134252     -3.240653994980724     -0.447866974740872
C       2.020937805067982     -1.239902273175804      0.680485335285339
