34
 energy: -56.480508896179 gnorm: 0.000826409842 xtb: 6.7.1-6.fc44.fc44
O           -4.01032799650599        2.08223412230295       -0.13548363587773
C           -3.37361730977353        2.53448214744717       -1.19723771548140
O           -3.89949293795369        3.18840424856262       -2.05294625925032
H           -3.42243359350080        1.52677350104321        0.45079671534397
C           -1.86675949151746        2.19424177303304       -1.24537584165974
H           -1.40263140787845        2.66380565680331       -0.36792469466599
H           -1.44205278503159        2.62268078294983       -2.15244430249701
N           -1.59234312280420        0.77193668140254       -1.21901025057089
H           -1.22256648244073        0.30822981865639       -2.03889536322030
C           -1.74903464118823        0.00523831094206       -0.13639116946500
O           -2.25705120217267        0.41249905467664        0.90468228000055
C           -1.26806354423770       -1.43249573954737       -0.30616004336475
H           -2.17308273761387       -2.04671375711784       -0.39967181236403
N           -0.50762574544188       -1.55564069578510       -1.54076381065777
H            0.43889092544132       -1.21538860482044       -1.39004349973445
H           -0.43436071720286       -2.52881076714286       -1.81369407842211
C           -0.50655516615736       -1.86273053088195        0.97026116600279
H           -0.25533932898803       -2.92255880577149        0.89647105846699
H           -1.17010447673784       -1.71448555949017        1.82233615590322
C            0.73313568669611       -1.04897852312548        1.14561840236244
C            0.83413348960058        0.14578293161478        1.79807624822587
H            0.07277773422414        0.68438778194882        2.32812915372193
N            2.11027797177219        0.62877218706106        1.70357264458787
H            2.44375558970382        1.47971286507088        2.12281138485735
C            2.86776776871576       -0.25156031765644        0.98776772200432
C            4.20895967547119       -0.20699595652827        0.62917437222943
H            4.83572895611382        0.62214014455378        0.92253521711500
C            4.70898375238209       -1.25847005927236       -0.10776701219542
H            5.74784930036077       -1.25667304819658       -0.40220956306653
C            3.89868914884187       -2.33551383985713       -0.47811034378648
H            4.33186303057386       -3.14344871224267       -1.04935361566298
C            2.56901935329495       -2.38549377572268       -0.12781789534182
H            1.95718158702816       -3.22975770074782       -0.41233925936090
C            2.02995656864221       -1.33064858234286        0.61153399901309
