      -----------------------------------------------------------      
     |                   =====================                   |     
     |                           x T B                           |     
     |                   =====================                   |     
     |                         S. Grimme                         |     
     |          Mulliken Center for Theoretical Chemistry        |     
     |                    University of Bonn                     |     
      -----------------------------------------------------------      

   * xtb version 6.7.1-6.fc44.fc44 compiled by Fedora project on Sun Jan 18 23:32:34 UTC 2026

   xtb is free software: you can redistribute it and/or modify it under
   the terms of the GNU Lesser General Public License as published by
   the Free Software Foundation, either version 3 of the License, or
   (at your option) any later version.
   
   xtb is distributed in the hope that it will be useful,
   but WITHOUT ANY WARRANTY; without even the implied warranty of
   MERCHANTABILITY or FITNESS FOR A PARTICULAR PURPOSE.  See the
   GNU Lesser General Public License for more details.
   
   Cite this work as:
   * C. Bannwarth, E. Caldeweyher, S. Ehlert, A. Hansen, P. Pracht,
     J. Seibert, S. Spicher, S. Grimme, WIREs Comput. Mol. Sci., 2020, 11,
     e01493. DOI: 10.1002/wcms.1493
   
   for GFN2-xTB:
   * C. Bannwarth, S. Ehlert and S. Grimme., J. Chem. Theory Comput., 2019,
     15, 1652-1671. DOI: 10.1021/acs.jctc.8b01176
   for GFN1-xTB:
   * S. Grimme, C. Bannwarth, P. Shushkov, J. Chem. Theory Comput., 2017,
     13, 1989-2009. DOI: 10.1021/acs.jctc.7b00118
   for GFN0-xTB:
   * P. Pracht, E. Caldeweyher, S. Ehlert, S. Grimme, ChemRxiv, 2019, preprint.
     DOI: 10.26434/chemrxiv.8326202.v1
   for GFN-FF:
   * S. Spicher and S. Grimme, Angew. Chem. Int. Ed., 2020, 59, 15665-15673.
     DOI: 10.1002/anie.202004239
   
   for ALPB and GBSA implicit solvation:
   * S. Ehlert, M. Stahn, S. Spicher, S. Grimme, J. Chem. Theory Comput.,
     2021, 17, 4250-4261. DOI: 10.1021/acs.jctc.1c00471
   
   for ddCOSMO and CPCM-X implicit solvation:
   * M. Stahn, S. Ehlert, S. Grimme, J. Phys. Chem. A,
     2023, XX, XXXX-XXXX. DOI: 10.1021/acs.jpca.3c04382
   
   for DFT-D4:
   * E. Caldeweyher, C. Bannwarth and S. Grimme, J. Chem. Phys., 2017,
     147, 034112. DOI: 10.1063/1.4993215
   * E. Caldeweyher, S. Ehlert, A. Hansen, H. Neugebauer, S. Spicher,
     C. Bannwarth and S. Grimme, J. Chem. Phys., 2019, 150, 154122.
     DOI: 10.1063/1.5090222
   * E. Caldeweyher, J.-M. Mewes, S. Ehlert and S. Grimme, Phys. Chem. Chem. Phys.
     2020, 22, 8499-8512. DOI: 10.1039/D0CP00502A
   
   for sTDA-xTB:
   * S. Grimme and C. Bannwarth, J. Chem. Phys., 2016, 145, 054103.
     DOI: 10.1063/1.4959605
   
   in the mass-spec context:
   * V. Asgeirsson, C. Bauer and S. Grimme, Chem. Sci., 2017, 8, 4879.
     DOI: 10.1039/c7sc00601b
   * J. Koopman and S. Grimme, ACS Omega 2019, 4, 12, 15120-15133.
     DOI: 10.1021/acsomega.9b02011
   
   for metadynamics refer to:
   * S. Grimme, J. Chem. Theory Comput., 2019, 155, 2847-2862
     DOI: 10.1021/acs.jctc.9b00143
   
   for SPH calculations refer to:
   * S. Spicher and S. Grimme, J. Chem. Theory Comput., 2021, 17, 1701-1714
     DOI: 10.1021/acs.jctc.0c01306
   
   for ONIOM refer to:
   * C. Plett, A. Katbashev, S. Ehlert, S. Grimme, M. Bursch,
     Phys. Chem. Chem. Phys., 2023, 25, 17860-17868. DOI: 10.1039/D3CP02178E
   
   for DIPRO refer to:
   * J. Kohn, N. Gildemeister, S. Grimme, D. Fazzi, A. Hansen,
     J. Chem. Phys., 2023, just accepted.
   
   for PTB refer to:
   * S. Grimme, M. Mueller, A. Hansen, J. Chem. Phys., 2023, 158, 124111.
     DOI: 10.1063/5.0137838
   
   with help from (in alphabetical order)
   P. Atkinson, C. Bannwarth, F. Bohle, G. Brandenburg, E. Caldeweyher
   M. Checinski, S. Dohm, S. Ehlert, S. Ehrlich, I. Gerasimov, C. Hölzer
   A. Katbashev, J. Kohn, J. Koopman, C. Lavigne, S. Lehtola, F. März, M. Müller,
   F. Musil, H. Neugebauer, J. Pisarek, C. Plett, P. Pracht, F. Pultar,
   J. Seibert, P. Shushkov, S. Spicher, M. Stahn, M. Steiner, T. Strunk,
   J. Stückrath, T. Rose, and J. Unsleber
   
 * started run on 2026/10/01 at 18:00:15.327     
   ID    Z sym.   atoms
    1    8 O      1, 3, 11, 18
    2    6 C      2, 5, 10, 12, 17, 19, 24, 27, 28, 30, 32, 34, 36
    3    1 H      4, 6, 7, 9, 13, 14, 16, 21-23, 25, 26, 29, 31, 33, 35, 37
    4    7 N      8, 15, 20

           -------------------------------------------------
          |                Calculation Setup                |
           -------------------------------------------------

          program call               : /usr/bin/xtb input.xyz --opt --gfn 2 --chrg 0 --uhf 0
          hostname                   : fedora
          coordinate file            : input.xyz
          omp threads                :                    16


           -------------------------------------------------
          |                 G F N 2 - x T B                 |
           -------------------------------------------------

        Reference                      10.1021/acs.jctc.8b01176
      * Hamiltonian:
        H0-scaling (s, p, d)           1.850000    2.230000    2.230000
        zeta-weighting                 0.500000
      * Dispersion:
        s8                             2.700000
        a1                             0.520000
        a2                             5.000000
        s9                             5.000000
      * Repulsion:
        kExp                           1.500000    1.000000
        rExp                           1.000000
      * Coulomb:
        alpha                          2.000000
        third order                    shell-resolved
        anisotropic                    true
        a3                             3.000000
        a5                             4.000000
        cn-shift                       1.200000
        cn-exp                         4.000000
        max-rad                        5.000000


          ...................................................
          :                      SETUP                      :
          :.................................................:
          :  # basis functions                  97          :
          :  # atomic orbitals                  97          :
          :  # shells                           57          :
          :  # electrons                       108          :
          :  max. iterations                   250          :
          :  Hamiltonian                  GFN2-xTB          :
          :  restarted?                      false          :
          :  GBSA solvation                  false          :
          :  PC potential                    false          :
          :  electronic temp.          300.0000000     K    :
          :  accuracy                    1.0000000          :
          :  -> integral cutoff          0.2500000E+02      :
          :  -> integral neglect         0.1000000E-07      :
          :  -> SCF convergence          0.1000000E-05 Eh   :
          :  -> wf. convergence          0.1000000E-03 e    :
          :  Broyden damping             0.4000000          :
          :  net charge                          0          :
          :  unpaired electrons                  0          :
          ...................................................

 iter      E             dE          RMSdq      gap      omega  full diag
   1    -62.1848107 -0.621848E+02  0.439E+00    3.64       0.0  T
   2    -62.3238261 -0.139015E+00  0.238E+00    4.23       1.0  T
   3    -62.3300017 -0.617564E-02  0.126E+00    4.41       1.0  T
   4    -62.3327003 -0.269862E-02  0.235E-01    4.23       1.0  T
   5    -62.3342106 -0.151025E-02  0.915E-02    4.23       1.0  T
   6    -62.3342851 -0.744976E-04  0.489E-02    4.24       1.0  T
   7    -62.3343106 -0.255455E-04  0.212E-02    4.23       1.0  T
   8    -62.3343132 -0.259483E-05  0.510E-03    4.24       3.2  T
   9    -62.3343134 -0.124042E-06  0.227E-03    4.24       7.2  T
  10    -62.3343134 -0.229683E-07  0.101E-03    4.24      16.3  T
  11    -62.3343134 -0.115827E-07  0.401E-04    4.24      41.0  T
  12    -62.3343134 -0.311193E-08  0.128E-04    4.24     128.8  T

   *** convergence criteria satisfied after 12 iterations ***

         #    Occupation            Energy/Eh            Energy/eV
      -------------------------------------------------------------
         1        2.0000           -0.7347938             -19.9948
       ...           ...                  ...                  ...
        48        2.0000           -0.4219846             -11.4828
        49        2.0000           -0.4196870             -11.4203
        50        2.0000           -0.4124867             -11.2243
        51        2.0000           -0.4053742             -11.0308
        52        2.0000           -0.4029223             -10.9641
        53        2.0000           -0.4000578             -10.8861
        54        2.0000           -0.3969683             -10.8021 (HOMO)
        55                         -0.2412998              -6.5661 (LUMO)
        56                         -0.2348148              -6.3896
        57                         -0.2311538              -6.2900
        58                         -0.2246715              -6.1136
        59                         -0.2231250              -6.0715
       ...                                ...                  ...
        97                          0.6639729              18.0676
      -------------------------------------------------------------
                  HL-Gap            0.1556685 Eh            4.2360 eV
             Fermi-level           -0.3191341 Eh           -8.6841 eV

 SCC (total)                   0 d,  0 h,  0 min,  0.651 sec
 SCC setup                      ...        0 min,  0.005 sec (  0.765%)
 Dispersion                     ...        0 min,  0.003 sec (  0.406%)
 classical contributions        ...        0 min,  0.003 sec (  0.441%)
 integral evaluation            ...        0 min,  0.014 sec (  2.224%)
 iterations                     ...        0 min,  0.621 sec ( 95.363%)
 molecular gradient             ...        0 min,  0.005 sec (  0.726%)
 printout                       ...        0 min,  0.000 sec (  0.069%)

         :::::::::::::::::::::::::::::::::::::::::::::::::::::
         ::                     SUMMARY                     ::
         :::::::::::::::::::::::::::::::::::::::::::::::::::::
         :: total energy             -61.564432084082 Eh    ::
         :: gradient norm              0.000087661703 Eh/a0 ::
         :: HOMO-LUMO gap              4.235956596171 eV    ::
         ::.................................................::
         :: SCC energy               -62.332937875270 Eh    ::
         :: -> isotropic ES            0.130214282931 Eh    ::
         :: -> anisotropic ES          0.000734553182 Eh    ::
         :: -> anisotropic XC          0.020006699346 Eh    ::
         :: -> dispersion             -0.041274067188 Eh    ::
         :: repulsion energy           0.768505791188 Eh    ::
         :: add. restraining           0.000000000000 Eh    ::
         :: total charge               0.000000000000 e     ::
         :::::::::::::::::::::::::::::::::::::::::::::::::::::

      ----------------------------------------------------------- 
     |                   =====================                   |
     |                        A N C O P T                        |
     |                   =====================                   |
     |               Approximate Normal Coordinate               |
     |                Rational Function Optimizer                |
      ----------------------------------------------------------- 
      ----------------------------------------------------------- 
     |                   =====================                   |
     |                        A N C O P T                        |
     |                   =====================                   |
     |               Approximate Normal Coordinate               |
     |                Rational Function Optimizer                |
      ----------------------------------------------------------- 

          ...................................................
          :                      SETUP                      :
          :.................................................:
          :   optimization level            normal          :
          :   max. optcycles                   200          :
          :   ANC micro-cycles                  20          :
          :   degrees of freedom               105          :
          :.................................................:
          :   RF solver                   davidson          :
          :   write xtbopt.log                true          :
          :   linear?                        false          :
          :   energy convergence         0.5000000E-05 Eh   :
          :   grad. convergence          0.1000000E-02 Eh/α :
          :   maxmium RF displ.          1.0000000          :
          :   Hlow (freq-cutoff)         0.1000000E-01      :
          :   Hmax (freq-cutoff)         5.0000000          :
          :   S6 in model hess.         20.0000000          :
          ...................................................

generating ANC from exact Hessian ...
Using Lindh-Hessian (1995)
 Shifting diagonal of input Hessian by    9.5183312622261675E-003
 Lowest  eigenvalues of input Hessian
    0.000000    0.000000    0.000000    0.000000    0.000000    0.000000
    0.010000    0.010426    0.010714    0.010935    0.012118    0.012527
    0.013871    0.016669    0.016984    0.018998    0.021899    0.023468
 Highest eigenvalues
    1.969902    2.003721    2.025735    2.314082    2.330839    2.361553


........................................................................
.............................. CYCLE    1 ..............................
........................................................................

 iter      E             dE          RMSdq      gap      omega  full diag
   1    -62.3343134 -0.623343E+02  0.532E-05    4.24       0.0  T
   2    -62.3343134 -0.186802E-10  0.317E-05    4.24     518.8  T
   3    -62.3343134 -0.348876E-11  0.192E-05    4.24     855.8  T
     SCC iter.                  ...        0 min,  0.050 sec
     gradient                   ...        0 min,  0.005 sec
 * total energy  :   -61.5644321 Eh     change       -0.1763922E-09 Eh
   gradient norm :     0.0000857 Eh/α   predicted     0.0000000E+00 (-100.00%)
   displ. norm   :     0.0001285 α      lambda        0.0000000E+00
   maximum displ.:     0.0000652 α      in ANC's #103, #1, #49, ...

   *** GEOMETRY OPTIMIZATION CONVERGED AFTER 1 ITERATIONS ***

------------------------------------------------------------------------
 total energy gain   :        -0.0000000 Eh       -0.0000 kcal/mol
 total RMSD          :         0.0000000 a0        0.0000 Å
 total power (kW/mol):        -0.0000005 (step)   -0.0000 (real)
------------------------------------------------------------------------

 ANCopt (total)                0 d,  0 h,  0 min,  0.101 sec
 optimizer setup                ...        0 min,  0.000 sec (  0.187%)
 model hessian                  ...        0 min,  0.011 sec ( 11.021%)
 ANC generation                 ...        0 min,  0.020 sec ( 19.499%)
 coordinate transformation      ...        0 min,  0.000 sec (  0.018%)
 single point calculation       ...        0 min,  0.069 sec ( 68.683%)
 optimization log               ...        0 min,  0.000 sec (  0.100%)
 hessian update                 ...        0 min,  0.000 sec (  0.001%)
 rational function              ...        0 min,  0.000 sec (  0.082%)

================
 final structure:
================
37
 xtb: 6.7.1-6.fc44.fc44
O           -2.47135179890000        2.53448576190000        1.71539361800000
C           -2.62868813760000        1.76374836670000        0.81002027980000
O           -2.61388981760000        2.13102424490000       -0.45591749290000
H           -2.65697047890000        1.35048224810000       -1.07717571610000
C           -2.91760243470000        0.26889720300000        1.06026432220000
H           -3.89973518100000        0.05420365050000        0.61766012240000
H           -2.96278444740000        0.10516140890000        2.13604137590000
N           -1.93177288310000       -0.63744523070000        0.50100873390000
H           -1.38964607520000       -1.22595154670000        1.13779821930000
C           -1.76714978600000       -0.82872712140000       -0.80736220850000
O           -2.33431998380000       -0.17326191440000       -1.67522840600000
C           -0.83824525330000       -1.99285040490000       -1.16246755840000
H           -0.79727608780000       -2.07230054530000       -2.24873926540000
H           -1.28513878030000       -2.90472627840000       -0.74704014700000
N            0.50679997810000       -1.86266771810000       -0.65048122980000
H            1.25722636350000       -1.61272640550000       -1.27980791020000
C            0.84393076530000       -2.05183670120000        0.63249063430000
O            0.03299020200000       -2.26384313070000        1.52248255750000
C            2.34115715880000       -1.96025033420000        0.89456151440000
N            3.07409106590000       -2.37218449830000       -0.29493182260000
H            2.90860499800000       -3.35479457380000       -0.48763897350000
H            4.07075844400000       -2.25262445040000       -0.14690289910000
H            2.55465610470000       -2.58882110460000        1.77618585740000
C            2.68071398500000       -0.49931311500000        1.26487237410000
H            2.29448242610000       -0.30590360230000        2.26649152860000
H            3.76940556640000       -0.40216534500000        1.29272247650000
C            2.10102505940000        0.50142695320000        0.30275577360000
C            2.55729342980000        0.57620227020000       -1.00906453820000
H            3.34940597650000       -0.08145594920000       -1.33478822510000
C            2.00215388560000        1.48145187640000       -1.89631942210000
H            2.36041960090000        1.52199746210000       -2.91490378810000
C            1.00082395650000        2.34137751130000       -1.47840313580000
H            0.57199644600000        3.05349635730000       -2.16659833300000
C            0.55497755280000        2.28886441780000       -0.16943117250000
H           -0.21056183370000        2.96870569280000        0.16919984130000
C            1.09133864790000        1.36373820900000        0.70960306200000
H            0.72640624420000        1.32244258100000        1.72615431110000

 Bond Distances (Angstroems)
 ---------------------------
O1-C2=1.1994         C2-O1=1.1994         C2-O3=1.3182         C2-C5=1.5429         O3-C2=1.3182         O3-H4=0.9985         
H4-O3=0.9985         C5-C2=1.5429         C5-H6=1.0984         C5-H7=1.0891         C5-N8=1.4512         H6-C5=1.0984         
H7-C5=1.0891         N8-C5=1.4512         N8-H9=1.0226         N8-C10=1.3325        H9-N8=1.0226         C10-N8=1.3325        
C10-O11=1.2266       C10-C12=1.5311       O11-C10=1.2266       C12-C10=1.5311       C12-H13=1.0899       C12-H14=1.0972       
C12-N15=1.4451       H13-C12=1.0899       H14-C12=1.0972       N15-C12=1.4451       N15-H16=1.0108       N15-C17=1.3399       
H16-N15=1.0108       C17-N15=1.3399       C17-O18=1.2226       C17-C19=1.5227       O18-C17=1.2226       C19-C17=1.5227       
C19-N20=1.4566       C19-H23=1.1036       C19-C24=1.5449       N20-C19=1.4566       N20-H21=1.0149       N20-H22=1.0147       
H21-N20=1.0149       H22-N20=1.0147       H23-C19=1.1036       C24-C19=1.5449       C24-H25=1.0908       C24-H26=1.0934       
C24-C27=1.5044       H25-C24=1.0908       H26-C24=1.0934       C27-C24=1.5044       C27-C28=1.3909       C27-C36=1.3887       
C28-C27=1.3909       C28-H29=1.0798       C28-C30=1.3838       H29-C28=1.0798       C30-C28=1.3838       C30-H31=1.0805       
C30-C32=1.3845       H31-C30=1.0805       C32-C30=1.3845       C32-H33=1.0792       C32-C34=1.3838       H33-C32=1.0792       
C34-C32=1.3838       C34-H35=1.0784       C34-C36=1.3843       H35-C34=1.0784       C36-C27=1.3887       C36-C34=1.3843       
C36-H37=1.0809       H37-C36=1.0809       
 C  H  Rav=1.0884 sigma=0.0083  Rmin=1.0784  Rmax=1.1036    12
 C  C  Rav=1.4511 sigma=0.0720  Rmin=1.3838  Rmax=1.5449    11
 N  H  Rav=1.0157 sigma=0.0043  Rmin=1.0108  Rmax=1.0226     4
 N  C  Rav=1.4051 sigma=0.0564  Rmin=1.3325  Rmax=1.4566     5
 O  H  Rav=0.9985 sigma=0.0000  Rmin=0.9985  Rmax=0.9985     1
 O  C  Rav=1.2417 sigma=0.0454  Rmin=1.1994  Rmax=1.3182     4

 selected bond angles (degree)
 --------------------
O3-C2-O1=122.98                C5-C2-O1=121.65                C5-C2-O3=115.33                H4-O3-C2=112.29                
H6-C5-C2=106.94                H7-C5-C2=108.28                H7-C5-H6=109.36                N8-C5-C2=114.54                
N8-C5-H6=109.27                N8-C5-H7=108.36                H9-N8-C5=118.66                C10-N8-C5=123.50               
C10-N8-H9=117.60               O11-C10-N8=124.12              C12-C10-N8=114.32              C12-C10-O11=121.52             

 selected dihedral angles (degree)
 ---------------------------------
H4-O3-C2-O1=173.52            H4-O3-C2-C5=351.29            H6-C5-C2-O1=118.95            H6-C5-C2-O3=301.14            
H7-C5-C2-O1=  1.20            H7-C5-C2-O3=183.39            N8-C5-C2-O1=240.17            N8-C5-C2-O3= 62.36            
H9-N8-C5-C2=116.81            H9-N8-C5-H6=236.75            H9-N8-C5-H7=355.83            C10-N8-C5-C2=291.06           
C10-N8-C5-H6= 51.00           C10-N8-C5-H7=170.08           O11-C10-N8-C5=  7.28          O11-C10-N8-H9=181.58          
C12-C10-N8-C5=189.68          C12-C10-N8-H9=  3.98          
           -------------------------------------------------
          |                Final Singlepoint                |
           -------------------------------------------------

          ...................................................
          :                      SETUP                      :
          :.................................................:
          :  # basis functions                  97          :
          :  # atomic orbitals                  97          :
          :  # shells                           57          :
          :  # electrons                       108          :
          :  max. iterations                   250          :
          :  Hamiltonian                  GFN2-xTB          :
          :  restarted?                      false          :
          :  GBSA solvation                  false          :
          :  PC potential                    false          :
          :  electronic temp.          300.0000000     K    :
          :  accuracy                    1.0000000          :
          :  -> integral cutoff          0.2500000E+02      :
          :  -> integral neglect         0.1000000E-07      :
          :  -> SCF convergence          0.1000000E-05 Eh   :
          :  -> wf. convergence          0.1000000E-03 e    :
          :  Broyden damping             0.4000000          :
          :  net charge                          0          :
          :  unpaired electrons                  0          :
          ...................................................

 iter      E             dE          RMSdq      gap      omega  full diag
   1    -62.3343134 -0.623343E+02  0.466E-06    4.24       0.0  T
   2    -62.3343134 -0.298428E-12  0.292E-06    4.24    5622.4  T
   3    -62.3343134  0.142109E-12  0.191E-06    4.24    8619.6  T

   *** convergence criteria satisfied after 3 iterations ***

         #    Occupation            Energy/Eh            Energy/eV
      -------------------------------------------------------------
         1        2.0000           -0.7347937             -19.9948
       ...           ...                  ...                  ...
        48        2.0000           -0.4219842             -11.4828
        49        2.0000           -0.4196867             -11.4203
        50        2.0000           -0.4124861             -11.2243
        51        2.0000           -0.4053746             -11.0308
        52        2.0000           -0.4029226             -10.9641
        53        2.0000           -0.4000577             -10.8861
        54        2.0000           -0.3969679             -10.8020 (HOMO)
        55                         -0.2412990              -6.5661 (LUMO)
        56                         -0.2348137              -6.3896
        57                         -0.2311531              -6.2900
        58                         -0.2246716              -6.1136
        59                         -0.2231253              -6.0715
       ...                                ...                  ...
        97                          0.6639727              18.0676
      -------------------------------------------------------------
                  HL-Gap            0.1556689 Eh            4.2360 eV
             Fermi-level           -0.3191335 Eh           -8.6841 eV

 SCC (total)                   0 d,  0 h,  0 min,  0.048 sec
 SCC setup                      ...        0 min,  0.007 sec ( 14.007%)
 Dispersion                     ...        0 min,  0.002 sec (  4.435%)
 classical contributions        ...        0 min,  0.002 sec (  4.011%)
 integral evaluation            ...        0 min,  0.010 sec ( 20.933%)
 iterations                     ...        0 min,  0.025 sec ( 51.981%)
 molecular gradient             ...        0 min,  0.002 sec (  3.711%)
 printout                       ...        0 min,  0.000 sec (  0.877%)

         :::::::::::::::::::::::::::::::::::::::::::::::::::::
         ::                     SUMMARY                     ::
         :::::::::::::::::::::::::::::::::::::::::::::::::::::
         :: total energy             -61.564432084262 Eh    ::
         :: gradient norm              0.000086690851 Eh/a0 ::
         :: HOMO-LUMO gap              4.235966774519 eV    ::
         ::.................................................::
         :: SCC energy               -62.332937875450 Eh    ::
         :: -> isotropic ES            0.130217388103 Eh    ::
         :: -> anisotropic ES          0.000734901844 Eh    ::
         :: -> anisotropic XC          0.020006791653 Eh    ::
         :: -> dispersion             -0.041274069942 Eh    ::
         :: repulsion energy           0.768505791188 Eh    ::
         :: add. restraining           0.000000000000 Eh    ::
         :: total charge               0.000000000000 e     ::
         :::::::::::::::::::::::::::::::::::::::::::::::::::::

           -------------------------------------------------
          |                Property Printout                |
           -------------------------------------------------

    * Orbital Energies and Occupations

         #    Occupation            Energy/Eh            Energy/eV
      -------------------------------------------------------------
         1        2.0000           -0.7347937             -19.9948
       ...           ...                  ...                  ...
        42        2.0000           -0.4699589             -12.7882
        43        2.0000           -0.4655510             -12.6683
        44        2.0000           -0.4634036             -12.6099
        45        2.0000           -0.4486345             -12.2080
        46        2.0000           -0.4445093             -12.0957
        47        2.0000           -0.4269870             -11.6189
        48        2.0000           -0.4219842             -11.4828
        49        2.0000           -0.4196867             -11.4203
        50        2.0000           -0.4124861             -11.2243
        51        2.0000           -0.4053746             -11.0308
        52        2.0000           -0.4029226             -10.9641
        53        2.0000           -0.4000577             -10.8861
        54        2.0000           -0.3969679             -10.8020 (HOMO)
        55                         -0.2412990              -6.5661 (LUMO)
        56                         -0.2348137              -6.3896
        57                         -0.2311531              -6.2900
        58                         -0.2246716              -6.1136
        59                         -0.2231253              -6.0715
        60                         -0.0959270              -2.6103
        61                         -0.0203305              -0.5532
        62                         -0.0110088              -0.2996
        63                          0.0174549               0.4750
        64                          0.0583368               1.5874
        65                          0.0732633               1.9936
       ...                                ...                  ...
        97                          0.6639727              18.0676
      -------------------------------------------------------------
                  HL-Gap            0.1556689 Eh            4.2360 eV
             Fermi-level           -0.3191335 Eh           -8.6841 eV

     #   Z          covCN         q      C6AA      α(0)
     1   8 O        0.856    -0.380    21.284     6.185
     2   6 C        2.684     0.359    20.900     7.481
     3   8 O        1.655    -0.377    20.417     6.100
     4   1 H        0.800     0.364     0.556     1.172
     5   6 C        3.738    -0.038    21.343     6.592
     6   1 H        0.923     0.072     2.067     2.248
     7   1 H        0.925     0.082     1.956     2.187
     8   7 N        2.685    -0.175    24.781     7.393
     9   1 H        0.859     0.233     0.951     1.528
    10   6 C        2.749     0.268    22.482     7.764
    11   8 O        0.858    -0.453    22.770     6.398
    12   6 C        3.743    -0.025    21.094     6.552
    13   1 H        0.925     0.081     1.969     2.194
    14   1 H        0.924     0.077     2.011     2.217
    15   7 N        2.687    -0.169    24.647     7.373
    16   1 H        0.860     0.207     1.070     1.621
    17   6 C        2.756     0.266    22.515     7.770
    18   8 O        0.858    -0.453    22.764     6.397
    19   6 C        3.787     0.034    20.021     6.373
    20   7 N        2.632    -0.349    28.999     7.998
    21   1 H        0.860     0.141     1.464     1.895
    22   1 H        0.860     0.152     1.390     1.847
    23   1 H        0.923     0.033     2.550     2.497
    24   6 C        3.811    -0.067    21.774     6.642
    25   1 H        0.924     0.052     2.296     2.370
    26   1 H        0.924     0.050     2.321     2.382
    27   6 C        2.968     0.004    27.921     8.667
    28   6 C        2.924    -0.046    29.144     8.853
    29   1 H        0.926     0.038     2.478     2.462
    30   6 C        2.919    -0.033    28.819     8.803
    31   1 H        0.926     0.030     2.588     2.516
    32   6 C        2.920    -0.030    28.757     8.794
    33   1 H        0.926     0.038     2.472     2.459
    34   6 C        2.919    -0.030    28.760     8.794
    35   1 H        0.926     0.053     2.281     2.362
    36   6 C        2.925    -0.041    29.013     8.833
    37   1 H        0.926     0.033     2.550     2.497

 Mol. C6AA /au·bohr⁶  :      14778.955916
 Mol. C8AA /au·bohr⁸  :     339619.737907
 Mol. α(0) /au        :        186.218604


Wiberg/Mayer (AO) data.
largest (>0.10) Wiberg bond orders for each atom

 ---------------------------------------------------------------------------
     #   Z sym  total        # sym  WBO       # sym  WBO       # sym  WBO
 ---------------------------------------------------------------------------
     1   8 O    2.062 --     2 C    1.770     3 O    0.182
     2   6 C    3.931 --     1 O    1.770     3 O    1.200     5 C    0.927
     3   8 O    2.230 --     2 C    1.200     4 H    0.766     1 O    0.182
     4   1 H    0.867 --     3 O    0.766
     5   6 C    3.964 --     8 N    0.990     7 H    0.974     6 H    0.952
                             2 C    0.927
     6   1 H    0.995 --     5 C    0.952
     7   1 H    0.993 --     5 C    0.974
     8   7 N    3.489 --    10 C    1.337     5 C    0.990     9 H    0.872
                            11 O    0.204
     9   1 H    0.946 --     8 N    0.872
    10   6 C    3.956 --    11 O    1.604     8 N    1.337    12 C    0.943
    11   8 O    2.021 --    10 C    1.604     8 N    0.204
    12   6 C    3.968 --    15 N    0.995    13 H    0.972    14 H    0.953
                            10 C    0.943
    13   1 H    0.993 --    12 C    0.972
    14   1 H    0.994 --    12 C    0.953
    15   7 N    3.470 --    17 C    1.293    12 C    0.995    16 H    0.915
                            18 O    0.193
    16   1 H    0.957 --    15 N    0.915
    17   6 C    3.949 --    18 O    1.628    15 N    1.293    19 C    0.950
    18   8 O    2.003 --    17 C    1.628    15 N    0.193
    19   6 C    3.983 --    20 N    1.015    24 C    0.958    23 H    0.954
                            17 C    0.950
    20   7 N    3.015 --    19 C    1.015    21 H    0.965    22 H    0.959
    21   1 H    0.980 --    20 N    0.965
    22   1 H    0.977 --    20 N    0.959
    23   1 H    0.998 --    19 C    0.954
    24   6 C    3.992 --    27 C    1.011    25 H    0.974    26 H    0.962
                            19 C    0.958
    25   1 H    0.997 --    24 C    0.974
    26   1 H    0.997 --    24 C    0.962
    27   6 C    3.988 --    36 C    1.418    28 C    1.407    24 C    1.011
                            32 C    0.110
    28   6 C    3.992 --    30 C    1.446    27 C    1.407    29 H    0.967
                            34 C    0.112
    29   1 H    0.999 --    28 C    0.967
    30   6 C    3.992 --    28 C    1.446    32 C    1.437    31 H    0.971
                            36 C    0.110
    31   1 H    0.999 --    30 C    0.971
    32   6 C    3.992 --    34 C    1.441    30 C    1.437    33 H    0.971
                            27 C    0.110
    33   1 H    0.998 --    32 C    0.971
    34   6 C    3.991 --    36 C    1.441    32 C    1.441    35 H    0.968
                            28 C    0.112
    35   1 H    0.997 --    34 C    0.968
    36   6 C    3.992 --    34 C    1.441    27 C    1.418    37 H    0.968
                            30 C    0.110
    37   1 H    0.999 --    36 C    0.968
 ---------------------------------------------------------------------------

Topologies differ in total number of bonds
Writing topology from bond orders to xtbtopo.mol

molecular dipole:
                 x           y           z       tot (Debye)
 q only:        1.228      -1.677      -0.746
   full:        1.676      -2.424      -0.666       7.678
molecular quadrupole (traceless):
                xx          xy          yy          xz          yz          zz
 q only:        9.564       4.275      -6.191      -1.494       0.728      -3.373
  q+dip:       12.077       0.856      -7.058      -0.562      -2.095      -5.019
   full:       13.332       2.663      -6.208      -0.002      -0.856      -7.124

           -------------------------------------------------
          |                Geometry Summary                 |
           -------------------------------------------------

      molecular mass/u    :      279.2922888
   center of mass at/Å    :       -0.0000000      -0.0000000       0.0000000
  moments of inertia/u·Å² :        0.1020186E+04   0.1698847E+04   0.2039040E+04
rotational constants/cm⁻¹ :        0.1652407E-01   0.9922984E-02   0.8267434E-02

 * 32 selected distances

     #   Z          #   Z                                           value/Å
     1   8 O        2   6 C                                       1.1993715
     2   6 C        3   8 O                                       1.3182220
     3   8 O        4   1 H                                       0.9985308 (min)
     5   6 C        6   1 H                                       1.0984429
     5   6 C        7   1 H                                       1.0891039
     5   6 C        8   7 N                                       1.4512352
     8   7 N        9   1 H                                       1.0226154
     8   7 N       10   6 C                                       1.3324880
    10   6 C       11   8 O                                       1.2265842
    12   6 C       13   1 H                                       1.0899437
    12   6 C       14   1 H                                       1.0971835
    12   6 C       15   7 N                                       1.4450691
    15   7 N       16   1 H                                       1.0107733
    15   7 N       17   6 C                                       1.3399475
    17   6 C       18   8 O                                       1.2225617
    19   6 C       20   7 N                                       1.4566320 (max)
    20   7 N       21   1 H                                       1.0149110
    20   7 N       22   1 H                                       1.0146690
    19   6 C       23   1 H                                       1.1036053
    24   6 C       25   1 H                                       1.0907902
    24   6 C       26   1 H                                       1.0933723
    27   6 C       28   6 C                                       1.3909152
    28   6 C       29   1 H                                       1.0798392
    28   6 C       30   6 C                                       1.3837913
    30   6 C       31   1 H                                       1.0805150
    30   6 C       32   6 C                                       1.3844812
    32   6 C       33   1 H                                       1.0791752
    32   6 C       34   6 C                                       1.3838152
    34   6 C       35   1 H                                       1.0783811
    27   6 C       36   6 C                                       1.3887305
    34   6 C       36   6 C                                       1.3842844
    36   6 C       37   1 H                                       1.0808597

 * 6 distinct bonds (by element types)

   Z      Z             #   av. dist./Å        max./Å        min./Å
   1 H    6 C          12     1.0884343     1.1036053     1.0783811
   6 C    6 C           6     1.3860030     1.3909152     1.3837913
   1 H    7 N           4     1.0157422     1.0226154     1.0107733
   6 C    7 N           5     1.4050744     1.4566320     1.3324880
   1 H    8 O           1     0.9985308     0.9985308     0.9985308
   6 C    8 O           4     1.2416849     1.3182220     1.1993715


optimized geometry written to: xtbopt.xyz


           -------------------------------------------------
          | TOTAL ENERGY              -61.564432084262 Eh   |
          | GRADIENT NORM               0.000086690851 Eh/α |
          | HOMO-LUMO GAP               4.235966774519 eV   |
           -------------------------------------------------

------------------------------------------------------------------------
 * finished run on 2026/10/01 at 18:00:16.171     
------------------------------------------------------------------------
 total:
 * wall-time:     0 d,  0 h,  0 min,  0.844 sec
 *  cpu-time:     0 d,  0 h,  0 min, 11.414 sec
 * ratio c/w:    13.522 speedup
 SCF:
 * wall-time:     0 d,  0 h,  0 min,  0.651 sec
 *  cpu-time:     0 d,  0 h,  0 min,  8.846 sec
 * ratio c/w:    13.582 speedup
 ANC optimizer:
 * wall-time:     0 d,  0 h,  0 min,  0.150 sec
 *  cpu-time:     0 d,  0 h,  0 min,  1.997 sec
 * ratio c/w:    13.324 speedup


--- STDERR ---
normal termination of xtb
Note: The following floating-point exceptions are signalling: IEEE_UNDERFLOW_FLAG IEEE_DENORMAL
