34
frame_0024
O      -3.562540113289954      2.939089707913067     -0.679433126436557
C      -3.864484026762819      2.391008404664381     -1.817758215188061
O      -4.305285495279398      3.182718404162033     -2.804397877397738
H      -3.258166701838068      2.162063118811150      0.002034432229482
C      -3.819320820693979      0.633345991175591     -2.040032954204367
H      -3.954046811872872      0.681921122866693     -2.796741063297648
H      -4.688101710313269      0.531615199415596     -1.031304439527785
N      -2.611502219121784      0.274965792016848     -1.394491941452593
H      -1.901275009106783     -0.363386590329195     -2.012553363979543
C      -2.094124906322058      0.212215567768170     -0.211485524830155
O      -2.795736588965564      0.864287789801283      0.583339328651169
C      -0.987276408803289     -0.557146086270852      0.108578675471670
H      -1.186034306952502     -1.413878695680809      0.309909250311839
N      -0.198529537678246     -0.683835503927594     -1.235925238347917
H       0.629275835560214     -1.377379128018898     -1.040862482321081
H       0.126042494843801      0.242581120773166     -1.568865583394878
C       0.061955702408572      0.011742412369499      1.147979318003979
H      -0.729283553016164      0.397644960829137      1.849213208245352
H       0.424558112446035      1.108593786872474      0.548958526455846
C       1.275290481082917     -0.656253584424097      1.476249164674162
C       1.085471579908776     -1.720471744988549      2.536354868550627
H       0.306570206774929     -2.013596943517614      3.279784188567662
N       2.448133683757634     -2.285575023576196      2.507423923391801
H       2.818769840803912     -2.901264349137242      3.075750348577495
C       3.067880621217650     -1.606376620892459      1.332250239378311
C       4.421414151526914     -2.048731172632769      1.152778906081123
H       4.987548448021898     -2.910046116066705      1.844399613843840
C       4.868868968572833     -1.431938589751288      0.214598632757355
H       6.070499998674991     -1.707503468595296     -0.170513505173363
C       4.348684220282211     -0.357673926713431     -0.448126756319764
H       4.649864628546149      0.021818978569377     -1.544059744800405
C       3.069296410046730     -0.251532511343025     -0.016067201049142
H       2.511195316263170      0.763939800852334     -0.659916890490341
C       2.513418440668904     -1.016038386894411      0.780203343672922
