      -----------------------------------------------------------      
     |                   =====================                   |     
     |                           x T B                           |     
     |                   =====================                   |     
     |                         S. Grimme                         |     
     |          Mulliken Center for Theoretical Chemistry        |     
     |                    University of Bonn                     |     
      -----------------------------------------------------------      

   * xtb version 6.7.1-6.fc44.fc44 compiled by Fedora project on Sun Jan 18 23:32:34 UTC 2026

   xtb is free software: you can redistribute it and/or modify it under
   the terms of the GNU Lesser General Public License as published by
   the Free Software Foundation, either version 3 of the License, or
   (at your option) any later version.
   
   xtb is distributed in the hope that it will be useful,
   but WITHOUT ANY WARRANTY; without even the implied warranty of
   MERCHANTABILITY or FITNESS FOR A PARTICULAR PURPOSE.  See the
   GNU Lesser General Public License for more details.
   
   Cite this work as:
   * C. Bannwarth, E. Caldeweyher, S. Ehlert, A. Hansen, P. Pracht,
     J. Seibert, S. Spicher, S. Grimme, WIREs Comput. Mol. Sci., 2020, 11,
     e01493. DOI: 10.1002/wcms.1493
   
   for GFN2-xTB:
   * C. Bannwarth, S. Ehlert and S. Grimme., J. Chem. Theory Comput., 2019,
     15, 1652-1671. DOI: 10.1021/acs.jctc.8b01176
   for GFN1-xTB:
   * S. Grimme, C. Bannwarth, P. Shushkov, J. Chem. Theory Comput., 2017,
     13, 1989-2009. DOI: 10.1021/acs.jctc.7b00118
   for GFN0-xTB:
   * P. Pracht, E. Caldeweyher, S. Ehlert, S. Grimme, ChemRxiv, 2019, preprint.
     DOI: 10.26434/chemrxiv.8326202.v1
   for GFN-FF:
   * S. Spicher and S. Grimme, Angew. Chem. Int. Ed., 2020, 59, 15665-15673.
     DOI: 10.1002/anie.202004239
   
   for ALPB and GBSA implicit solvation:
   * S. Ehlert, M. Stahn, S. Spicher, S. Grimme, J. Chem. Theory Comput.,
     2021, 17, 4250-4261. DOI: 10.1021/acs.jctc.1c00471
   
   for ddCOSMO and CPCM-X implicit solvation:
   * M. Stahn, S. Ehlert, S. Grimme, J. Phys. Chem. A,
     2023, XX, XXXX-XXXX. DOI: 10.1021/acs.jpca.3c04382
   
   for DFT-D4:
   * E. Caldeweyher, C. Bannwarth and S. Grimme, J. Chem. Phys., 2017,
     147, 034112. DOI: 10.1063/1.4993215
   * E. Caldeweyher, S. Ehlert, A. Hansen, H. Neugebauer, S. Spicher,
     C. Bannwarth and S. Grimme, J. Chem. Phys., 2019, 150, 154122.
     DOI: 10.1063/1.5090222
   * E. Caldeweyher, J.-M. Mewes, S. Ehlert and S. Grimme, Phys. Chem. Chem. Phys.
     2020, 22, 8499-8512. DOI: 10.1039/D0CP00502A
   
   for sTDA-xTB:
   * S. Grimme and C. Bannwarth, J. Chem. Phys., 2016, 145, 054103.
     DOI: 10.1063/1.4959605
   
   in the mass-spec context:
   * V. Asgeirsson, C. Bauer and S. Grimme, Chem. Sci., 2017, 8, 4879.
     DOI: 10.1039/c7sc00601b
   * J. Koopman and S. Grimme, ACS Omega 2019, 4, 12, 15120-15133.
     DOI: 10.1021/acsomega.9b02011
   
   for metadynamics refer to:
   * S. Grimme, J. Chem. Theory Comput., 2019, 155, 2847-2862
     DOI: 10.1021/acs.jctc.9b00143
   
   for SPH calculations refer to:
   * S. Spicher and S. Grimme, J. Chem. Theory Comput., 2021, 17, 1701-1714
     DOI: 10.1021/acs.jctc.0c01306
   
   for ONIOM refer to:
   * C. Plett, A. Katbashev, S. Ehlert, S. Grimme, M. Bursch,
     Phys. Chem. Chem. Phys., 2023, 25, 17860-17868. DOI: 10.1039/D3CP02178E
   
   for DIPRO refer to:
   * J. Kohn, N. Gildemeister, S. Grimme, D. Fazzi, A. Hansen,
     J. Chem. Phys., 2023, just accepted.
   
   for PTB refer to:
   * S. Grimme, M. Mueller, A. Hansen, J. Chem. Phys., 2023, 158, 124111.
     DOI: 10.1063/5.0137838
   
   with help from (in alphabetical order)
   P. Atkinson, C. Bannwarth, F. Bohle, G. Brandenburg, E. Caldeweyher
   M. Checinski, S. Dohm, S. Ehlert, S. Ehrlich, I. Gerasimov, C. Hölzer
   A. Katbashev, J. Kohn, J. Koopman, C. Lavigne, S. Lehtola, F. März, M. Müller,
   F. Musil, H. Neugebauer, J. Pisarek, C. Plett, P. Pracht, F. Pultar,
   J. Seibert, P. Shushkov, S. Spicher, M. Stahn, M. Steiner, T. Strunk,
   J. Stückrath, T. Rose, and J. Unsleber
   
 * started run on 2026/10/01 at 18:05:19.716     
   ID    Z sym.   atoms
    1    8 O      1, 3, 11
    2    6 C      2, 5, 10, 12, 17, 20, 21, 25, 26, 28, 30, 32, 34
    3    1 H      4, 6, 7, 9, 13, 15, 16, 18, 19, 22, 24, 27, 29, 31, 33
    4    7 N      8, 14, 23

           -------------------------------------------------
          |                Calculation Setup                |
           -------------------------------------------------

          program call               : /usr/bin/xtb input.xyz --opt --gfn 2 --chrg 0 --uhf 0
          hostname                   : fedora
          coordinate file            : input.xyz
          omp threads                :                    16


           -------------------------------------------------
          |                 G F N 2 - x T B                 |
           -------------------------------------------------

        Reference                      10.1021/acs.jctc.8b01176
      * Hamiltonian:
        H0-scaling (s, p, d)           1.850000    2.230000    2.230000
        zeta-weighting                 0.500000
      * Dispersion:
        s8                             2.700000
        a1                             0.520000
        a2                             5.000000
        s9                             5.000000
      * Repulsion:
        kExp                           1.500000    1.000000
        rExp                           1.000000
      * Coulomb:
        alpha                          2.000000
        third order                    shell-resolved
        anisotropic                    true
        a3                             3.000000
        a5                             4.000000
        cn-shift                       1.200000
        cn-exp                         4.000000
        max-rad                        5.000000


          ...................................................
          :                      SETUP                      :
          :.................................................:
          :  # basis functions                  91          :
          :  # atomic orbitals                  91          :
          :  # shells                           53          :
          :  # electrons                       100          :
          :  max. iterations                   250          :
          :  Hamiltonian                  GFN2-xTB          :
          :  restarted?                      false          :
          :  GBSA solvation                  false          :
          :  PC potential                    false          :
          :  electronic temp.          300.0000000     K    :
          :  accuracy                    1.0000000          :
          :  -> integral cutoff          0.2500000E+02      :
          :  -> integral neglect         0.1000000E-07      :
          :  -> SCF convergence          0.1000000E-05 Eh   :
          :  -> wf. convergence          0.1000000E-03 e    :
          :  Broyden damping             0.4000000          :
          :  net charge                          0          :
          :  unpaired electrons                  0          :
          ...................................................

 iter      E             dE          RMSdq      gap      omega  full diag
   1    -56.7388741 -0.567389E+02  0.438E+00    2.65       0.0  T
   2    -56.8675785 -0.128704E+00  0.252E+00    2.73       1.0  T
   3    -56.8681207 -0.542226E-03  0.174E+00    3.01       1.0  T
   4    -56.8676280  0.492679E-03  0.114E+00    2.81       1.0  T
   5    -56.9083532 -0.407252E-01  0.307E-01    2.90       1.0  T
   6    -56.9110560 -0.270282E-02  0.933E-02    2.87       1.0  T
   7    -56.9111687 -0.112709E-03  0.432E-02    2.87       1.0  T
   8    -56.9111738 -0.515732E-05  0.160E-02    2.87       1.1  T
   9    -56.9111762 -0.234646E-05  0.524E-03    2.87       3.3  T
  10    -56.9111764 -0.237152E-06  0.290E-03    2.87       5.9  T
  11    -56.9111765 -0.712085E-07  0.141E-03    2.87      12.2  T
  12    -56.9111765 -0.238563E-07  0.409E-04    2.87      42.0  T
  13    -56.9111765 -0.290729E-08  0.169E-04    2.87     101.5  T

   *** convergence criteria satisfied after 13 iterations ***

         #    Occupation            Energy/Eh            Energy/eV
      -------------------------------------------------------------
         1        2.0000           -0.7372247             -20.0609
       ...           ...                  ...                  ...
        44        2.0000           -0.4320314             -11.7562
        45        2.0000           -0.4202887             -11.4366
        46        2.0000           -0.4190296             -11.4024
        47        2.0000           -0.4140485             -11.2668
        48        2.0000           -0.4063045             -11.0561
        49        2.0000           -0.3848265             -10.4717
        50        2.0000           -0.3745915             -10.1932 (HOMO)
        51                         -0.2690584              -7.3215 (LUMO)
        52                         -0.2503606              -6.8127
        53                         -0.2472456              -6.7279
        54                         -0.2410910              -6.5604
        55                         -0.1718939              -4.6775
       ...                                ...                  ...
        91                          3.3519019              91.2099
      -------------------------------------------------------------
                  HL-Gap            0.1055331 Eh            2.8717 eV
             Fermi-level           -0.3218250 Eh           -8.7573 eV

 SCC (total)                   0 d,  0 h,  0 min,  0.018 sec
 SCC setup                      ...        0 min,  0.000 sec (  1.147%)
 Dispersion                     ...        0 min,  0.000 sec (  1.042%)
 classical contributions        ...        0 min,  0.000 sec (  0.273%)
 integral evaluation            ...        0 min,  0.001 sec (  3.200%)
 iterations                     ...        0 min,  0.015 sec ( 82.652%)
 molecular gradient             ...        0 min,  0.002 sec ( 10.007%)
 printout                       ...        0 min,  0.000 sec (  1.645%)

         :::::::::::::::::::::::::::::::::::::::::::::::::::::
         ::                     SUMMARY                     ::
         :::::::::::::::::::::::::::::::::::::::::::::::::::::
         :: total energy             -55.581745398231 Eh    ::
         :: gradient norm              2.158653525671 Eh/a0 ::
         :: HOMO-LUMO gap              2.871702579050 eV    ::
         ::.................................................::
         :: SCC energy               -56.911184644975 Eh    ::
         :: -> isotropic ES            0.113400625282 Eh    ::
         :: -> anisotropic ES          0.002807824082 Eh    ::
         :: -> anisotropic XC          0.023402714412 Eh    ::
         :: -> dispersion             -0.033365514038 Eh    ::
         :: repulsion energy           1.329439246743 Eh    ::
         :: add. restraining           0.000000000000 Eh    ::
         :: total charge              -0.000000000000 e     ::
         :::::::::::::::::::::::::::::::::::::::::::::::::::::

      ----------------------------------------------------------- 
     |                   =====================                   |
     |                        A N C O P T                        |
     |                   =====================                   |
     |               Approximate Normal Coordinate               |
     |                Rational Function Optimizer                |
      ----------------------------------------------------------- 
      ----------------------------------------------------------- 
     |                   =====================                   |
     |                        A N C O P T                        |
     |                   =====================                   |
     |               Approximate Normal Coordinate               |
     |                Rational Function Optimizer                |
      ----------------------------------------------------------- 

          ...................................................
          :                      SETUP                      :
          :.................................................:
          :   optimization level            normal          :
          :   max. optcycles                   200          :
          :   ANC micro-cycles                  20          :
          :   degrees of freedom                96          :
          :.................................................:
          :   RF solver                   davidson          :
          :   write xtbopt.log                true          :
          :   linear?                        false          :
          :   energy convergence         0.5000000E-05 Eh   :
          :   grad. convergence          0.1000000E-02 Eh/α :
          :   maxmium RF displ.          1.0000000          :
          :   Hlow (freq-cutoff)         0.1000000E-01      :
          :   Hmax (freq-cutoff)         5.0000000          :
          :   S6 in model hess.         20.0000000          :
          ...................................................

generating ANC from exact Hessian ...
Using Lindh-Hessian (1995)
 Shifting diagonal of input Hessian by    9.6790461228624079E-003
 Lowest  eigenvalues of input Hessian
    0.000000    0.000000    0.000000    0.000000    0.000000    0.000000
    0.010000    0.010398    0.010514    0.012134    0.013262    0.013890
    0.016180    0.017201    0.018596    0.018936    0.020610    0.022616
 Highest eigenvalues
    2.132546    2.398074    2.447978    2.491497    3.799147    3.988272


........................................................................
.............................. CYCLE    1 ..............................
........................................................................

 iter      E             dE          RMSdq      gap      omega  full diag
   1    -56.9111765 -0.569112E+02  0.752E-05    2.87       0.0  T
   2    -56.9111765 -0.236255E-10  0.442E-05    2.87     387.8  T
   3    -56.9111765  0.296296E-11  0.339E-05    2.87     506.5  T
     SCC iter.                  ...        0 min,  0.004 sec
     gradient                   ...        0 min,  0.001 sec
 * total energy  :   -55.5817454 Eh     change       -0.2723652E-09 Eh
   gradient norm :     2.1586538 Eh/α   predicted     0.0000000E+00 (-100.00%)
   displ. norm   :     0.5750470 α      lambda       -0.1169096E+01
   maximum displ.:     0.3233413 α      in ANC's #96, #91, #90, ...

........................................................................
.............................. CYCLE    2 ..............................
........................................................................

 iter      E             dE          RMSdq      gap      omega  full diag
   1    -57.0199460 -0.570199E+02  0.784E-01    3.07       0.0  T
   2    -57.0279446 -0.799854E-02  0.581E-01    3.19       1.0  T
   3    -57.0296032 -0.165859E-02  0.317E-01    3.20       1.0  T
   4    -57.0285262  0.107696E-02  0.269E-01    3.16       1.0  T
   5    -57.0303527 -0.182650E-02  0.338E-02    3.19       1.0  T
   6    -57.0303820 -0.293000E-04  0.100E-02    3.19       1.7  T
   7    -57.0303823 -0.308412E-06  0.489E-03    3.19       3.5  T
   8    -57.0303826 -0.269711E-06  0.167E-03    3.19      10.2  T
   9    -57.0303826 -0.244042E-07  0.626E-04    3.19      27.4  T
  10    -57.0303826 -0.233621E-08  0.280E-04    3.19      61.2  T
     SCC iter.                  ...        0 min,  0.011 sec
     gradient                   ...        0 min,  0.001 sec
 * total energy  :   -56.2241195 Eh     change       -0.6423741E+00 Eh
   gradient norm :     0.5825326 Eh/α   predicted    -0.7778486E+00 (  21.09%)
   displ. norm   :     0.5013361 α      lambda       -0.2430052E+00
   maximum displ.:     0.1734585 α      in ANC's #66, #77, #90, ...

........................................................................
.............................. CYCLE    3 ..............................
........................................................................

 iter      E             dE          RMSdq      gap      omega  full diag
   1    -57.1619433 -0.571619E+02  0.619E-01    3.36       0.0  T
   2    -57.1651467 -0.320342E-02  0.411E-01    3.43       1.0  T
   3    -57.1655618 -0.415139E-03  0.239E-01    3.43       1.0  T
   4    -57.1659377 -0.375864E-03  0.114E-01    3.40       1.0  T
   5    -57.1662142 -0.276524E-03  0.181E-02    3.42       1.0  T
   6    -57.1662202 -0.603547E-05  0.822E-03    3.42       2.1  T
   7    -57.1662207 -0.431281E-06  0.337E-03    3.42       5.1  T
   8    -57.1662207 -0.594032E-07  0.153E-03    3.42      11.2  T
   9    -57.1662208 -0.226559E-07  0.645E-04    3.42      26.6  T
  10    -57.1662208 -0.465112E-08  0.240E-04    3.42      71.5  T
     SCC iter.                  ...        0 min,  0.012 sec
     gradient                   ...        0 min,  0.001 sec
 * total energy  :   -56.4035446 Eh     change       -0.1794251E+00 Eh
   gradient norm :     0.2682736 Eh/α   predicted    -0.1520941E+00 ( -15.23%)
   displ. norm   :     0.4734854 α      lambda       -0.9980590E-01
   maximum displ.:     0.1360037 α      in ANC's #64, #50, #66, ...

........................................................................
.............................. CYCLE    4 ..............................
........................................................................

 iter      E             dE          RMSdq      gap      omega  full diag
   1    -57.2378760 -0.572379E+02  0.533E-01    3.48       0.0  T
   2    -57.2389282 -0.105220E-02  0.334E-01    3.52       1.0  T
   3    -57.2387270  0.201107E-03  0.185E-01    3.51       1.0  T
   4    -57.2392339 -0.506891E-03  0.515E-02    3.50       1.0  T
   5    -57.2393001 -0.662065E-04  0.113E-02    3.50       1.5  T
   6    -57.2393015 -0.139036E-05  0.546E-03    3.50       3.1  T
   7    -57.2393017 -0.199298E-06  0.220E-03    3.50       7.8  T
   8    -57.2393018 -0.542731E-07  0.920E-04    3.50      18.6  T
   9    -57.2393018 -0.106171E-07  0.344E-04    3.50      49.9  T
     SCC iter.                  ...        0 min,  0.011 sec
     gradient                   ...        0 min,  0.001 sec
 * total energy  :   -56.4625526 Eh     change       -0.5900802E-01 Eh
   gradient norm :     0.0926473 Eh/α   predicted    -0.6109066E-01 (   3.53%)
   displ. norm   :     0.4084431 α      lambda       -0.1963416E-01
   maximum displ.:     0.1367904 α      in ANC's #45, #9, #13, ...

........................................................................
.............................. CYCLE    5 ..............................
........................................................................

 iter      E             dE          RMSdq      gap      omega  full diag
   1    -57.2183913 -0.572184E+02  0.345E-01    3.51       0.0  T
   2    -57.2185941 -0.202771E-03  0.202E-01    3.50       1.0  T
   3    -57.2185566  0.374381E-04  0.645E-02    3.50       1.0  T
   4    -57.2186086 -0.520105E-04  0.198E-02    3.50       1.0  T
   5    -57.2186191 -0.104312E-04  0.534E-03    3.50       3.2  T
   6    -57.2186192 -0.149604E-06  0.305E-03    3.50       5.6  T
   7    -57.2186193 -0.125384E-06  0.103E-03    3.50      16.7  T
   8    -57.2186194 -0.131972E-07  0.451E-04    3.50      38.1  T
   9    -57.2186194 -0.192231E-08  0.220E-04    3.50      78.0  T
     SCC iter.                  ...        0 min,  0.012 sec
     gradient                   ...        0 min,  0.004 sec
 * total energy  :   -56.4733933 Eh     change       -0.1084065E-01 Eh
   gradient norm :     0.0517251 Eh/α   predicted    -0.1145497E-01 (   5.67%)
   displ. norm   :     0.3104358 α      lambda       -0.6407705E-02
   maximum displ.:     0.1123167 α      in ANC's #10, #7, #19, ...

........................................................................
.............................. CYCLE    6 ..............................
........................................................................

 iter      E             dE          RMSdq      gap      omega  full diag
   1    -57.2270837 -0.572271E+02  0.206E-01    3.51       0.0  T
   2    -57.2271141 -0.304232E-04  0.121E-01    3.51       1.0  T
   3    -57.2270902  0.238512E-04  0.364E-02    3.51       1.0  T
   4    -57.2271227 -0.325054E-04  0.738E-03    3.51       2.3  T
   5    -57.2271234 -0.673167E-06  0.357E-03    3.51       4.8  T
   6    -57.2271235 -0.503381E-07  0.165E-03    3.51      10.4  T
   7    -57.2271235 -0.330707E-07  0.590E-04    3.51      29.0  T
   8    -57.2271235 -0.471529E-08  0.246E-04    3.51      69.7  T
     SCC iter.                  ...        0 min,  0.009 sec
     gradient                   ...        0 min,  0.002 sec
 * total energy  :   -56.4758524 Eh     change       -0.2459078E-02 Eh
   gradient norm :     0.0475764 Eh/α   predicted    -0.3512639E-02 (  42.84%)
   displ. norm   :     0.3146115 α      lambda       -0.5429584E-02
   maximum displ.:     0.1434712 α      in ANC's #9, #10, #23, ...

........................................................................
.............................. CYCLE    7 ..............................
........................................................................

 iter      E             dE          RMSdq      gap      omega  full diag
   1    -57.2313711 -0.572314E+02  0.205E-01    3.52       0.0  T
   2    -57.2314047 -0.335896E-04  0.121E-01    3.52       1.0  T
   3    -57.2313621  0.426226E-04  0.449E-02    3.51       1.0  T
   4    -57.2314155 -0.534123E-04  0.943E-03    3.51       1.8  T
   5    -57.2314173 -0.177717E-05  0.378E-03    3.51       4.5  T
   6    -57.2314174 -0.145551E-06  0.175E-03    3.51       9.8  T
   7    -57.2314175 -0.298540E-07  0.653E-04    3.51      26.2  T
   8    -57.2314175 -0.404759E-08  0.301E-04    3.51      57.0  T
     SCC iter.                  ...        0 min,  0.008 sec
     gradient                   ...        0 min,  0.001 sec
 * total energy  :   -56.4772077 Eh     change       -0.1355318E-02 Eh
   gradient norm :     0.0384246 Eh/α   predicted    -0.2983514E-02 ( 120.13%)
   displ. norm   :     0.1713349 α      lambda       -0.3037454E-02
   maximum displ.:     0.0846893 α      in ANC's #28, #11, #10, ...

........................................................................
.............................. CYCLE    8 ..............................
........................................................................

 iter      E             dE          RMSdq      gap      omega  full diag
   1    -57.2318980 -0.572319E+02  0.152E-01    3.52       0.0  T
   2    -57.2319125 -0.144655E-04  0.898E-02    3.52       1.0  T
   3    -57.2319004  0.120541E-04  0.236E-02    3.52       1.0  T
   4    -57.2319147 -0.142324E-04  0.654E-03    3.52       2.6  T
   5    -57.2319157 -0.107565E-05  0.226E-03    3.52       7.6  T
   6    -57.2319158 -0.339514E-07  0.109E-03    3.52      15.7  T
   7    -57.2319158 -0.127575E-07  0.376E-04    3.52      45.6  T
   8    -57.2319158 -0.156022E-08  0.134E-04    3.52     128.4  T
     SCC iter.                  ...        0 min,  0.013 sec
     gradient                   ...        0 min,  0.002 sec
 * total energy  :   -56.4780938 Eh     change       -0.8861504E-03 Eh
   gradient norm :     0.0297693 Eh/α   predicted    -0.1563310E-02 (  76.42%)
   displ. norm   :     0.1737007 α      lambda       -0.2552857E-02
   maximum displ.:     0.0891783 α      in ANC's #28, #27, #9, ...

........................................................................
.............................. CYCLE    9 ..............................
........................................................................

 iter      E             dE          RMSdq      gap      omega  full diag
   1    -57.2349949 -0.572350E+02  0.138E-01    3.53       0.0  T
   2    -57.2350369 -0.419684E-04  0.827E-02    3.53       1.0  T
   3    -57.2350315  0.534237E-05  0.255E-02    3.53       1.0  T
   4    -57.2350394 -0.785641E-05  0.724E-03    3.53       2.4  T
   5    -57.2350406 -0.120431E-05  0.238E-03    3.53       7.2  T
   6    -57.2350407 -0.599999E-07  0.127E-03    3.53      13.5  T
   7    -57.2350407 -0.164429E-07  0.517E-04    3.53      33.1  T
   8    -57.2350407 -0.280483E-08  0.215E-04    3.53      79.6  T
     SCC iter.                  ...        0 min,  0.009 sec
     gradient                   ...        0 min,  0.002 sec
 * total energy  :   -56.4782208 Eh     change       -0.1269407E-03 Eh
   gradient norm :     0.0285776 Eh/α   predicted    -0.1314943E-02 ( 935.87%)
   displ. norm   :     0.1201027 α      lambda       -0.1688536E-02
   maximum displ.:     0.0484476 α      in ANC's #9, #18, #26, ...

........................................................................
.............................. CYCLE   10 ..............................
........................................................................

 iter      E             dE          RMSdq      gap      omega  full diag
   1    -57.2356541 -0.572357E+02  0.951E-02    3.53       0.0  T
   2    -57.2356658 -0.116544E-04  0.562E-02    3.53       1.0  T
   3    -57.2356652  0.541807E-06  0.110E-02    3.53       1.6  T
   4    -57.2356662 -0.936295E-06  0.354E-03    3.53       4.8  T
   5    -57.2356665 -0.298917E-06  0.132E-03    3.53      13.0  T
   6    -57.2356665 -0.151113E-07  0.648E-04    3.53      26.5  T
   7    -57.2356665 -0.448102E-08  0.209E-04    3.53      82.2  T
     SCC iter.                  ...        0 min,  0.007 sec
     gradient                   ...        0 min,  0.001 sec
 * total energy  :   -56.4790666 Eh     change       -0.8457762E-03 Eh
   gradient norm :     0.0124210 Eh/α   predicted    -0.8564463E-03 (   1.26%)
   displ. norm   :     0.0896614 α      lambda       -0.3543776E-03
   maximum displ.:     0.0517351 α      in ANC's #11, #6, #13, ...

........................................................................
.............................. CYCLE   11 ..............................
........................................................................

 iter      E             dE          RMSdq      gap      omega  full diag
   1    -57.2345351 -0.572345E+02  0.586E-02    3.53       0.0  T
   2    -57.2345368 -0.166523E-05  0.345E-02    3.53       1.0  T
   3    -57.2345350  0.173438E-05  0.854E-03    3.53       2.0  T
   4    -57.2345372 -0.216434E-05  0.198E-03    3.53       8.7  T
   5    -57.2345373 -0.871275E-07  0.800E-04    3.53      21.4  T
   6    -57.2345373 -0.482392E-08  0.387E-04    3.53      44.3  T
     SCC iter.                  ...        0 min,  0.008 sec
     gradient                   ...        0 min,  0.002 sec
 * total energy  :   -56.4791905 Eh     change       -0.1239491E-03 Eh
   gradient norm :     0.0113695 Eh/α   predicted    -0.1786139E-03 (  44.10%)
   displ. norm   :     0.0563202 α      lambda       -0.1822301E-03
   maximum displ.:     0.0235418 α      in ANC's #6, #16, #5, ...

........................................................................
.............................. CYCLE   12 ..............................
........................................................................

 iter      E             dE          RMSdq      gap      omega  full diag
   1    -57.2349900 -0.572350E+02  0.322E-02    3.53       0.0  T
   2    -57.2349907 -0.685919E-06  0.189E-02    3.53       1.0  T
   3    -57.2349901  0.645882E-06  0.566E-03    3.53       3.0  T
   4    -57.2349909 -0.830698E-06  0.111E-03    3.53      15.4  T
   5    -57.2349909 -0.180331E-07  0.586E-04    3.53      29.3  T
   6    -57.2349909 -0.427186E-08  0.266E-04    3.53      64.5  T
     SCC iter.                  ...        0 min,  0.006 sec
     gradient                   ...        0 min,  0.001 sec
 * total energy  :   -56.4793198 Eh     change       -0.1292935E-03 Eh
   gradient norm :     0.0072411 Eh/α   predicted    -0.9140408E-04 ( -29.30%)
   displ. norm   :     0.1003262 α      lambda       -0.1618727E-03
   maximum displ.:     0.0500140 α      in ANC's #6, #10, #7, ...

........................................................................
.............................. CYCLE   13 ..............................
........................................................................

 iter      E             dE          RMSdq      gap      omega  full diag
   1    -57.2356132 -0.572356E+02  0.466E-02    3.54       0.0  T
   2    -57.2356145 -0.121501E-05  0.276E-02    3.54       1.0  T
   3    -57.2356135  0.961323E-06  0.700E-03    3.54       2.5  T
   4    -57.2356148 -0.130898E-05  0.144E-03    3.54      11.9  T
   5    -57.2356148 -0.176637E-07  0.758E-04    3.54      22.6  T
   6    -57.2356148 -0.474199E-08  0.352E-04    3.54      48.8  T
     SCC iter.                  ...        0 min,  0.006 sec
     gradient                   ...        0 min,  0.002 sec
 * total energy  :   -56.4794086 Eh     change       -0.8884195E-04 Eh
   gradient norm :     0.0054589 Eh/α   predicted    -0.8174886E-04 (  -7.98%)
   displ. norm   :     0.0738256 α      lambda       -0.6984554E-04
   maximum displ.:     0.0389731 α      in ANC's #6, #5, #7, ...

........................................................................
.............................. CYCLE   14 ..............................
........................................................................

 iter      E             dE          RMSdq      gap      omega  full diag
   1    -57.2352712 -0.572353E+02  0.331E-02    3.54       0.0  T
   2    -57.2352715 -0.275802E-06  0.195E-02    3.54       1.0  T
   3    -57.2352712  0.232785E-06  0.312E-03    3.54       5.5  T
   4    -57.2352716 -0.329620E-06  0.941E-04    3.54      18.2  T
   5    -57.2352716 -0.103764E-07  0.517E-04    3.54      33.2  T
     SCC iter.                  ...        0 min,  0.007 sec
     gradient                   ...        0 min,  0.003 sec
 * total energy  :   -56.4794443 Eh     change       -0.3568761E-04 Eh
   gradient norm :     0.0046811 Eh/α   predicted    -0.3511585E-04 (  -1.60%)
   displ. norm   :     0.0508266 α      lambda       -0.4482300E-04
   maximum displ.:     0.0235291 α      in ANC's #6, #7, #15, ...

........................................................................
.............................. CYCLE   15 ..............................
........................................................................

 iter      E             dE          RMSdq      gap      omega  full diag
   1    -57.2356671 -0.572357E+02  0.214E-02    3.54       0.0  T
   2    -57.2356673 -0.137556E-06  0.126E-02    3.54       1.4  T
   3    -57.2356672  0.871730E-07  0.184E-03    3.54       9.3  T
   4    -57.2356673 -0.128343E-06  0.542E-04    3.54      31.6  T
   5    -57.2356673 -0.395089E-08  0.285E-04    3.54      60.2  T
     SCC iter.                  ...        0 min,  0.005 sec
     gradient                   ...        0 min,  0.001 sec
 * total energy  :   -56.4794744 Eh     change       -0.3009099E-04 Eh
   gradient norm :     0.0035906 Eh/α   predicted    -0.2247350E-04 ( -25.31%)
   displ. norm   :     0.0498476 α      lambda       -0.3215423E-04
   maximum displ.:     0.0201584 α      in ANC's #5, #7, #6, ...

........................................................................
.............................. CYCLE   16 ..............................
........................................................................

 iter      E             dE          RMSdq      gap      omega  full diag
   1    -57.2360955 -0.572361E+02  0.195E-02    3.53       0.0  T
   2    -57.2360957 -0.202488E-06  0.114E-02    3.53       1.5  T
   3    -57.2360955  0.162309E-06  0.276E-03    3.53       6.2  T
   4    -57.2360957 -0.215774E-06  0.691E-04    3.53      24.8  T
   5    -57.2360958 -0.101565E-07  0.334E-04    3.53      51.3  T
     SCC iter.                  ...        0 min,  0.006 sec
     gradient                   ...        0 min,  0.002 sec
 * total energy  :   -56.4794931 Eh     change       -0.1864009E-04 Eh
   gradient norm :     0.0023512 Eh/α   predicted    -0.1611994E-04 ( -13.52%)
   displ. norm   :     0.0237854 α      lambda       -0.9520339E-05
   maximum displ.:     0.0159671 α      in ANC's #5, #4, #2, ...

........................................................................
.............................. CYCLE   17 ..............................
........................................................................

 iter      E             dE          RMSdq      gap      omega  full diag
   1    -57.2362187 -0.572362E+02  0.840E-03    3.53       0.0  T
   2    -57.2362188 -0.797951E-07  0.483E-03    3.53       3.6  T
   3    -57.2362188  0.889752E-08  0.115E-03    3.53      14.8  T
   4    -57.2362188 -0.176829E-07  0.334E-04    3.53      51.4  T
   5    -57.2362188 -0.241005E-08  0.145E-04    3.53     118.3  T
     SCC iter.                  ...        0 min,  0.006 sec
     gradient                   ...        0 min,  0.001 sec
 * total energy  :   -56.4795001 Eh     change       -0.7035325E-05 Eh
   gradient norm :     0.0016720 Eh/α   predicted    -0.4766242E-05 ( -32.25%)
   displ. norm   :     0.0626340 α      lambda       -0.1258915E-04
   maximum displ.:     0.0475895 α      in ANC's #5, #2, #21, ...

........................................................................
.............................. CYCLE   18 ..............................
........................................................................

 iter      E             dE          RMSdq      gap      omega  full diag
   1    -57.2365889 -0.572366E+02  0.212E-02    3.53       0.0  T
   2    -57.2365892 -0.358219E-06  0.123E-02    3.53       1.4  T
   3    -57.2365892  0.266600E-07  0.217E-03    3.53       7.9  T
   4    -57.2365892 -0.620236E-07  0.603E-04    3.53      28.4  T
   5    -57.2365893 -0.624303E-08  0.283E-04    3.53      60.6  T
     SCC iter.                  ...        0 min,  0.009 sec
     gradient                   ...        0 min,  0.002 sec
 * total energy  :   -56.4795087 Eh     change       -0.8580906E-05 Eh
   gradient norm :     0.0018838 Eh/α   predicted    -0.6309473E-05 ( -26.47%)
   displ. norm   :     0.0261336 α      lambda       -0.5571293E-05
   maximum displ.:     0.0172043 α      in ANC's #5, #2, #6, ...

........................................................................
.............................. CYCLE   19 ..............................
........................................................................

 iter      E             dE          RMSdq      gap      omega  full diag
   1    -57.2364056 -0.572364E+02  0.109E-02    3.53       0.0  T
   2    -57.2364057 -0.371865E-07  0.637E-03    3.53       2.7  T
   3    -57.2364056  0.502150E-07  0.134E-03    3.53      12.8  T
   4    -57.2364057 -0.603448E-07  0.347E-04    3.53      49.4  T
   5    -57.2364057 -0.245979E-08  0.139E-04    3.53     123.2  T
     SCC iter.                  ...        0 min,  0.005 sec
     gradient                   ...        0 min,  0.002 sec
 * total energy  :   -56.4795134 Eh     change       -0.4714033E-05 Eh
   gradient norm :     0.0013904 Eh/α   predicted    -0.2787638E-05 ( -40.87%)
   displ. norm   :     0.0299798 α      lambda       -0.4676543E-05
   maximum displ.:     0.0204742 α      in ANC's #2, #5, #6, ...

........................................................................
.............................. CYCLE   20 ..............................
........................................................................

 iter      E             dE          RMSdq      gap      omega  full diag
   1    -57.2364267 -0.572364E+02  0.120E-02    3.53       0.0  T
   2    -57.2364267 -0.641404E-07  0.700E-03    3.53       2.5  T
   3    -57.2364267  0.562305E-07  0.152E-03    3.53      11.3  T
   4    -57.2364267 -0.649734E-07  0.447E-04    3.53      38.4  T
   5    -57.2364267 -0.618694E-08  0.133E-04    3.53     128.7  T
     SCC iter.                  ...        0 min,  0.006 sec
     gradient                   ...        0 min,  0.002 sec
 * total energy  :   -56.4795173 Eh     change       -0.3909587E-05 Eh
   gradient norm :     0.0009127 Eh/α   predicted    -0.2343648E-05 ( -40.05%)
   displ. norm   :     0.0252776 α      lambda       -0.1811409E-05
   maximum displ.:     0.0173784 α      in ANC's #2, #5, #4, ...

   *** GEOMETRY OPTIMIZATION CONVERGED AFTER 20 ITERATIONS ***

------------------------------------------------------------------------
 total energy gain   :        -0.8977719 Eh     -563.3604 kcal/mol
 total RMSD          :         0.3260113 a0        0.1725 Å
 total power (kW/mol):      -117.8549902 (step)********** (real)
------------------------------------------------------------------------

 ANCopt (total)                0 d,  0 h,  0 min,  0.230 sec
 optimizer setup                ...        0 min,  0.000 sec (  0.060%)
 model hessian                  ...        0 min,  0.006 sec (  2.579%)
 ANC generation                 ...        0 min,  0.006 sec (  2.760%)
 coordinate transformation      ...        0 min,  0.000 sec (  0.047%)
 single point calculation       ...        0 min,  0.211 sec ( 91.919%)
 optimization log               ...        0 min,  0.001 sec (  0.593%)
 hessian update                 ...        0 min,  0.001 sec (  0.294%)
 rational function              ...        0 min,  0.002 sec (  1.077%)

================
 final structure:
================
34
 xtb: 6.7.1-6.fc44.fc44
O           -3.64553384873750        2.91462929172129       -0.62593361478160
C           -3.86816681814053        2.39750490134842       -1.81764864330351
O           -4.09577390352513        3.05925301054877       -2.79048997900505
H           -3.42890624585743        2.21793811385062        0.05542958372512
C           -3.84774082665483        0.85318775348288       -1.87043208102242
H           -4.06642604756700        0.53645596455788       -2.88909297212352
H           -4.63834679290840        0.49437588387809       -1.19848264691655
N           -2.57838984188571        0.28484612660706       -1.46009919235323
H           -2.00518133218252       -0.21028328232546       -2.13106119220455
C           -2.14734505552894        0.26792998684398       -0.19450646665437
O           -2.73149216594448        0.83989614786841        0.72026464614814
C           -0.86952722401234       -0.53676218571415        0.02127144953041
H           -1.18474686306657       -1.51448738842036        0.40959037462661
N           -0.20996051115136       -0.76506141834719       -1.25606073936711
H            0.52123204509330       -1.45960578606079       -1.14724445243658
H            0.24410039596293        0.09107978142785       -1.56262177019442
C            0.00583488466196        0.15133898574174        1.09226241340095
H           -0.62649563037991        0.36768565567038        1.95398314157710
H            0.37286616604871        1.09867815891027        0.68989350022616
C            1.15115295999007       -0.71691090753569        1.49130404260956
C            1.16277382792037       -1.64492646835162        2.49190247100417
H            0.38863229748543       -1.88985205010799        3.19380062643893
N            2.36974604983494       -2.28831704364536        2.52699185499086
H            2.63248290016571       -3.00077192891028        3.18598926487581
C            3.16938153701596       -1.78633388312916        1.54234903936985
C            4.46963695648080       -2.11514791697794        1.18023349305251
H            5.01847256288181       -2.87959231245963        1.71048864236180
C            5.03094298622111       -1.43001250421372        0.12487851940398
H            6.03947054784629       -1.66003618418055       -0.18442537565583
C            4.32204794518530       -0.43389489483513       -0.55291311935772
H            4.80102548801269        0.08423036191959       -1.37093543832154
C            3.03410024815916       -0.10340155765124       -0.19816338006098
H            2.50599267529057        0.67942356201272       -0.72347989789885
C            2.43317156467721       -0.78613225742314        0.86022795896916

 Bond Distances (Angstroems)
 ---------------------------
O1-C2=1.3180         O1-H4=0.9983         C2-O1=1.3180         C2-O3=1.1984         C2-C5=1.5454         O3-C2=1.1984         
H4-O1=0.9983         C5-C2=1.5454         C5-H6=1.0890         C5-H7=1.0979         C5-N8=1.4500         H6-C5=1.0890         
H7-C5=1.0979         N8-C5=1.4500         N8-H9=1.0119         N8-C10=1.3371        H9-N8=1.0119         C10-N8=1.3371        
C10-O11=1.2269       C10-C12=1.5254       O11-C10=1.2269       C12-C10=1.5254       C12-H13=1.0982       C12-N14=1.4556       
C12-C17=1.5449       H13-C12=1.0982       N14-C12=1.4556       N14-H15=1.0143       N14-H16=1.0164       H15-N14=1.0143       
H16-N14=1.0164       C17-C12=1.5449       C17-H18=1.0905       C17-H19=1.0927       C17-C20=1.4916       H18-C17=1.0905       
H19-C17=1.0927       C20-C17=1.4916       C20-C21=1.3648       C20-C34=1.4306       C21-C20=1.3648       C21-H22=1.0733       
C21-N23=1.3682       H22-C21=1.0733       N23-C21=1.3682       N23-H24=1.0054       N23-C25=1.3642       H24-N23=1.0054       
C25-N23=1.3642       C25-C26=1.3892       C25-C34=1.4169       C26-C25=1.3892       C26-H27=1.0802       C26-C28=1.3778       
H27-C26=1.0802       C28-C26=1.3778       C28-H29=1.0797       C28-C30=1.3979       H29-C28=1.0797       C30-C28=1.3979       
C30-H31=1.0803       C30-C32=1.3762       H31-C30=1.0803       C32-C30=1.3762       C32-H33=1.0806       C32-C34=1.3955       
H33-C32=1.0806       C34-C20=1.4306       C34-C25=1.4169       C34-C32=1.3955       
 C  H  Rav=1.0862 sigma=0.0081  Rmin=1.0733  Rmax=1.0982    10
 C  C  Rav=1.4380 sigma=0.0662  Rmin=1.3648  Rmax=1.5454    12
 N  H  Rav=1.0120 sigma=0.0041  Rmin=1.0054  Rmax=1.0164     4
 N  C  Rav=1.3950 sigma=0.0484  Rmin=1.3371  Rmax=1.4556     5
 O  H  Rav=0.9983 sigma=0.0000  Rmin=0.9983  Rmax=0.9983     1
 O  C  Rav=1.2478 sigma=0.0510  Rmin=1.1984  Rmax=1.3180     3

 selected bond angles (degree)
 --------------------
H4-O1-C2=112.33                O3-C2-O1=123.33                C5-C2-O1=114.88                C5-C2-O3=121.78                
H6-C5-C2=108.66                H7-C5-C2=107.23                H7-C5-H6=109.44                N8-C5-C2=113.18                
N8-C5-H6=109.06                N8-C5-H7=109.21                H9-N8-C5=120.00                C10-N8-C5=123.71               
C10-N8-H9=116.03               O11-C10-N8=123.12              C12-C10-N8=114.24              C12-C10-O11=122.64             

 selected dihedral angles (degree)
 ---------------------------------
O3-C2-O1-H4=182.88            C5-C2-O1-H4=  4.24            H6-C5-C2-O1=178.59            H6-C5-C2-O3=359.93            
H7-C5-C2-O1= 60.39            H7-C5-C2-O3=241.73            N8-C5-C2-O1=299.89            N8-C5-C2-O3=121.23            
H9-N8-C5-C2=246.12            H9-N8-C5-H6=  7.19            H9-N8-C5-H7=126.75            C10-N8-C5-C2= 72.19           
C10-N8-C5-H6=193.27           C10-N8-C5-H7=312.82           O11-C10-N8-C5=353.17          O11-C10-N8-H9=179.02          
C12-C10-N8-C5=172.61          C12-C10-N8-H9=358.47          
           -------------------------------------------------
          |                Final Singlepoint                |
           -------------------------------------------------

          ...................................................
          :                      SETUP                      :
          :.................................................:
          :  # basis functions                  91          :
          :  # atomic orbitals                  91          :
          :  # shells                           53          :
          :  # electrons                       100          :
          :  max. iterations                   250          :
          :  Hamiltonian                  GFN2-xTB          :
          :  restarted?                      false          :
          :  GBSA solvation                  false          :
          :  PC potential                    false          :
          :  electronic temp.          300.0000000     K    :
          :  accuracy                    1.0000000          :
          :  -> integral cutoff          0.2500000E+02      :
          :  -> integral neglect         0.1000000E-07      :
          :  -> SCF convergence          0.1000000E-05 Eh   :
          :  -> wf. convergence          0.1000000E-03 e    :
          :  Broyden damping             0.4000000          :
          :  net charge                          0          :
          :  unpaired electrons                  0          :
          ...................................................

 iter      E             dE          RMSdq      gap      omega  full diag
   1    -57.2364267 -0.572364E+02  0.628E-05    3.53       0.0  T
   2    -57.2364267 -0.348308E-10  0.370E-05    3.53     463.6  T
   3    -57.2364267 -0.220197E-10  0.216E-05    3.53     792.4  T

   *** convergence criteria satisfied after 3 iterations ***

         #    Occupation            Energy/Eh            Energy/eV
      -------------------------------------------------------------
         1        2.0000           -0.7355705             -20.0159
       ...           ...                  ...                  ...
        44        2.0000           -0.4263959             -11.6028
        45        2.0000           -0.4257407             -11.5850
        46        2.0000           -0.4210072             -11.4562
        47        2.0000           -0.4033729             -10.9763
        48        2.0000           -0.3998995             -10.8818
        49        2.0000           -0.3908003             -10.6342
        50        2.0000           -0.3704549             -10.0806 (HOMO)
        51                         -0.2405829              -6.5466 (LUMO)
        52                         -0.2344148              -6.3788
        53                         -0.2308747              -6.2824
        54                         -0.2063230              -5.6143
        55                         -0.1678236              -4.5667
       ...                                ...                  ...
        91                          0.7095073              19.3067
      -------------------------------------------------------------
                  HL-Gap            0.1298719 Eh            3.5340 eV
             Fermi-level           -0.3055189 Eh           -8.3136 eV

 SCC (total)                   0 d,  0 h,  0 min,  0.006 sec
 SCC setup                      ...        0 min,  0.000 sec (  4.767%)
 Dispersion                     ...        0 min,  0.000 sec (  1.788%)
 classical contributions        ...        0 min,  0.000 sec (  0.270%)
 integral evaluation            ...        0 min,  0.001 sec (  9.832%)
 iterations                     ...        0 min,  0.003 sec ( 55.720%)
 molecular gradient             ...        0 min,  0.001 sec ( 23.028%)
 printout                       ...        0 min,  0.000 sec (  4.511%)

         :::::::::::::::::::::::::::::::::::::::::::::::::::::
         ::                     SUMMARY                     ::
         :::::::::::::::::::::::::::::::::::::::::::::::::::::
         :: total energy             -56.479517299332 Eh    ::
         :: gradient norm              0.000912510767 Eh/a0 ::
         :: HOMO-LUMO gap              3.533995257834 eV    ::
         ::.................................................::
         :: SCC energy               -57.236397273809 Eh    ::
         :: -> isotropic ES            0.097896647910 Eh    ::
         :: -> anisotropic ES          0.004131890611 Eh    ::
         :: -> anisotropic XC          0.019185685600 Eh    ::
         :: -> dispersion             -0.034005555605 Eh    ::
         :: repulsion energy           0.756879974477 Eh    ::
         :: add. restraining           0.000000000000 Eh    ::
         :: total charge               0.000000000000 e     ::
         :::::::::::::::::::::::::::::::::::::::::::::::::::::

           -------------------------------------------------
          |                Property Printout                |
           -------------------------------------------------

    * Orbital Energies and Occupations

         #    Occupation            Energy/Eh            Energy/eV
      -------------------------------------------------------------
         1        2.0000           -0.7355705             -20.0159
       ...           ...                  ...                  ...
        38        2.0000           -0.4669672             -12.7068
        39        2.0000           -0.4641737             -12.6308
        40        2.0000           -0.4635304             -12.6133
        41        2.0000           -0.4552240             -12.3873
        42        2.0000           -0.4464301             -12.1480
        43        2.0000           -0.4351227             -11.8403
        44        2.0000           -0.4263959             -11.6028
        45        2.0000           -0.4257407             -11.5850
        46        2.0000           -0.4210072             -11.4562
        47        2.0000           -0.4033729             -10.9763
        48        2.0000           -0.3998995             -10.8818
        49        2.0000           -0.3908003             -10.6342
        50        2.0000           -0.3704549             -10.0806 (HOMO)
        51                         -0.2405829              -6.5466 (LUMO)
        52                         -0.2344148              -6.3788
        53                         -0.2308747              -6.2824
        54                         -0.2063230              -5.6143
        55                         -0.1678236              -4.5667
        56                         -0.0807507              -2.1973
        57                         -0.0217657              -0.5923
        58                          0.0119904               0.3263
        59                          0.0276761               0.7531
        60                          0.0628398               1.7100
        61                          0.0799795               2.1764
       ...                                ...                  ...
        91                          0.7095073              19.3067
      -------------------------------------------------------------
                  HL-Gap            0.1298719 Eh            3.5340 eV
             Fermi-level           -0.3055189 Eh           -8.3136 eV

     #   Z          covCN         q      C6AA      α(0)
     1   8 O        1.655    -0.375    20.372     6.093
     2   6 C        2.684     0.358    20.918     7.485
     3   8 O        0.856    -0.377    21.232     6.178
     4   1 H        0.800     0.365     0.555     1.171
     5   6 C        3.737    -0.040    21.366     6.596
     6   1 H        0.925     0.078     1.997     2.210
     7   1 H        0.924     0.075     2.029     2.228
     8   7 N        2.687    -0.164    24.557     7.360
     9   1 H        0.860     0.206     1.078     1.626
    10   6 C        2.755     0.261    22.595     7.784
    11   8 O        0.859    -0.459    22.896     6.415
    12   6 C        3.788     0.028    20.115     6.388
    13   1 H        0.923     0.055     2.256     2.349
    14   7 N        2.631    -0.356    29.184     8.023
    15   1 H        0.860     0.157     1.356     1.824
    16   1 H        0.860     0.150     1.399     1.853
    17   6 C        3.805    -0.066    21.756     6.640
    18   1 H        0.924     0.060     2.196     2.317
    19   1 H        0.924     0.042     2.425     2.435
    20   6 C        3.055    -0.033    28.766     8.796
    21   6 C        3.033    -0.009    28.204     8.711
    22   1 H        0.926     0.033     2.547     2.496
    23   7 N        2.778    -0.104    23.272     7.165
    24   1 H        0.860     0.159     1.344     1.816
    25   6 C        3.086     0.043    26.936     8.508
    26   6 C        2.908    -0.053    29.307     8.877
    27   1 H        0.926     0.024     2.676     2.558
    28   6 C        2.924    -0.036    28.897     8.816
    29   1 H        0.926     0.029     2.603     2.523
    30   6 C        2.919    -0.042    29.050     8.839
    31   1 H        0.926     0.027     2.632     2.537
    32   6 C        2.912    -0.038    28.942     8.822
    33   1 H        0.926     0.022     2.702     2.571
    34   6 C        3.116    -0.020    28.347     8.721

 Mol. C6AA /au·bohr⁶  :      13329.267001
 Mol. C8AA /au·bohr⁸  :     312415.990870
 Mol. α(0) /au        :        178.729165


Wiberg/Mayer (AO) data.
largest (>0.10) Wiberg bond orders for each atom

 ---------------------------------------------------------------------------
     #   Z sym  total        # sym  WBO       # sym  WBO       # sym  WBO
 ---------------------------------------------------------------------------
     1   8 O    2.233 --     2 C    1.200     4 H    0.770     3 O    0.183
     2   6 C    3.932 --     3 O    1.774     1 O    1.200     5 C    0.925
     3   8 O    2.066 --     2 C    1.774     1 O    0.183
     4   1 H    0.867 --     1 O    0.770
     5   6 C    3.963 --     8 N    0.990     6 H    0.974     7 H    0.952
                             2 C    0.925
     6   1 H    0.994 --     5 C    0.974
     7   1 H    0.994 --     5 C    0.952
     8   7 N    3.477 --    10 C    1.309     5 C    0.990     9 H    0.914
                            11 O    0.193
     9   1 H    0.958 --     8 N    0.914
    10   6 C    3.947 --    11 O    1.605     8 N    1.309    12 C    0.950
    11   8 O    2.010 --    10 C    1.605     8 N    0.193
    12   6 C    3.983 --    14 N    1.020    17 C    0.958    10 C    0.950
                            13 H    0.944
    13   1 H    0.997 --    12 C    0.944
    14   7 N    3.030 --    12 C    1.020    16 H    0.960    15 H    0.958
    15   1 H    0.975 --    14 N    0.958
    16   1 H    0.977 --    14 N    0.960
    17   6 C    3.993 --    20 C    1.019    19 H    0.971    18 H    0.967
                            12 C    0.958
    18   1 H    0.996 --    17 C    0.967
    19   1 H    0.998 --    17 C    0.971
    20   6 C    3.975 --    21 C    1.580    34 C    1.204    17 C    1.019
    21   6 C    3.949 --    20 C    1.580    23 N    1.196    22 H    0.970
    22   1 H    0.998 --    21 C    0.970
    23   7 N    3.544 --    21 C    1.196    25 C    1.178    24 H    0.947
    24   1 H    0.974 --    23 N    0.947
    25   6 C    3.958 --    26 C    1.338    34 C    1.245    23 N    1.178
    26   6 C    3.989 --    28 C    1.494    25 C    1.338    27 H    0.969
                            32 C    0.113
    27   1 H    0.999 --    26 C    0.969
    28   6 C    3.991 --    26 C    1.494    30 C    1.371    29 H    0.972
    29   1 H    0.999 --    28 C    0.972
    30   6 C    3.991 --    32 C    1.505    28 C    1.371    31 H    0.972
    31   1 H    0.999 --    30 C    0.972
    32   6 C    3.992 --    30 C    1.505    34 C    1.330    33 H    0.967
                            26 C    0.113
    33   1 H    0.999 --    32 C    0.967
    34   6 C    3.984 --    32 C    1.330    25 C    1.245    20 C    1.204
 ---------------------------------------------------------------------------

Topologies differ in total number of bonds
Writing topology from bond orders to xtbtopo.mol

molecular dipole:
                 x           y           z       tot (Debye)
 q only:        1.005      -2.191       0.450
   full:        1.508      -2.777       0.823       8.301
molecular quadrupole (traceless):
                xx          xy          yy          xz          yz          zz
 q only:       -3.421      15.216      -4.559      -0.607       5.032       7.979
  q+dip:       -2.777      17.526      -5.460      -3.506       0.792       8.236
   full:       -2.794      18.548      -5.215      -2.671       2.798       8.009

           -------------------------------------------------
          |                Geometry Summary                 |
           -------------------------------------------------

      molecular mass/u    :      261.2770023
   center of mass at/Å    :        0.0073122      -0.0288131       0.0164545
  moments of inertia/u·Å² :        0.5097553E+03   0.3316032E+04   0.3576039E+04
rotational constants/cm⁻¹ :        0.3307005E-01   0.5083676E-02   0.4714052E-02

 * 32 selected distances

     #   Z          #   Z                                           value/Å
     1   8 O        2   6 C                                       1.3180167
     2   6 C        3   8 O                                       1.1983890
     1   8 O        4   1 H                                       0.9982796 (min)
     5   6 C        6   1 H                                       1.0889502
     5   6 C        7   1 H                                       1.0978707
     5   6 C        8   7 N                                       1.4500474
     8   7 N        9   1 H                                       1.0118850
     8   7 N       10   6 C                                       1.3370905
    10   6 C       11   8 O                                       1.2268576
    12   6 C       13   1 H                                       1.0982267
    12   6 C       14   7 N                                       1.4555847
    14   7 N       15   1 H                                       1.0143351
    14   7 N       16   1 H                                       1.0164295
    17   6 C       18   1 H                                       1.0905093
    17   6 C       19   1 H                                       1.0927326
    17   6 C       20   6 C                                       1.4915918 (max)
    20   6 C       21   6 C                                       1.3647511
    21   6 C       22   1 H                                       1.0732870
    21   6 C       23   7 N                                       1.3681977
    23   7 N       24   1 H                                       1.0054354
    23   7 N       25   6 C                                       1.3641576
    25   6 C       26   6 C                                       1.3892123
    26   6 C       27   1 H                                       1.0801697
    26   6 C       28   6 C                                       1.3777697
    28   6 C       29   1 H                                       1.0796795
    28   6 C       30   6 C                                       1.3979214
    30   6 C       31   1 H                                       1.0802935
    30   6 C       32   6 C                                       1.3761842
    32   6 C       33   1 H                                       1.0805880
    20   6 C       34   6 C                                       1.4306015
    25   6 C       34   6 C                                       1.4169326
    32   6 C       34   6 C                                       1.3955032

 * 6 distinct bonds (by element types)

   Z      Z             #   av. dist./Å        max./Å        min./Å
   1 H    6 C          10     1.0862307     1.0982267     1.0732870
   6 C    6 C           9     1.4044964     1.4915918     1.3647511
   1 H    7 N           4     1.0120213     1.0164295     1.0054354
   6 C    7 N           5     1.3950156     1.4555847     1.3370905
   1 H    8 O           1     0.9982796     0.9982796     0.9982796
   6 C    8 O           3     1.2477544     1.3180167     1.1983890


optimized geometry written to: xtbopt.xyz


           -------------------------------------------------
          | TOTAL ENERGY              -56.479517299332 Eh   |
          | GRADIENT NORM               0.000912510767 Eh/α |
          | HOMO-LUMO GAP               3.533995257834 eV   |
           -------------------------------------------------

------------------------------------------------------------------------
 * finished run on 2026/10/01 at 18:05:19.980     
------------------------------------------------------------------------
 total:
 * wall-time:     0 d,  0 h,  0 min,  0.264 sec
 *  cpu-time:     0 d,  0 h,  0 min,  4.105 sec
 * ratio c/w:    15.557 speedup
 SCF:
 * wall-time:     0 d,  0 h,  0 min,  0.018 sec
 *  cpu-time:     0 d,  0 h,  0 min,  0.283 sec
 * ratio c/w:    15.886 speedup
 ANC optimizer:
 * wall-time:     0 d,  0 h,  0 min,  0.237 sec
 *  cpu-time:     0 d,  0 h,  0 min,  3.700 sec
 * ratio c/w:    15.610 speedup


--- STDERR ---
normal termination of xtb
Note: The following floating-point exceptions are signalling: IEEE_UNDERFLOW_FLAG IEEE_DENORMAL
