34
 energy: -56.479517299332 gnorm: 0.000912510767 xtb: 6.7.1-6.fc44.fc44
O           -3.64553384873750        2.91462929172129       -0.62593361478160
C           -3.86816681814053        2.39750490134842       -1.81764864330351
O           -4.09577390352513        3.05925301054877       -2.79048997900505
H           -3.42890624585743        2.21793811385062        0.05542958372512
C           -3.84774082665483        0.85318775348288       -1.87043208102242
H           -4.06642604756700        0.53645596455788       -2.88909297212352
H           -4.63834679290840        0.49437588387809       -1.19848264691655
N           -2.57838984188571        0.28484612660706       -1.46009919235323
H           -2.00518133218252       -0.21028328232546       -2.13106119220455
C           -2.14734505552894        0.26792998684398       -0.19450646665437
O           -2.73149216594448        0.83989614786841        0.72026464614814
C           -0.86952722401234       -0.53676218571415        0.02127144953041
H           -1.18474686306657       -1.51448738842036        0.40959037462661
N           -0.20996051115136       -0.76506141834719       -1.25606073936711
H            0.52123204509330       -1.45960578606079       -1.14724445243658
H            0.24410039596293        0.09107978142785       -1.56262177019442
C            0.00583488466196        0.15133898574174        1.09226241340095
H           -0.62649563037991        0.36768565567038        1.95398314157710
H            0.37286616604871        1.09867815891027        0.68989350022616
C            1.15115295999007       -0.71691090753569        1.49130404260956
C            1.16277382792037       -1.64492646835162        2.49190247100417
H            0.38863229748543       -1.88985205010799        3.19380062643893
N            2.36974604983494       -2.28831704364536        2.52699185499086
H            2.63248290016571       -3.00077192891028        3.18598926487581
C            3.16938153701596       -1.78633388312916        1.54234903936985
C            4.46963695648080       -2.11514791697794        1.18023349305251
H            5.01847256288181       -2.87959231245963        1.71048864236180
C            5.03094298622111       -1.43001250421372        0.12487851940398
H            6.03947054784629       -1.66003618418055       -0.18442537565583
C            4.32204794518530       -0.43389489483513       -0.55291311935772
H            4.80102548801269        0.08423036191959       -1.37093543832154
C            3.03410024815916       -0.10340155765124       -0.19816338006098
H            2.50599267529057        0.67942356201272       -0.72347989789885
C            2.43317156467721       -0.78613225742314        0.86022795896916
