68
 energy: -106.565657747039 gnorm: 0.000434686053 xtb: 6.7.1-6.fc44.fc44
O            2.06941043264542       -1.59173430929776        1.27650971782155
O           -1.26850641176280       -4.21911908062482        1.36275653381361
O           -0.67433012260596        0.08754151958493       -0.71775049000916
O           -0.96902180361390        2.95615667231852       -2.58202144445386
O           -2.16680705572369        1.34298141197898        1.75624928045741
O            1.84332617993294        2.82478894043519        0.40100506034981
N            0.37486247164347       -3.43436639316894        0.07288067352064
N           -2.09519995269407       -1.30662049010355        0.32944696204488
N           -2.50066467404240        1.40757854405396       -2.07257735871107
N           -0.90876977862252        2.76092551195064        0.53113267288911
N            1.25292484645727        1.07315055073676        1.71884797801955
N            2.29310297954101       -0.35954899986079       -0.58439956287593
C            1.85944943873552       -1.43788600686022        0.07608699706003
C            1.08434534175931       -2.46893400396330       -0.74999928522599
C            2.04463124016860       -3.33365665371431       -1.58760788686360
C            2.26311402859138       -4.56346199298715       -0.71138448911567
C            0.87933530035595       -4.78592534872780       -0.12514074708522
C           -0.68077845334351       -3.26200528049686        0.89135449378072
C           -1.09158404263246       -1.82415813822965        1.24570749100216
C           -1.63493656097750       -1.79219441798448        2.66937771548499
C           -1.81321064281405       -0.27958226835127       -0.48066924896694
C           -3.01193512467880        0.41792306517432       -1.14990949762863
C           -3.91501252537577       -0.55340134118873       -1.90398419135705
C           -1.72787452501614        2.48439558698909       -1.76248162052169
C           -1.95262188832966        3.14834166775932       -0.39417943634158
C           -1.93079004970728        4.66439518984988       -0.57227491092209
C           -1.09861069051732        1.88998141101305        1.52275822022729
C            0.12492103816434        1.65774484075727        2.43157929559273
C            0.51056536674014        2.95485210809779        3.14584005508995
C            1.96961470246483        1.66455788740522        0.75647736822402
C            2.99817583486300        0.71712965196669        0.10555404791661
C            3.74946413293441        1.42011340048244       -1.01693146771493
C            2.75282445951632        1.33474458028773       -2.17147178332528
C            2.08639843657260       -0.03093137798524       -1.98547765647258
H            0.37641688913396       -1.91971825516488       -1.37837105889619
H            1.56776611900777       -3.61819326624526       -2.52673559051539
H            2.97774919936798       -2.81951815341843       -1.80870603750908
H            2.62545782945247       -5.42169427752630       -1.27272227943127
H            2.97053025416065       -4.33045484523337        0.08463419126096
H            0.22796995703647       -5.33011650923009       -0.81953113465817
H            0.87915280277901       -5.31402361718526        0.82895260023901
H           -3.05286496023869       -1.50073890221953        0.57684643234139
H           -0.23064638123018       -1.16331619144547        1.15170328928203
H           -0.83380632472982       -2.00510051820562        3.37190443879711
H           -2.40253856427869       -2.55409864330173        2.78575424473650
H           -2.05252076553074       -0.80940102994307        2.87596202346377
H           -2.25157243477033        1.02180198457336       -2.97756819198266
H           -3.57651245500888        0.91158614220215       -0.35190349503750
H           -4.38892785775449       -1.25680660689835       -1.22564805258469
H           -3.34145913289082       -1.11529253350031       -2.63887219256683
H           -4.69341605370685        0.00245820800205       -2.42150575135544
H            0.03339629977877        3.09502828530640        0.33481348533476
H           -2.90362465368691        2.82697391662227        0.03948576857582
H           -2.00666793325873        5.15503129317341        0.39468106987576
H           -2.76198573645385        4.97775466612234       -1.19833981293743
H           -1.00285760725908        4.95778087133594       -1.05672559905746
H            1.47791117562344        0.10407127977804        1.92286048286712
H           -0.18608921096165        0.91856501695869        3.17593920695607
H            1.29510423207056        2.75394915279631        3.87206195153704
H           -0.35555834055816        3.35658442037210        3.66527753343733
H            0.87428395907517        3.69134201899925        2.43593770733466
H            3.64350512846176        0.29238977606622        0.88101389987344
H            4.67132298803157        0.88572910690085       -1.24905333907232
H            3.98124523013058        2.44881562807285       -0.75229967443730
H            3.23063307437500        1.42429149312434       -3.14461284947611
H            2.01102498106605        2.12569631030992       -2.07253570353861
H            1.01951212274873        0.02002755960949       -2.20704805386664
H            2.55166973765338       -0.78990363106473       -2.62126447600765
