34
frame_0065
O      -3.976780334100000      0.963015618400000     -2.097196436600000
C      -3.469534869000000      2.177984252000000     -2.175962548500000
O      -3.425611117600000      2.809343066800000     -3.193249293200000
H      -3.888061681600000      0.579453700700000     -1.182036908200000
C      -2.948678070200000      2.748109129700000     -0.837721416700000
H      -3.785158935300000      2.746593654000000     -0.127841706600000
H      -2.610460912500000      3.770367643800000     -1.000677442500000
N      -1.857986956400000      1.968035339700000     -0.276795820400000
H      -0.938894402400000      2.378519182600000     -0.279842210200000
C      -2.050888949600000      0.773432162500000      0.306705091100000
O      -3.141459478700000      0.214208060800000      0.294667499500000
C      -0.823102838200000      0.126634520700000      0.915885519200000
H      -0.047603712000000      0.874675957800000      1.120834825300000
N      -1.197347670500000     -0.483913292400000      2.172009404900000
H      -0.482974231700000     -1.143043110700000      2.464466403600000
H      -2.071780055000000     -0.987103423400000      2.052517843500000
C      -0.278851643500000     -0.879893547000000     -0.142532465600000
H      -0.080092641500000     -0.347342694100000     -1.074918567700000
H      -1.047962844900000     -1.632783468000000     -0.328557257300000
C       0.967630775500000     -1.523847716700000      0.356244884600000
C       1.080699015000000     -2.733812414600000      0.979118948600000
H       0.323481233900000     -3.470325900900000      1.173069392800000
N       2.380100292800000     -2.955457031200000      1.347132797300000
H       2.723906727400000     -3.783049829600000      1.802925879800000
C       3.136530227100000     -1.882805972400000      0.972875650900000
C       4.495178374200000     -1.637731042800000      1.126638566300000
H       5.140623182600000     -2.358665395600000      1.606455645900000
C       4.986373149700000     -0.444639905100000      0.643395124900000
H       6.037776870200000     -0.221056517200000      0.745313927800000
C       4.150905768700000      0.485439621900000      0.018205452100000
H       4.578379929400000      1.406583356900000     -0.349570482100000
C       2.804345094700000      0.248062980400000     -0.137405630300000
H       2.169251418000000      0.970568690500000     -0.629251332400000
C       2.276984891300000     -0.949463632000000      0.345300088200000
