34
frame_0032
O      -3.529564416892597      1.917849096304804     -2.728077779167071
C      -4.465761818048740      2.062974790385003     -1.589889322714300
O      -5.183895855415941      2.917276752107337     -1.516419071695615
H      -3.016470881682086      1.003667432685623     -2.750333279833594
C      -4.098791764534940      1.182092577190522     -0.513092203198426
H      -4.243414150229053      0.039720839475970     -0.772833365295818
H      -4.781671480720277      1.259813822148584      0.595336236127600
N      -2.743872867413092      0.837609902807740     -0.030634223666413
H      -2.456547254502628      1.487568309523098      0.923264182960836
C      -1.682783085477319      0.588214965107228     -0.696937144275843
O      -1.903015841104491      0.010868580992771     -1.810827550673104
C      -0.334882234286022      0.623618136013981      0.083603152576138
H       0.409465715186642      0.746842517088934     -0.502330774150521
N      -0.380442967307860      1.384784922128039      1.153442423599696
H      -0.278082981477967      2.342171716914808      0.752511371149021
H       0.265449160391333      1.325384819197558      2.035620852987567
C      -0.087221835878753     -0.783455464096592      0.707334903751894
H      -0.352806969108791     -1.576404483093924     -0.096526129901388
H      -0.981323088144107     -1.204365964852522      1.532602607296908
C       1.170475435566508     -1.220440577164275      1.350530542368607
C       1.383270271473829     -0.969714462101819      2.581901119051473
H       0.786114180483308     -0.899721556770063      3.426592738948065
N       2.867964048182224     -1.219301628231821      2.926990860108628
H       3.225981749437851     -1.313359240041831      3.796262961497088
C       3.505914025602354     -1.318988006465335      1.511277200821471
C       4.727481385931290     -1.425840188341752      1.257404220546784
H       5.532803549711910     -1.566660368998197      2.031314758390815
C       4.982485594457625     -1.666082493312186     -0.114782785757642
H       6.235587691961458     -1.898336460566066     -0.393575330675456
C       4.141917571184938     -1.554291242918737     -1.081940613345252
H       4.393955990428235     -1.851895105438838     -2.216871204086596
C       2.866166132217644     -1.387489742876902     -0.478641911316197
H       2.065324882662610     -1.320508145670514     -1.470605773768478
C       2.397633135605803     -1.335518879601931      0.734139145535549
