      -----------------------------------------------------------      
     |                   =====================                   |     
     |                           x T B                           |     
     |                   =====================                   |     
     |                         S. Grimme                         |     
     |          Mulliken Center for Theoretical Chemistry        |     
     |                    University of Bonn                     |     
      -----------------------------------------------------------      

   * xtb version 6.7.1-6.fc44.fc44 compiled by Fedora project on Sun Jan 18 23:32:34 UTC 2026

   xtb is free software: you can redistribute it and/or modify it under
   the terms of the GNU Lesser General Public License as published by
   the Free Software Foundation, either version 3 of the License, or
   (at your option) any later version.
   
   xtb is distributed in the hope that it will be useful,
   but WITHOUT ANY WARRANTY; without even the implied warranty of
   MERCHANTABILITY or FITNESS FOR A PARTICULAR PURPOSE.  See the
   GNU Lesser General Public License for more details.
   
   Cite this work as:
   * C. Bannwarth, E. Caldeweyher, S. Ehlert, A. Hansen, P. Pracht,
     J. Seibert, S. Spicher, S. Grimme, WIREs Comput. Mol. Sci., 2020, 11,
     e01493. DOI: 10.1002/wcms.1493
   
   for GFN2-xTB:
   * C. Bannwarth, S. Ehlert and S. Grimme., J. Chem. Theory Comput., 2019,
     15, 1652-1671. DOI: 10.1021/acs.jctc.8b01176
   for GFN1-xTB:
   * S. Grimme, C. Bannwarth, P. Shushkov, J. Chem. Theory Comput., 2017,
     13, 1989-2009. DOI: 10.1021/acs.jctc.7b00118
   for GFN0-xTB:
   * P. Pracht, E. Caldeweyher, S. Ehlert, S. Grimme, ChemRxiv, 2019, preprint.
     DOI: 10.26434/chemrxiv.8326202.v1
   for GFN-FF:
   * S. Spicher and S. Grimme, Angew. Chem. Int. Ed., 2020, 59, 15665-15673.
     DOI: 10.1002/anie.202004239
   
   for ALPB and GBSA implicit solvation:
   * S. Ehlert, M. Stahn, S. Spicher, S. Grimme, J. Chem. Theory Comput.,
     2021, 17, 4250-4261. DOI: 10.1021/acs.jctc.1c00471
   
   for ddCOSMO and CPCM-X implicit solvation:
   * M. Stahn, S. Ehlert, S. Grimme, J. Phys. Chem. A,
     2023, XX, XXXX-XXXX. DOI: 10.1021/acs.jpca.3c04382
   
   for DFT-D4:
   * E. Caldeweyher, C. Bannwarth and S. Grimme, J. Chem. Phys., 2017,
     147, 034112. DOI: 10.1063/1.4993215
   * E. Caldeweyher, S. Ehlert, A. Hansen, H. Neugebauer, S. Spicher,
     C. Bannwarth and S. Grimme, J. Chem. Phys., 2019, 150, 154122.
     DOI: 10.1063/1.5090222
   * E. Caldeweyher, J.-M. Mewes, S. Ehlert and S. Grimme, Phys. Chem. Chem. Phys.
     2020, 22, 8499-8512. DOI: 10.1039/D0CP00502A
   
   for sTDA-xTB:
   * S. Grimme and C. Bannwarth, J. Chem. Phys., 2016, 145, 054103.
     DOI: 10.1063/1.4959605
   
   in the mass-spec context:
   * V. Asgeirsson, C. Bauer and S. Grimme, Chem. Sci., 2017, 8, 4879.
     DOI: 10.1039/c7sc00601b
   * J. Koopman and S. Grimme, ACS Omega 2019, 4, 12, 15120-15133.
     DOI: 10.1021/acsomega.9b02011
   
   for metadynamics refer to:
   * S. Grimme, J. Chem. Theory Comput., 2019, 155, 2847-2862
     DOI: 10.1021/acs.jctc.9b00143
   
   for SPH calculations refer to:
   * S. Spicher and S. Grimme, J. Chem. Theory Comput., 2021, 17, 1701-1714
     DOI: 10.1021/acs.jctc.0c01306
   
   for ONIOM refer to:
   * C. Plett, A. Katbashev, S. Ehlert, S. Grimme, M. Bursch,
     Phys. Chem. Chem. Phys., 2023, 25, 17860-17868. DOI: 10.1039/D3CP02178E
   
   for DIPRO refer to:
   * J. Kohn, N. Gildemeister, S. Grimme, D. Fazzi, A. Hansen,
     J. Chem. Phys., 2023, just accepted.
   
   for PTB refer to:
   * S. Grimme, M. Mueller, A. Hansen, J. Chem. Phys., 2023, 158, 124111.
     DOI: 10.1063/5.0137838
   
   with help from (in alphabetical order)
   P. Atkinson, C. Bannwarth, F. Bohle, G. Brandenburg, E. Caldeweyher
   M. Checinski, S. Dohm, S. Ehlert, S. Ehrlich, I. Gerasimov, C. Hölzer
   A. Katbashev, J. Kohn, J. Koopman, C. Lavigne, S. Lehtola, F. März, M. Müller,
   F. Musil, H. Neugebauer, J. Pisarek, C. Plett, P. Pracht, F. Pultar,
   J. Seibert, P. Shushkov, S. Spicher, M. Stahn, M. Steiner, T. Strunk,
   J. Stückrath, T. Rose, and J. Unsleber
   
 * started run on 2026/10/01 at 18:05:18.720     
   ID    Z sym.   atoms
    1    8 O      1, 3, 11
    2    6 C      2, 5, 10, 12, 17, 20, 21, 25, 26, 28, 30, 32, 34
    3    1 H      4, 6, 7, 9, 13, 15, 16, 18, 19, 22, 24, 27, 29, 31, 33
    4    7 N      8, 14, 23

           -------------------------------------------------
          |                Calculation Setup                |
           -------------------------------------------------

          program call               : /usr/bin/xtb input.xyz --opt --gfn 2 --chrg 0 --uhf 0
          hostname                   : fedora
          coordinate file            : input.xyz
          omp threads                :                    16


           -------------------------------------------------
          |                 G F N 2 - x T B                 |
           -------------------------------------------------

        Reference                      10.1021/acs.jctc.8b01176
      * Hamiltonian:
        H0-scaling (s, p, d)           1.850000    2.230000    2.230000
        zeta-weighting                 0.500000
      * Dispersion:
        s8                             2.700000
        a1                             0.520000
        a2                             5.000000
        s9                             5.000000
      * Repulsion:
        kExp                           1.500000    1.000000
        rExp                           1.000000
      * Coulomb:
        alpha                          2.000000
        third order                    shell-resolved
        anisotropic                    true
        a3                             3.000000
        a5                             4.000000
        cn-shift                       1.200000
        cn-exp                         4.000000
        max-rad                        5.000000


          ...................................................
          :                      SETUP                      :
          :.................................................:
          :  # basis functions                  91          :
          :  # atomic orbitals                  91          :
          :  # shells                           53          :
          :  # electrons                       100          :
          :  max. iterations                   250          :
          :  Hamiltonian                  GFN2-xTB          :
          :  restarted?                      false          :
          :  GBSA solvation                  false          :
          :  PC potential                    false          :
          :  electronic temp.          300.0000000     K    :
          :  accuracy                    1.0000000          :
          :  -> integral cutoff          0.2500000E+02      :
          :  -> integral neglect         0.1000000E-07      :
          :  -> SCF convergence          0.1000000E-05 Eh   :
          :  -> wf. convergence          0.1000000E-03 e    :
          :  Broyden damping             0.4000000          :
          :  net charge                          0          :
          :  unpaired electrons                  0          :
          ...................................................

 iter      E             dE          RMSdq      gap      omega  full diag
   1    -56.8509100 -0.568509E+02  0.453E+00    2.89       0.0  T
   2    -56.9673548 -0.116445E+00  0.252E+00    3.40       1.0  T
   3    -56.9711912 -0.383641E-02  0.126E+00    3.41       1.0  T
   4    -56.9747187 -0.352749E-02  0.258E-01    3.30       1.0  T
   5    -56.9763598 -0.164111E-02  0.112E-01    3.32       1.0  T
   6    -56.9765705 -0.210653E-03  0.496E-02    3.32       1.0  T
   7    -56.9765797 -0.925213E-05  0.261E-02    3.31       1.0  T
   8    -56.9765865 -0.678135E-05  0.788E-03    3.32       2.2  T
   9    -56.9765874 -0.929857E-06  0.385E-03    3.32       4.5  T
  10    -56.9765875 -0.107502E-06  0.133E-03    3.32      12.9  T
  11    -56.9765875 -0.573534E-08  0.500E-04    3.32      34.3  T
  12    -56.9765875 -0.240393E-08  0.182E-04    3.32      94.0  T

   *** convergence criteria satisfied after 12 iterations ***

         #    Occupation            Energy/Eh            Energy/eV
      -------------------------------------------------------------
         1        2.0000           -0.7523311             -20.4720
       ...           ...                  ...                  ...
        44        2.0000           -0.4299456             -11.6994
        45        2.0000           -0.4242168             -11.5435
        46        2.0000           -0.4124281             -11.2227
        47        2.0000           -0.4106439             -11.1742
        48        2.0000           -0.4052504             -11.0274
        49        2.0000           -0.3848833             -10.4732
        50        2.0000           -0.3760492             -10.2328 (HOMO)
        51                         -0.2541428              -6.9156 (LUMO)
        52                         -0.2476624              -6.7392
        53                         -0.2346360              -6.3848
        54                         -0.2077031              -5.6519
        55                         -0.1716188              -4.6700
       ...                                ...                  ...
        91                          0.9987807              27.1782
      -------------------------------------------------------------
                  HL-Gap            0.1219064 Eh            3.3172 eV
             Fermi-level           -0.3150960 Eh           -8.5742 eV

 SCC (total)                   0 d,  0 h,  0 min,  0.027 sec
 SCC setup                      ...        0 min,  0.000 sec (  0.744%)
 Dispersion                     ...        0 min,  0.000 sec (  1.001%)
 classical contributions        ...        0 min,  0.001 sec (  2.167%)
 integral evaluation            ...        0 min,  0.001 sec (  3.071%)
 iterations                     ...        0 min,  0.022 sec ( 83.774%)
 molecular gradient             ...        0 min,  0.002 sec (  7.183%)
 printout                       ...        0 min,  0.001 sec (  2.017%)

         :::::::::::::::::::::::::::::::::::::::::::::::::::::
         ::                     SUMMARY                     ::
         :::::::::::::::::::::::::::::::::::::::::::::::::::::
         :: total energy             -56.120066152358 Eh    ::
         :: gradient norm              0.676273692076 Eh/a0 ::
         :: HOMO-LUMO gap              3.317242287135 eV    ::
         ::.................................................::
         :: SCC energy               -56.976607438125 Eh    ::
         :: -> isotropic ES            0.107683010760 Eh    ::
         :: -> anisotropic ES          0.005691252812 Eh    ::
         :: -> anisotropic XC          0.024626390698 Eh    ::
         :: -> dispersion             -0.033638206920 Eh    ::
         :: repulsion energy           0.856541285767 Eh    ::
         :: add. restraining           0.000000000000 Eh    ::
         :: total charge               0.000000000000 e     ::
         :::::::::::::::::::::::::::::::::::::::::::::::::::::

      ----------------------------------------------------------- 
     |                   =====================                   |
     |                        A N C O P T                        |
     |                   =====================                   |
     |               Approximate Normal Coordinate               |
     |                Rational Function Optimizer                |
      ----------------------------------------------------------- 
      ----------------------------------------------------------- 
     |                   =====================                   |
     |                        A N C O P T                        |
     |                   =====================                   |
     |               Approximate Normal Coordinate               |
     |                Rational Function Optimizer                |
      ----------------------------------------------------------- 

          ...................................................
          :                      SETUP                      :
          :.................................................:
          :   optimization level            normal          :
          :   max. optcycles                   200          :
          :   ANC micro-cycles                  20          :
          :   degrees of freedom                96          :
          :.................................................:
          :   RF solver                   davidson          :
          :   write xtbopt.log                true          :
          :   linear?                        false          :
          :   energy convergence         0.5000000E-05 Eh   :
          :   grad. convergence          0.1000000E-02 Eh/α :
          :   maxmium RF displ.          1.0000000          :
          :   Hlow (freq-cutoff)         0.1000000E-01      :
          :   Hmax (freq-cutoff)         5.0000000          :
          :   S6 in model hess.         20.0000000          :
          ...................................................

generating ANC from exact Hessian ...
Using Lindh-Hessian (1995)
 Shifting diagonal of input Hessian by    9.6172244025741430E-003
 Lowest  eigenvalues of input Hessian
    0.000000    0.000000    0.000000    0.000000    0.000000    0.000000
    0.010000    0.010149    0.010376    0.011751    0.011906    0.014936
    0.015651    0.016117    0.018247    0.019070    0.020250    0.021907
 Highest eigenvalues
    2.122564    2.153381    2.189581    2.387101    2.554833    2.647084


........................................................................
.............................. CYCLE    1 ..............................
........................................................................

 iter      E             dE          RMSdq      gap      omega  full diag
   1    -56.9765875 -0.569766E+02  0.745E-05    3.32       0.0  T
   2    -56.9765875 -0.491482E-10  0.423E-05    3.32     405.7  T
   3    -56.9765875 -0.175504E-10  0.259E-05    3.32     663.3  T
     SCC iter.                  ...        0 min,  0.003 sec
     gradient                   ...        0 min,  0.002 sec
 * total energy  :   -56.1200662 Eh     change       -0.2094112E-09 Eh
   gradient norm :     0.6762724 Eh/α   predicted     0.0000000E+00 (-100.00%)
   displ. norm   :     0.5215881 α      lambda       -0.3074157E+00
   maximum displ.:     0.1592542 α      in ANC's #67, #74, #75, ...

........................................................................
.............................. CYCLE    2 ..............................
........................................................................

 iter      E             dE          RMSdq      gap      omega  full diag
   1    -57.0738575 -0.570739E+02  0.769E-01    3.09       0.0  T
   2    -57.0820151 -0.815766E-02  0.481E-01    3.28       1.0  T
   3    -57.0834915 -0.147639E-02  0.267E-01    3.26       1.0  T
   4    -57.0833971  0.944060E-04  0.152E-01    3.26       1.0  T
   5    -57.0838094 -0.412246E-03  0.178E-02    3.27       1.0  T
   6    -57.0838127 -0.337190E-05  0.822E-03    3.27       2.1  T
   7    -57.0838131 -0.363084E-06  0.372E-03    3.27       4.6  T
   8    -57.0838133 -0.172986E-06  0.119E-03    3.27      14.5  T
   9    -57.0838133 -0.800669E-08  0.481E-04    3.27      35.7  T
  10    -57.0838133 -0.285036E-08  0.186E-04    3.27      92.4  T
     SCC iter.                  ...        0 min,  0.011 sec
     gradient                   ...        0 min,  0.001 sec
 * total energy  :   -56.3539601 Eh     change       -0.2338939E+00 Eh
   gradient norm :     0.3506777 Eh/α   predicted    -0.1955476E+00 ( -16.39%)
   displ. norm   :     0.5602286 α      lambda       -0.1726197E+00
   maximum displ.:     0.1914727 α      in ANC's #60, #78, #67, ...

........................................................................
.............................. CYCLE    3 ..............................
........................................................................

 iter      E             dE          RMSdq      gap      omega  full diag
   1    -57.1956418 -0.571956E+02  0.806E-01    3.39       0.0  T
   2    -57.2034585 -0.781674E-02  0.503E-01    3.39       1.0  T
   3    -57.2051124 -0.165391E-02  0.282E-01    3.42       1.0  T
   4    -57.2052722 -0.159767E-03  0.153E-01    3.40       1.0  T
   5    -57.2056288 -0.356624E-03  0.202E-02    3.40       1.0  T
   6    -57.2056349 -0.609633E-05  0.863E-03    3.40       2.0  T
   7    -57.2056353 -0.344393E-06  0.385E-03    3.40       4.5  T
   8    -57.2056354 -0.915514E-07  0.117E-03    3.40      14.6  T
   9    -57.2056354 -0.194709E-07  0.433E-04    3.40      39.6  T
  10    -57.2056354 -0.792014E-09  0.180E-04    3.40      95.3  T
     SCC iter.                  ...        0 min,  0.010 sec
     gradient                   ...        0 min,  0.002 sec
 * total energy  :   -56.4590627 Eh     change       -0.1051026E+00 Eh
   gradient norm :     0.0931069 Eh/α   predicted    -0.1133987E+00 (   7.89%)
   displ. norm   :     0.4157681 α      lambda       -0.2584993E-01
   maximum displ.:     0.1133066 α      in ANC's #21, #49, #36, ...

........................................................................
.............................. CYCLE    4 ..............................
........................................................................

 iter      E             dE          RMSdq      gap      omega  full diag
   1    -57.2183762 -0.572184E+02  0.401E-01    3.53       0.0  T
   2    -57.2189553 -0.579083E-03  0.240E-01    3.54       1.0  T
   3    -57.2188626  0.927301E-04  0.114E-01    3.56       1.0  T
   4    -57.2189998 -0.137164E-03  0.461E-02    3.55       1.0  T
   5    -57.2190552 -0.554178E-04  0.727E-03    3.55       2.4  T
   6    -57.2190562 -0.983092E-06  0.373E-03    3.55       4.6  T
   7    -57.2190562 -0.672314E-07  0.146E-03    3.55      11.7  T
   8    -57.2190562 -0.108903E-07  0.588E-04    3.55      29.2  T
   9    -57.2190562 -0.314309E-08  0.207E-04    3.55      82.9  T
     SCC iter.                  ...        0 min,  0.009 sec
     gradient                   ...        0 min,  0.001 sec
 * total energy  :   -56.4744131 Eh     change       -0.1535043E-01 Eh
   gradient norm :     0.0398336 Eh/α   predicted    -0.1515924E-01 (  -1.25%)
   displ. norm   :     0.2692858 α      lambda       -0.5312108E-02
   maximum displ.:     0.1159694 α      in ANC's #29, #21, #8, ...

........................................................................
.............................. CYCLE    5 ..............................
........................................................................

 iter      E             dE          RMSdq      gap      omega  full diag
   1    -57.2296938 -0.572297E+02  0.201E-01    3.61       0.0  T
   2    -57.2297512 -0.574533E-04  0.117E-01    3.61       1.0  T
   3    -57.2297400  0.112542E-04  0.344E-02    3.61       1.0  T
   4    -57.2297583 -0.183565E-04  0.805E-03    3.61       2.1  T
   5    -57.2297600 -0.167538E-05  0.346E-03    3.61       5.0  T
   6    -57.2297601 -0.614393E-07  0.186E-03    3.61       9.2  T
   7    -57.2297601 -0.435953E-07  0.537E-04    3.61      31.9  T
   8    -57.2297601 -0.329870E-08  0.235E-04    3.61      72.8  T
     SCC iter.                  ...        0 min,  0.009 sec
     gradient                   ...        0 min,  0.002 sec
 * total energy  :   -56.4771894 Eh     change       -0.2776274E-02 Eh
   gradient norm :     0.0264573 Eh/α   predicted    -0.2848680E-02 (   2.61%)
   displ. norm   :     0.2192372 α      lambda       -0.2394452E-02
   maximum displ.:     0.0721384 α      in ANC's #30, #25, #4, ...

........................................................................
.............................. CYCLE    6 ..............................
........................................................................

 iter      E             dE          RMSdq      gap      omega  full diag
   1    -57.2324144 -0.572324E+02  0.138E-01    3.64       0.0  T
   2    -57.2324751 -0.606671E-04  0.787E-02    3.64       1.0  T
   3    -57.2324724  0.272003E-05  0.330E-02    3.63       1.0  T
   4    -57.2324785 -0.609132E-05  0.114E-02    3.64       1.5  T
   5    -57.2324819 -0.344648E-05  0.301E-03    3.64       5.7  T
   6    -57.2324820 -0.398637E-07  0.133E-03    3.64      12.9  T
   7    -57.2324820 -0.196040E-07  0.451E-04    3.64      38.0  T
   8    -57.2324820 -0.229217E-08  0.183E-04    3.64      93.9  T
     SCC iter.                  ...        0 min,  0.011 sec
     gradient                   ...        0 min,  0.002 sec
 * total energy  :   -56.4781773 Eh     change       -0.9879108E-03 Eh
   gradient norm :     0.0182524 Eh/α   predicted    -0.1254773E-02 (  27.01%)
   displ. norm   :     0.1041837 α      lambda       -0.7915347E-03
   maximum displ.:     0.0328161 α      in ANC's #4, #12, #9, ...

........................................................................
.............................. CYCLE    7 ..............................
........................................................................

 iter      E             dE          RMSdq      gap      omega  full diag
   1    -57.2345488 -0.572345E+02  0.645E-02    3.63       0.0  T
   2    -57.2345547 -0.596982E-05  0.373E-02    3.63       1.0  T
   3    -57.2345540  0.751762E-06  0.984E-03    3.62       1.7  T
   4    -57.2345552 -0.125095E-05  0.266E-03    3.63       6.4  T
   5    -57.2345554 -0.204752E-06  0.115E-03    3.63      14.9  T
   6    -57.2345555 -0.134664E-07  0.467E-04    3.63      36.7  T
   7    -57.2345555 -0.200624E-08  0.212E-04    3.63      80.9  T
     SCC iter.                  ...        0 min,  0.008 sec
     gradient                   ...        0 min,  0.001 sec
 * total energy  :   -56.4786321 Eh     change       -0.4547521E-03 Eh
   gradient norm :     0.0078652 Eh/α   predicted    -0.4001117E-03 ( -12.02%)
   displ. norm   :     0.0908846 α      lambda       -0.2607128E-03
   maximum displ.:     0.0476627 α      in ANC's #4, #6, #10, ...

........................................................................
.............................. CYCLE    8 ..............................
........................................................................

 iter      E             dE          RMSdq      gap      omega  full diag
   1    -57.2356887 -0.572357E+02  0.419E-02    3.62       0.0  T
   2    -57.2356908 -0.214222E-05  0.247E-02    3.62       1.0  T
   3    -57.2356903  0.572811E-06  0.644E-03    3.62       2.7  T
   4    -57.2356912 -0.979675E-06  0.200E-03    3.62       8.6  T
   5    -57.2356913 -0.625309E-07  0.888E-04    3.62      19.3  T
   6    -57.2356913 -0.618010E-08  0.390E-04    3.62      44.0  T
     SCC iter.                  ...        0 min,  0.007 sec
     gradient                   ...        0 min,  0.001 sec
 * total energy  :   -56.4787610 Eh     change       -0.1289378E-03 Eh
   gradient norm :     0.0053657 Eh/α   predicted    -0.1314356E-03 (   1.94%)
   displ. norm   :     0.0782717 α      lambda       -0.1353454E-03
   maximum displ.:     0.0440534 α      in ANC's #4, #6, #14, ...

........................................................................
.............................. CYCLE    9 ..............................
........................................................................

 iter      E             dE          RMSdq      gap      omega  full diag
   1    -57.2353901 -0.572354E+02  0.345E-02    3.61       0.0  T
   2    -57.2353920 -0.190129E-05  0.202E-02    3.61       1.0  T
   3    -57.2353918  0.227628E-06  0.601E-03    3.61       2.9  T
   4    -57.2353923 -0.536145E-06  0.135E-03    3.61      12.7  T
   5    -57.2353923 -0.200954E-07  0.654E-04    3.61      26.2  T
   6    -57.2353923 -0.210442E-08  0.359E-04    3.61      47.8  T
     SCC iter.                  ...        0 min,  0.007 sec
     gradient                   ...        0 min,  0.001 sec
 * total energy  :   -56.4788170 Eh     change       -0.5595036E-04 Eh
   gradient norm :     0.0049050 Eh/α   predicted    -0.6808929E-04 (  21.70%)
   displ. norm   :     0.0501333 α      lambda       -0.6888422E-04
   maximum displ.:     0.0301176 α      in ANC's #4, #6, #10, ...

........................................................................
.............................. CYCLE   10 ..............................
........................................................................

 iter      E             dE          RMSdq      gap      omega  full diag
   1    -57.2354350 -0.572354E+02  0.184E-02    3.61       0.0  T
   2    -57.2354353 -0.308116E-06  0.110E-02    3.61       1.6  T
   3    -57.2354352  0.723156E-07  0.249E-03    3.61       6.9  T
   4    -57.2354353 -0.130333E-06  0.741E-04    3.61      23.1  T
   5    -57.2354353 -0.714793E-08  0.387E-04    3.61      44.4  T
     SCC iter.                  ...        0 min,  0.005 sec
     gradient                   ...        0 min,  0.002 sec
 * total energy  :   -56.4788618 Eh     change       -0.4479228E-04 Eh
   gradient norm :     0.0029375 Eh/α   predicted    -0.3454356E-04 ( -22.88%)
   displ. norm   :     0.0640194 α      lambda       -0.4352622E-04
   maximum displ.:     0.0400701 α      in ANC's #4, #6, #3, ...

........................................................................
.............................. CYCLE   11 ..............................
........................................................................

 iter      E             dE          RMSdq      gap      omega  full diag
   1    -57.2356816 -0.572357E+02  0.199E-02    3.61       0.0  T
   2    -57.2356820 -0.378859E-06  0.116E-02    3.61       1.5  T
   3    -57.2356818  0.114170E-06  0.292E-03    3.61       5.9  T
   4    -57.2356820 -0.181700E-06  0.909E-04    3.61      18.9  T
   5    -57.2356820 -0.147362E-07  0.428E-04    3.61      40.0  T
     SCC iter.                  ...        0 min,  0.005 sec
     gradient                   ...        0 min,  0.002 sec
 * total energy  :   -56.4788876 Eh     change       -0.2588556E-04 Eh
   gradient norm :     0.0020002 Eh/α   predicted    -0.2185641E-04 ( -15.57%)
   displ. norm   :     0.0597478 α      lambda       -0.2233588E-04
   maximum displ.:     0.0387931 α      in ANC's #4, #3, #2, ...

........................................................................
.............................. CYCLE   12 ..............................
........................................................................

 iter      E             dE          RMSdq      gap      omega  full diag
   1    -57.2356086 -0.572356E+02  0.168E-02    3.61       0.0  T
   2    -57.2356088 -0.247189E-06  0.984E-03    3.61       1.7  T
   3    -57.2356088  0.689147E-07  0.256E-03    3.61       6.7  T
   4    -57.2356089 -0.124134E-06  0.650E-04    3.61      26.4  T
   5    -57.2356089 -0.449567E-08  0.349E-04    3.61      49.1  T
     SCC iter.                  ...        0 min,  0.005 sec
     gradient                   ...        0 min,  0.003 sec
 * total energy  :   -56.4788997 Eh     change       -0.1208757E-04 Eh
   gradient norm :     0.0020220 Eh/α   predicted    -0.1120931E-04 (  -7.27%)
   displ. norm   :     0.0381214 α      lambda       -0.1319303E-04
   maximum displ.:     0.0275758 α      in ANC's #4, #3, #2, ...

........................................................................
.............................. CYCLE   13 ..............................
........................................................................

 iter      E             dE          RMSdq      gap      omega  full diag
   1    -57.2359156 -0.572359E+02  0.106E-02    3.61       0.0  T
   2    -57.2359158 -0.150077E-06  0.621E-03    3.61       2.8  T
   3    -57.2359157  0.420663E-07  0.212E-03    3.61       8.1  T
   4    -57.2359158 -0.715794E-07  0.518E-04    3.61      33.1  T
   5    -57.2359158 -0.456779E-08  0.237E-04    3.61      72.4  T
     SCC iter.                  ...        0 min,  0.005 sec
     gradient                   ...        0 min,  0.002 sec
 * total energy  :   -56.4789071 Eh     change       -0.7344356E-05 Eh
   gradient norm :     0.0011738 Eh/α   predicted    -0.6610793E-05 (  -9.99%)
   displ. norm   :     0.0359602 α      lambda       -0.6953984E-05
   maximum displ.:     0.0234243 α      in ANC's #4, #3, #1, ...

........................................................................
.............................. CYCLE   14 ..............................
........................................................................

 iter      E             dE          RMSdq      gap      omega  full diag
   1    -57.2357850 -0.572358E+02  0.106E-02    3.61       0.0  T
   2    -57.2357851 -0.914941E-07  0.631E-03    3.61       2.7  T
   3    -57.2357851  0.218901E-07  0.138E-03    3.61      12.4  T
   4    -57.2357851 -0.302730E-07  0.422E-04    3.61      40.7  T
   5    -57.2357851 -0.440099E-08  0.141E-04    3.61     122.0  T
     SCC iter.                  ...        0 min,  0.009 sec
     gradient                   ...        0 min,  0.002 sec
 * total energy  :   -56.4789119 Eh     change       -0.4772883E-05 Eh
   gradient norm :     0.0012696 Eh/α   predicted    -0.3480523E-05 ( -27.08%)
   displ. norm   :     0.0231383 α      lambda       -0.3868662E-05
   maximum displ.:     0.0115503 α      in ANC's #4, #6, #3, ...

........................................................................
.............................. CYCLE   15 ..............................
........................................................................

 iter      E             dE          RMSdq      gap      omega  full diag
   1    -57.2357356 -0.572357E+02  0.800E-03    3.61       0.0  T
   2    -57.2357356 -0.165288E-07  0.469E-03    3.61       3.7  T
   3    -57.2357356  0.139259E-07  0.904E-04    3.61      19.0  T
   4    -57.2357356 -0.194311E-07  0.221E-04    3.61      77.7  T
     SCC iter.                  ...        0 min,  0.005 sec
     gradient                   ...        0 min,  0.001 sec
 * total energy  :   -56.4789149 Eh     change       -0.3028184E-05 Eh
   gradient norm :     0.0008578 Eh/α   predicted    -0.1938789E-05 ( -35.98%)
   displ. norm   :     0.0217481 α      lambda       -0.2731071E-05
   maximum displ.:     0.0108157 α      in ANC's #4, #3, #1, ...

   *** GEOMETRY OPTIMIZATION CONVERGED AFTER 15 ITERATIONS ***

------------------------------------------------------------------------
 total energy gain   :        -0.3588487 Eh     -225.1810 kcal/mol
 total RMSD          :         0.2803945 a0        0.1484 Å
 total power (kW/mol):       -62.8104806 (step)-5732.5114 (real)
------------------------------------------------------------------------

 ANCopt (total)                0 d,  0 h,  0 min,  0.164 sec
 optimizer setup                ...        0 min,  0.000 sec (  0.157%)
 model hessian                  ...        0 min,  0.007 sec (  4.473%)
 ANC generation                 ...        0 min,  0.001 sec (  0.466%)
 coordinate transformation      ...        0 min,  0.000 sec (  0.085%)
 single point calculation       ...        0 min,  0.150 sec ( 91.392%)
 optimization log               ...        0 min,  0.001 sec (  0.629%)
 hessian update                 ...        0 min,  0.001 sec (  0.440%)
 rational function              ...        0 min,  0.001 sec (  0.874%)

================
 final structure:
================
34
 xtb: 6.7.1-6.fc44.fc44
O           -3.60300567466601        1.80663661377763       -2.66955864547768
C           -4.31916134220989        2.01692861325737       -1.58333417541470
O           -5.13112790100855        2.89366920848594       -1.48880998265976
H           -2.94174284889629        1.06785481891823       -2.55248507350059
C           -4.05951041502762        1.02068273903984       -0.43096570820331
H           -4.30339867893882        0.01837243942351       -0.80638189056512
H           -4.71978581305281        1.26829745843365        0.39928865313898
N           -2.68739279680253        1.03023329404377        0.03480197865258
H           -2.46035477834428        1.39618732649362        0.95059034381446
C           -1.65984582392296        0.53719405320786       -0.66379355742980
O           -1.76218132753198        0.12071999216561       -1.81341355216102
C           -0.35072153952674        0.49754089928239        0.10817272872607
H            0.46798225425228        0.66434579071178       -0.60912168427244
N           -0.38646469129198        1.47156627022194        1.19210994149338
H           -0.21424799886398        2.40617794287283        0.83647972497269
H            0.34709734407563        1.25620445107143        1.86031218294904
C           -0.19234355585389       -0.92252890471930        0.69403654268415
H           -0.31616741670212       -1.64300363621831       -0.11591964652784
H           -0.97664223402849       -1.08204206330193        1.43659991072640
C            1.14966019059495       -1.08620769808714        1.32282596183908
C            1.45493310354037       -1.02891546431568        2.65227963905669
H            0.79869252232841       -0.90660564082845        3.49362698992467
N            2.80379030077773       -1.17981423991667        2.83371074415945
H            3.27408917075861       -1.19669891667602        3.72202084688373
C            3.40059805089294       -1.33563890512787        1.61515119352948
C            4.73563932266006       -1.52071014314533        1.27920332075032
H            5.50071198189246       -1.56609552103485        2.04042385807595
C            5.04396238718836       -1.64652594485502       -0.05803900004609
H            6.07222006748677       -1.79091066046314       -0.35594385739172
C            4.05218420084684       -1.59204614925428       -1.04186771987758
H            4.33898023338224       -1.69747154688029       -2.07794931516188
C            2.72748072446230       -1.40976345123822       -0.71628558383046
H            1.96732164003328       -1.37229043697568       -1.48191797763809
C            2.38619236975656       -1.27725741884038        0.62996362297737

 Bond Distances (Angstroems)
 ---------------------------
O1-C2=1.3179         O1-H4=0.9984         C2-O1=1.3179         C2-O3=1.1987         C2-C5=1.5453         O3-C2=1.1987         
H4-O1=0.9984         C5-C2=1.5453         C5-H6=1.0977         C5-H7=1.0893         C5-N8=1.4490         H6-C5=1.0977         
H7-C5=1.0893         N8-C5=1.4490         N8-H9=1.0120         N8-C10=1.3368        H9-N8=1.0120         C10-N8=1.3368        
C10-O11=1.2270       C10-C12=1.5203       O11-C10=1.2270       C12-C10=1.5203       C12-H13=1.1012       C12-N14=1.4577       
C12-C17=1.5443       H13-C12=1.1012       N14-C12=1.4577       N14-H15=1.0147       N14-H16=1.0154       H15-N14=1.0147       
H16-N14=1.0154       C17-C12=1.5443       C17-H18=1.0911       C17-H19=1.0918       C17-C20=1.4910       H18-C17=1.0911       
H19-C17=1.0918       C20-C17=1.4910       C20-C21=1.3653       C20-C34=1.4302       C21-C20=1.3653       C21-H22=1.0740       
C21-N23=1.3693       H22-C21=1.0740       N23-C21=1.3693       N23-H24=1.0053       N23-C25=1.3658       H24-N23=1.0053       
C25-N23=1.3658       C25-C26=1.3890       C25-C34=1.4153       C26-C25=1.3890       C26-H27=1.0802       C26-C28=1.3781       
H27-C26=1.0802       C28-C26=1.3781       C28-H29=1.0802       C28-C30=1.3980       H29-C28=1.0802       C30-C28=1.3980       
C30-H31=1.0802       C30-C32=1.3763       H31-C30=1.0802       C32-C30=1.3763       C32-H33=1.0796       C32-C34=1.3951       
H33-C32=1.0796       C34-C20=1.4302       C34-C25=1.4153       C34-C32=1.3951       
 C  H  Rav=1.0865 sigma=0.0085  Rmin=1.0740  Rmax=1.1012    10
 C  C  Rav=1.4374 sigma=0.0655  Rmin=1.3653  Rmax=1.5453    12
 N  H  Rav=1.0118 sigma=0.0040  Rmin=1.0053  Rmax=1.0154     4
 N  C  Rav=1.3957 sigma=0.0485  Rmin=1.3368  Rmax=1.4577     5
 O  H  Rav=0.9984 sigma=0.0000  Rmin=0.9984  Rmax=0.9984     1
 O  C  Rav=1.2479 sigma=0.0509  Rmin=1.1987  Rmax=1.3179     3

 selected bond angles (degree)
 --------------------
H4-O1-C2=112.42                O3-C2-O1=123.35                C5-C2-O1=114.86                C5-C2-O3=121.77                
H6-C5-C2=107.23                H7-C5-C2=108.66                H7-C5-H6=109.48                N8-C5-C2=113.24                
N8-C5-H6=109.05                N8-C5-H7=109.12                H9-N8-C5=120.38                C10-N8-C5=123.88               
C10-N8-H9=115.71               O11-C10-N8=123.42              C12-C10-N8=113.96              C12-C10-O11=122.60             

 selected dihedral angles (degree)
 ---------------------------------
O3-C2-O1-H4=176.77            C5-C2-O1-H4=355.46            H6-C5-C2-O1=299.86            H6-C5-C2-O3=118.57            
H7-C5-C2-O1=181.60            H7-C5-C2-O3=  0.31            N8-C5-C2-O1= 60.19            N8-C5-C2-O3=238.90            
H9-N8-C5-C2=110.67            H9-N8-C5-H6=229.97            H9-N8-C5-H7=349.52            C10-N8-C5-C2=288.55           
C10-N8-C5-H6= 47.85           C10-N8-C5-H7=167.40           O11-C10-N8-C5=  5.84          O11-C10-N8-H9=183.81          
C12-C10-N8-C5=187.59          C12-C10-N8-H9=  5.55          
           -------------------------------------------------
          |                Final Singlepoint                |
           -------------------------------------------------

          ...................................................
          :                      SETUP                      :
          :.................................................:
          :  # basis functions                  91          :
          :  # atomic orbitals                  91          :
          :  # shells                           53          :
          :  # electrons                       100          :
          :  max. iterations                   250          :
          :  Hamiltonian                  GFN2-xTB          :
          :  restarted?                      false          :
          :  GBSA solvation                  false          :
          :  PC potential                    false          :
          :  electronic temp.          300.0000000     K    :
          :  accuracy                    1.0000000          :
          :  -> integral cutoff          0.2500000E+02      :
          :  -> integral neglect         0.1000000E-07      :
          :  -> SCF convergence          0.1000000E-05 Eh   :
          :  -> wf. convergence          0.1000000E-03 e    :
          :  Broyden damping             0.4000000          :
          :  net charge                          0          :
          :  unpaired electrons                  0          :
          ...................................................

 iter      E             dE          RMSdq      gap      omega  full diag
   1    -57.2357356 -0.572357E+02  0.117E-04    3.61       0.0  T
   2    -57.2357356 -0.534826E-10  0.748E-05    3.61     229.2  T
   3    -57.2357356 -0.573479E-10  0.468E-05    3.61     366.4  T

   *** convergence criteria satisfied after 3 iterations ***

         #    Occupation            Energy/Eh            Energy/eV
      -------------------------------------------------------------
         1        2.0000           -0.7346858             -19.9918
       ...           ...                  ...                  ...
        44        2.0000           -0.4265905             -11.6081
        45        2.0000           -0.4230258             -11.5111
        46        2.0000           -0.4193350             -11.4107
        47        2.0000           -0.4021384             -10.9427
        48        2.0000           -0.3964015             -10.7866
        49        2.0000           -0.3904171             -10.6238
        50        2.0000           -0.3736245             -10.1668 (HOMO)
        51                         -0.2409534              -6.5567 (LUMO)
        52                         -0.2335186              -6.3544
        53                         -0.2299719              -6.2579
        54                         -0.2052007              -5.5838
        55                         -0.1683377              -4.5807
       ...                                ...                  ...
        91                          0.7094404              19.3049
      -------------------------------------------------------------
                  HL-Gap            0.1326711 Eh            3.6102 eV
             Fermi-level           -0.3072889 Eh           -8.3618 eV

 SCC (total)                   0 d,  0 h,  0 min,  0.009 sec
 SCC setup                      ...        0 min,  0.000 sec (  1.879%)
 Dispersion                     ...        0 min,  0.000 sec (  1.374%)
 classical contributions        ...        0 min,  0.000 sec (  0.432%)
 integral evaluation            ...        0 min,  0.000 sec (  4.973%)
 iterations                     ...        0 min,  0.006 sec ( 69.297%)
 molecular gradient             ...        0 min,  0.002 sec ( 20.107%)
 printout                       ...        0 min,  0.000 sec (  1.877%)

         :::::::::::::::::::::::::::::::::::::::::::::::::::::
         ::                     SUMMARY                     ::
         :::::::::::::::::::::::::::::::::::::::::::::::::::::
         :: total energy             -56.478914882018 Eh    ::
         :: gradient norm              0.000859233624 Eh/a0 ::
         :: HOMO-LUMO gap              3.610163524167 eV    ::
         ::.................................................::
         :: SCC energy               -57.235743898247 Eh    ::
         :: -> isotropic ES            0.098437336410 Eh    ::
         :: -> anisotropic ES          0.003474590456 Eh    ::
         :: -> anisotropic XC          0.019388001499 Eh    ::
         :: -> dispersion             -0.033925748884 Eh    ::
         :: repulsion energy           0.756829016229 Eh    ::
         :: add. restraining           0.000000000000 Eh    ::
         :: total charge               0.000000000000 e     ::
         :::::::::::::::::::::::::::::::::::::::::::::::::::::

           -------------------------------------------------
          |                Property Printout                |
           -------------------------------------------------

    * Orbital Energies and Occupations

         #    Occupation            Energy/Eh            Energy/eV
      -------------------------------------------------------------
         1        2.0000           -0.7346858             -19.9918
       ...           ...                  ...                  ...
        38        2.0000           -0.4717520             -12.8370
        39        2.0000           -0.4634399             -12.6108
        40        2.0000           -0.4625298             -12.5861
        41        2.0000           -0.4591955             -12.4953
        42        2.0000           -0.4454638             -12.1217
        43        2.0000           -0.4338587             -11.8059
        44        2.0000           -0.4265905             -11.6081
        45        2.0000           -0.4230258             -11.5111
        46        2.0000           -0.4193350             -11.4107
        47        2.0000           -0.4021384             -10.9427
        48        2.0000           -0.3964015             -10.7866
        49        2.0000           -0.3904171             -10.6238
        50        2.0000           -0.3736245             -10.1668 (HOMO)
        51                         -0.2409534              -6.5567 (LUMO)
        52                         -0.2335186              -6.3544
        53                         -0.2299719              -6.2579
        54                         -0.2052007              -5.5838
        55                         -0.1683377              -4.5807
        56                         -0.0791992              -2.1551
        57                         -0.0194495              -0.5292
        58                          0.0088386               0.2405
        59                          0.0265489               0.7224
        60                          0.0648286               1.7641
        61                          0.0812125               2.2099
       ...                                ...                  ...
        91                          0.7094404              19.3049
      -------------------------------------------------------------
                  HL-Gap            0.1326711 Eh            3.6102 eV
             Fermi-level           -0.3072889 Eh           -8.3618 eV

     #   Z          covCN         q      C6AA      α(0)
     1   8 O        1.655    -0.375    20.371     6.093
     2   6 C        2.684     0.358    20.926     7.486
     3   8 O        0.856    -0.378    21.248     6.180
     4   1 H        0.800     0.365     0.555     1.171
     5   6 C        3.737    -0.040    21.366     6.596
     6   1 H        0.924     0.076     2.025     2.225
     7   1 H        0.925     0.078     2.005     2.214
     8   7 N        2.688    -0.164    24.548     7.359
     9   1 H        0.860     0.205     1.079     1.627
    10   6 C        2.758     0.262    22.586     7.782
    11   8 O        0.858    -0.460    22.923     6.419
    12   6 C        3.790     0.032    20.046     6.376
    13   1 H        0.923     0.040     2.443     2.444
    14   7 N        2.633    -0.357    29.201     8.026
    15   1 H        0.860     0.144     1.444     1.883
    16   1 H        0.860     0.156     1.363     1.829
    17   6 C        3.810    -0.060    21.654     6.624
    18   1 H        0.924     0.057     2.229     2.335
    19   1 H        0.924     0.043     2.404     2.425
    20   6 C        3.056    -0.031    28.714     8.788
    21   6 C        3.030    -0.011    28.252     8.718
    22   1 H        0.926     0.030     2.584     2.514
    23   7 N        2.777    -0.107    23.333     7.174
    24   1 H        0.860     0.158     1.346     1.817
    25   6 C        3.085     0.044    26.913     8.504
    26   6 C        2.908    -0.053    29.314     8.878
    27   1 H        0.926     0.024     2.676     2.558
    28   6 C        2.925    -0.035    28.869     8.811
    29   1 H        0.926     0.030     2.590     2.517
    30   6 C        2.920    -0.040    28.995     8.830
    31   1 H        0.926     0.030     2.589     2.516
    32   6 C        2.911    -0.036    28.900     8.815
    33   1 H        0.926     0.034     2.531     2.488
    34   6 C        3.117    -0.020    28.326     8.718

 Mol. C6AA /au·bohr⁶  :      13331.060509
 Mol. C8AA /au·bohr⁸  :     312387.569774
 Mol. α(0) /au        :        178.740842


Wiberg/Mayer (AO) data.
largest (>0.10) Wiberg bond orders for each atom

 ---------------------------------------------------------------------------
     #   Z sym  total        # sym  WBO       # sym  WBO       # sym  WBO
 ---------------------------------------------------------------------------
     1   8 O    2.233 --     2 C    1.201     4 H    0.770     3 O    0.183
     2   6 C    3.931 --     3 O    1.773     1 O    1.201     5 C    0.925
     3   8 O    2.065 --     2 C    1.773     1 O    0.183
     4   1 H    0.867 --     1 O    0.770
     5   6 C    3.964 --     8 N    0.991     7 H    0.974     6 H    0.953
                             2 C    0.925
     6   1 H    0.994 --     5 C    0.953
     7   1 H    0.994 --     5 C    0.974
     8   7 N    3.477 --    10 C    1.307     5 C    0.991     9 H    0.914
                            11 O    0.193
     9   1 H    0.958 --     8 N    0.914
    10   6 C    3.948 --    11 O    1.603     8 N    1.307    12 C    0.953
    11   8 O    2.005 --    10 C    1.603     8 N    0.193
    12   6 C    3.983 --    14 N    1.015    17 C    0.954    13 H    0.953
                            10 C    0.953
    13   1 H    0.998 --    12 C    0.953
    14   7 N    3.020 --    12 C    1.015    15 H    0.966    16 H    0.952
    15   1 H    0.979 --    14 N    0.966
    16   1 H    0.976 --    14 N    0.952
    17   6 C    3.992 --    20 C    1.017    19 H    0.974    18 H    0.967
                            12 C    0.954
    18   1 H    0.997 --    17 C    0.967
    19   1 H    0.998 --    17 C    0.974
    20   6 C    3.976 --    21 C    1.578    34 C    1.200    17 C    1.017
    21   6 C    3.948 --    20 C    1.578    23 N    1.194    22 H    0.969
    22   1 H    0.998 --    21 C    0.969
    23   7 N    3.539 --    21 C    1.194    25 C    1.174    24 H    0.947
    24   1 H    0.974 --    23 N    0.947
    25   6 C    3.958 --    26 C    1.338    34 C    1.252    23 N    1.174
    26   6 C    3.989 --    28 C    1.494    25 C    1.338    27 H    0.969
                            32 C    0.115
    27   1 H    0.999 --    26 C    0.969
    28   6 C    3.991 --    26 C    1.494    30 C    1.372    29 H    0.972
    29   1 H    0.999 --    28 C    0.972
    30   6 C    3.991 --    32 C    1.506    28 C    1.372    31 H    0.972
    31   1 H    0.999 --    30 C    0.972
    32   6 C    3.992 --    30 C    1.506    34 C    1.331    33 H    0.968
                            26 C    0.115
    33   1 H    0.998 --    32 C    0.968
    34   6 C    3.984 --    32 C    1.331    25 C    1.252    20 C    1.200
 ---------------------------------------------------------------------------

Topologies differ in total number of bonds
Writing topology from bond orders to xtbtopo.mol

molecular dipole:
                 x           y           z       tot (Debye)
 q only:        1.301      -0.831       2.249
   full:        1.948      -0.968       2.762       8.936
molecular quadrupole (traceless):
                xx          xy          yy          xz          yz          zz
 q only:       -6.841      17.238      -2.719      -8.976       6.896       9.560
  q+dip:       -7.819      22.556      -6.842      -8.996       8.345      14.661
   full:       -9.068      23.456      -3.504      -8.533       8.036      12.572

           -------------------------------------------------
          |                Geometry Summary                 |
           -------------------------------------------------

      molecular mass/u    :      261.2770023
   center of mass at/Å    :        0.0296795      -0.0023074       0.0530210
  moments of inertia/u·Å² :        0.4692501E+03   0.3379157E+04   0.3689872E+04
rotational constants/cm⁻¹ :        0.3592462E-01   0.4988709E-02   0.4568623E-02

 * 32 selected distances

     #   Z          #   Z                                           value/Å
     1   8 O        2   6 C                                       1.3179475
     2   6 C        3   8 O                                       1.1987072
     1   8 O        4   1 H                                       0.9983854 (min)
     5   6 C        6   1 H                                       1.0977454
     5   6 C        7   1 H                                       1.0893113
     5   6 C        8   7 N                                       1.4490472
     8   7 N        9   1 H                                       1.0119966
     8   7 N       10   6 C                                       1.3367784
    10   6 C       11   8 O                                       1.2270084
    12   6 C       13   1 H                                       1.1011863
    12   6 C       14   7 N                                       1.4577117
    14   7 N       15   1 H                                       1.0147072
    14   7 N       16   1 H                                       1.0153760
    17   6 C       18   1 H                                       1.0910754
    17   6 C       19   1 H                                       1.0917735
    17   6 C       20   6 C                                       1.4910202 (max)
    20   6 C       21   6 C                                       1.3652551
    21   6 C       22   1 H                                       1.0740005
    21   6 C       23   7 N                                       1.3693443
    23   7 N       24   1 H                                       1.0052667
    23   7 N       25   6 C                                       1.3657776
    25   6 C       26   6 C                                       1.3890457
    26   6 C       27   1 H                                       1.0802097
    26   6 C       28   6 C                                       1.3780820
    28   6 C       29   1 H                                       1.0802353
    28   6 C       30   6 C                                       1.3980384
    30   6 C       31   1 H                                       1.0801999
    30   6 C       32   6 C                                       1.3762523
    32   6 C       33   1 H                                       1.0795551
    20   6 C       34   6 C                                       1.4302344
    25   6 C       34   6 C                                       1.4152817
    32   6 C       34   6 C                                       1.3951426

 * 6 distinct bonds (by element types)

   Z      Z             #   av. dist./Å        max./Å        min./Å
   1 H    6 C          10     1.0865292     1.1011863     1.0740005
   6 C    6 C           9     1.4042614     1.4910202     1.3652551
   1 H    7 N           4     1.0118366     1.0153760     1.0052667
   6 C    7 N           5     1.3957318     1.4577117     1.3367784
   1 H    8 O           1     0.9983854     0.9983854     0.9983854
   6 C    8 O           3     1.2478877     1.3179475     1.1987072


optimized geometry written to: xtbopt.xyz


           -------------------------------------------------
          | TOTAL ENERGY              -56.478914882018 Eh   |
          | GRADIENT NORM               0.000859233624 Eh/α |
          | HOMO-LUMO GAP               3.610163524167 eV   |
           -------------------------------------------------

------------------------------------------------------------------------
 * finished run on 2026/10/01 at 18:05:18.935     
------------------------------------------------------------------------
 total:
 * wall-time:     0 d,  0 h,  0 min,  0.215 sec
 *  cpu-time:     0 d,  0 h,  0 min,  3.308 sec
 * ratio c/w:    15.366 speedup
 SCF:
 * wall-time:     0 d,  0 h,  0 min,  0.027 sec
 *  cpu-time:     0 d,  0 h,  0 min,  0.422 sec
 * ratio c/w:    15.479 speedup
 ANC optimizer:
 * wall-time:     0 d,  0 h,  0 min,  0.174 sec
 *  cpu-time:     0 d,  0 h,  0 min,  2.689 sec
 * ratio c/w:    15.431 speedup


--- STDERR ---
normal termination of xtb
Note: The following floating-point exceptions are signalling: IEEE_UNDERFLOW_FLAG IEEE_DENORMAL
