34
 energy: -56.478914882018 gnorm: 0.000859233624 xtb: 6.7.1-6.fc44.fc44
O           -3.60300567466601        1.80663661377763       -2.66955864547768
C           -4.31916134220989        2.01692861325737       -1.58333417541470
O           -5.13112790100855        2.89366920848594       -1.48880998265976
H           -2.94174284889629        1.06785481891823       -2.55248507350059
C           -4.05951041502762        1.02068273903984       -0.43096570820331
H           -4.30339867893882        0.01837243942351       -0.80638189056512
H           -4.71978581305281        1.26829745843365        0.39928865313898
N           -2.68739279680253        1.03023329404377        0.03480197865258
H           -2.46035477834428        1.39618732649362        0.95059034381446
C           -1.65984582392296        0.53719405320786       -0.66379355742980
O           -1.76218132753198        0.12071999216561       -1.81341355216102
C           -0.35072153952674        0.49754089928239        0.10817272872607
H            0.46798225425228        0.66434579071178       -0.60912168427244
N           -0.38646469129198        1.47156627022194        1.19210994149338
H           -0.21424799886398        2.40617794287283        0.83647972497269
H            0.34709734407563        1.25620445107143        1.86031218294904
C           -0.19234355585389       -0.92252890471930        0.69403654268415
H           -0.31616741670212       -1.64300363621831       -0.11591964652784
H           -0.97664223402849       -1.08204206330193        1.43659991072640
C            1.14966019059495       -1.08620769808714        1.32282596183908
C            1.45493310354037       -1.02891546431568        2.65227963905669
H            0.79869252232841       -0.90660564082845        3.49362698992467
N            2.80379030077773       -1.17981423991667        2.83371074415945
H            3.27408917075861       -1.19669891667602        3.72202084688373
C            3.40059805089294       -1.33563890512787        1.61515119352948
C            4.73563932266006       -1.52071014314533        1.27920332075032
H            5.50071198189246       -1.56609552103485        2.04042385807595
C            5.04396238718836       -1.64652594485502       -0.05803900004609
H            6.07222006748677       -1.79091066046314       -0.35594385739172
C            4.05218420084684       -1.59204614925428       -1.04186771987758
H            4.33898023338224       -1.69747154688029       -2.07794931516188
C            2.72748072446230       -1.40976345123822       -0.71628558383046
H            1.96732164003328       -1.37229043697568       -1.48191797763809
C            2.38619236975656       -1.27725741884038        0.62996362297737
