34
frame_0062
O       0.478155585715335      1.744769408757533     -1.197376730906268
C      -0.806151536863389      2.293362426770424     -1.467036242437109
O      -1.209655914547252      3.314309796817575     -1.899252641915415
H       0.247434126561153      0.940269090981842     -0.673207625121030
C      -2.181308173052122      1.663379310319907     -0.764746394634225
H      -2.985531245101093      1.974862329840612     -1.562713166813241
H      -2.177715384965738      1.941743417655317      0.515728286694804
N      -1.775633870672732      0.210999096942350     -0.539854422869708
H      -1.577318796131305     -0.372923076148331     -1.303357821259518
C      -2.121236743523118     -0.404770722210362      0.483904807307337
O      -2.374173612553191     -0.099185604094933      1.632685615071856
C      -2.013004363178876     -1.943779342521494      0.294926305590479
H      -2.845704201668802     -2.477452952606882      0.750935372465038
N      -2.012417150770527     -2.365216928950308     -1.053501270894201
H      -2.838961339801430     -2.457713958249958     -1.512179245571003
H      -1.708071896056746     -3.298194079226887     -1.187930848106518
C      -0.664007614629691     -2.452032212962142      0.896322680202746
H      -0.649724445555204     -3.655494953842812      0.937346993364341
H      -0.654260504576339     -2.305216422104839      1.986299047949674
C       0.481204336478131     -2.137149371536704      0.366844592623291
C       1.390136687317657     -2.376349552288902     -0.707663292042657
H       1.215162739526307     -3.184521084333075     -1.173134601621362
N       2.359633306178556     -1.419358903641995     -0.825385546214907
H       3.104789815291770     -1.579926277104182     -1.535511079455563
C       2.194350253410312     -0.479062310767260     -0.018294643726046
C       3.020817422132298      0.596693365702642      0.173862115549081
H       4.082048854753793      0.651375859767917     -0.473840453363230
C       2.907851132252929      1.630399694534915      1.039963893631274
H       3.507416530907018      2.390896586500867      1.245620486477484
C       1.690512485988333      1.336603406582679      1.970444482002805
H       1.316095292406102      2.266795622366223      2.655507706208313
C       0.774898510282766      0.315446361378868      1.812715377418093
H      -0.073042206794803      0.223134528868315      2.448776006671680
C       0.958355192917530     -0.549447805268909      1.003492358050255
