      -----------------------------------------------------------      
     |                   =====================                   |     
     |                           x T B                           |     
     |                   =====================                   |     
     |                         S. Grimme                         |     
     |          Mulliken Center for Theoretical Chemistry        |     
     |                    University of Bonn                     |     
      -----------------------------------------------------------      

   * xtb version 6.7.1-6.fc44.fc44 compiled by Fedora project on Sun Jan 18 23:32:34 UTC 2026

   xtb is free software: you can redistribute it and/or modify it under
   the terms of the GNU Lesser General Public License as published by
   the Free Software Foundation, either version 3 of the License, or
   (at your option) any later version.
   
   xtb is distributed in the hope that it will be useful,
   but WITHOUT ANY WARRANTY; without even the implied warranty of
   MERCHANTABILITY or FITNESS FOR A PARTICULAR PURPOSE.  See the
   GNU Lesser General Public License for more details.
   
   Cite this work as:
   * C. Bannwarth, E. Caldeweyher, S. Ehlert, A. Hansen, P. Pracht,
     J. Seibert, S. Spicher, S. Grimme, WIREs Comput. Mol. Sci., 2020, 11,
     e01493. DOI: 10.1002/wcms.1493
   
   for GFN2-xTB:
   * C. Bannwarth, S. Ehlert and S. Grimme., J. Chem. Theory Comput., 2019,
     15, 1652-1671. DOI: 10.1021/acs.jctc.8b01176
   for GFN1-xTB:
   * S. Grimme, C. Bannwarth, P. Shushkov, J. Chem. Theory Comput., 2017,
     13, 1989-2009. DOI: 10.1021/acs.jctc.7b00118
   for GFN0-xTB:
   * P. Pracht, E. Caldeweyher, S. Ehlert, S. Grimme, ChemRxiv, 2019, preprint.
     DOI: 10.26434/chemrxiv.8326202.v1
   for GFN-FF:
   * S. Spicher and S. Grimme, Angew. Chem. Int. Ed., 2020, 59, 15665-15673.
     DOI: 10.1002/anie.202004239
   
   for ALPB and GBSA implicit solvation:
   * S. Ehlert, M. Stahn, S. Spicher, S. Grimme, J. Chem. Theory Comput.,
     2021, 17, 4250-4261. DOI: 10.1021/acs.jctc.1c00471
   
   for ddCOSMO and CPCM-X implicit solvation:
   * M. Stahn, S. Ehlert, S. Grimme, J. Phys. Chem. A,
     2023, XX, XXXX-XXXX. DOI: 10.1021/acs.jpca.3c04382
   
   for DFT-D4:
   * E. Caldeweyher, C. Bannwarth and S. Grimme, J. Chem. Phys., 2017,
     147, 034112. DOI: 10.1063/1.4993215
   * E. Caldeweyher, S. Ehlert, A. Hansen, H. Neugebauer, S. Spicher,
     C. Bannwarth and S. Grimme, J. Chem. Phys., 2019, 150, 154122.
     DOI: 10.1063/1.5090222
   * E. Caldeweyher, J.-M. Mewes, S. Ehlert and S. Grimme, Phys. Chem. Chem. Phys.
     2020, 22, 8499-8512. DOI: 10.1039/D0CP00502A
   
   for sTDA-xTB:
   * S. Grimme and C. Bannwarth, J. Chem. Phys., 2016, 145, 054103.
     DOI: 10.1063/1.4959605
   
   in the mass-spec context:
   * V. Asgeirsson, C. Bauer and S. Grimme, Chem. Sci., 2017, 8, 4879.
     DOI: 10.1039/c7sc00601b
   * J. Koopman and S. Grimme, ACS Omega 2019, 4, 12, 15120-15133.
     DOI: 10.1021/acsomega.9b02011
   
   for metadynamics refer to:
   * S. Grimme, J. Chem. Theory Comput., 2019, 155, 2847-2862
     DOI: 10.1021/acs.jctc.9b00143
   
   for SPH calculations refer to:
   * S. Spicher and S. Grimme, J. Chem. Theory Comput., 2021, 17, 1701-1714
     DOI: 10.1021/acs.jctc.0c01306
   
   for ONIOM refer to:
   * C. Plett, A. Katbashev, S. Ehlert, S. Grimme, M. Bursch,
     Phys. Chem. Chem. Phys., 2023, 25, 17860-17868. DOI: 10.1039/D3CP02178E
   
   for DIPRO refer to:
   * J. Kohn, N. Gildemeister, S. Grimme, D. Fazzi, A. Hansen,
     J. Chem. Phys., 2023, just accepted.
   
   for PTB refer to:
   * S. Grimme, M. Mueller, A. Hansen, J. Chem. Phys., 2023, 158, 124111.
     DOI: 10.1063/5.0137838
   
   with help from (in alphabetical order)
   P. Atkinson, C. Bannwarth, F. Bohle, G. Brandenburg, E. Caldeweyher
   M. Checinski, S. Dohm, S. Ehlert, S. Ehrlich, I. Gerasimov, C. Hölzer
   A. Katbashev, J. Kohn, J. Koopman, C. Lavigne, S. Lehtola, F. März, M. Müller,
   F. Musil, H. Neugebauer, J. Pisarek, C. Plett, P. Pracht, F. Pultar,
   J. Seibert, P. Shushkov, S. Spicher, M. Stahn, M. Steiner, T. Strunk,
   J. Stückrath, T. Rose, and J. Unsleber
   
 * started run on 2026/10/01 at 18:04:44.446     
   ID    Z sym.   atoms
    1    8 O      1, 3, 11
    2    6 C      2, 5, 10, 12, 17, 20, 21, 25, 26, 28, 30, 32, 34
    3    1 H      4, 6, 7, 9, 13, 15, 16, 18, 19, 22, 24, 27, 29, 31, 33
    4    7 N      8, 14, 23

           -------------------------------------------------
          |                Calculation Setup                |
           -------------------------------------------------

          program call               : /usr/bin/xtb input.xyz --opt --gfn 2 --chrg 0 --uhf 0
          hostname                   : fedora
          coordinate file            : input.xyz
          omp threads                :                    16


           -------------------------------------------------
          |                 G F N 2 - x T B                 |
           -------------------------------------------------

        Reference                      10.1021/acs.jctc.8b01176
      * Hamiltonian:
        H0-scaling (s, p, d)           1.850000    2.230000    2.230000
        zeta-weighting                 0.500000
      * Dispersion:
        s8                             2.700000
        a1                             0.520000
        a2                             5.000000
        s9                             5.000000
      * Repulsion:
        kExp                           1.500000    1.000000
        rExp                           1.000000
      * Coulomb:
        alpha                          2.000000
        third order                    shell-resolved
        anisotropic                    true
        a3                             3.000000
        a5                             4.000000
        cn-shift                       1.200000
        cn-exp                         4.000000
        max-rad                        5.000000


          ...................................................
          :                      SETUP                      :
          :.................................................:
          :  # basis functions                  91          :
          :  # atomic orbitals                  91          :
          :  # shells                           53          :
          :  # electrons                       100          :
          :  max. iterations                   250          :
          :  Hamiltonian                  GFN2-xTB          :
          :  restarted?                      false          :
          :  GBSA solvation                  false          :
          :  PC potential                    false          :
          :  electronic temp.          300.0000000     K    :
          :  accuracy                    1.0000000          :
          :  -> integral cutoff          0.2500000E+02      :
          :  -> integral neglect         0.1000000E-07      :
          :  -> SCF convergence          0.1000000E-05 Eh   :
          :  -> wf. convergence          0.1000000E-03 e    :
          :  Broyden damping             0.4000000          :
          :  net charge                          0          :
          :  unpaired electrons                  0          :
          ...................................................

 iter      E             dE          RMSdq      gap      omega  full diag
   1    -56.7663050 -0.567663E+02  0.446E+00    2.64       0.0  T
   2    -56.9293452 -0.163040E+00  0.284E+00    2.34       1.0  T
   3    -56.9418521 -0.125069E-01  0.174E+00    2.86       1.0  T
   4    -56.9441490 -0.229696E-02  0.108E+00    2.24       1.0  T
   5    -56.9782033 -0.340543E-01  0.247E-01    2.23       1.0  T
   6    -56.9799476 -0.174429E-02  0.102E-01    2.26       1.0  T
   7    -56.9800481 -0.100436E-03  0.614E-02    2.26       1.0  T
   8    -56.9801231 -0.750446E-04  0.248E-02    2.26       1.0  T
   9    -56.9801284 -0.527262E-05  0.909E-03    2.26       1.9  T
  10    -56.9801304 -0.201853E-05  0.344E-03    2.27       5.0  T
  11    -56.9801304 -0.366114E-07  0.168E-03    2.27      10.2  T
  12    -56.9801305 -0.427861E-07  0.624E-04    2.27      27.5  T
  13    -56.9801305 -0.565154E-08  0.252E-04    2.27      68.1  T

   *** convergence criteria satisfied after 13 iterations ***

         #    Occupation            Energy/Eh            Energy/eV
      -------------------------------------------------------------
         1        2.0000           -0.7423928             -20.2015
       ...           ...                  ...                  ...
        44        2.0000           -0.4113328             -11.1929
        45        2.0000           -0.4015235             -10.9260
        46        2.0000           -0.3992331             -10.8637
        47        2.0000           -0.3825727             -10.4103
        48        2.0000           -0.3749928             -10.2041
        49        2.0000           -0.3721284             -10.1261
        50        2.0000           -0.3458204              -9.4103 (HOMO)
        51                         -0.2625707              -7.1449 (LUMO)
        52                         -0.2400684              -6.5326
        53                         -0.2185718              -5.9476
        54                         -0.2071928              -5.6380
        55                         -0.1548729              -4.2143
       ...                                ...                  ...
        91                          1.1434527              31.1149
      -------------------------------------------------------------
                  HL-Gap            0.0832498 Eh            2.2653 eV
             Fermi-level           -0.3041955 Eh           -8.2776 eV

 SCC (total)                   0 d,  0 h,  0 min,  1.840 sec
 SCC setup                      ...        0 min,  0.001 sec (  0.054%)
 Dispersion                     ...        0 min,  0.010 sec (  0.558%)
 classical contributions        ...        0 min,  0.008 sec (  0.431%)
 integral evaluation            ...        0 min,  0.013 sec (  0.719%)
 iterations                     ...        0 min,  1.769 sec ( 96.156%)
 molecular gradient             ...        0 min,  0.037 sec (  2.021%)
 printout                       ...        0 min,  0.000 sec (  0.026%)

         :::::::::::::::::::::::::::::::::::::::::::::::::::::
         ::                     SUMMARY                     ::
         :::::::::::::::::::::::::::::::::::::::::::::::::::::
         :: total energy             -56.113245419029 Eh    ::
         :: gradient norm              0.743095524170 Eh/a0 ::
         :: HOMO-LUMO gap              2.265341053543 eV    ::
         ::.................................................::
         :: SCC energy               -56.979126393648 Eh    ::
         :: -> isotropic ES            0.099330420947 Eh    ::
         :: -> anisotropic ES          0.003186654643 Eh    ::
         :: -> anisotropic XC          0.023612080458 Eh    ::
         :: -> dispersion             -0.039014751983 Eh    ::
         :: repulsion energy           0.865880974619 Eh    ::
         :: add. restraining           0.000000000000 Eh    ::
         :: total charge              -0.000000000000 e     ::
         :::::::::::::::::::::::::::::::::::::::::::::::::::::

      ----------------------------------------------------------- 
     |                   =====================                   |
     |                        A N C O P T                        |
     |                   =====================                   |
     |               Approximate Normal Coordinate               |
     |                Rational Function Optimizer                |
      ----------------------------------------------------------- 
      ----------------------------------------------------------- 
     |                   =====================                   |
     |                        A N C O P T                        |
     |                   =====================                   |
     |               Approximate Normal Coordinate               |
     |                Rational Function Optimizer                |
      ----------------------------------------------------------- 

          ...................................................
          :                      SETUP                      :
          :.................................................:
          :   optimization level            normal          :
          :   max. optcycles                   200          :
          :   ANC micro-cycles                  20          :
          :   degrees of freedom                96          :
          :.................................................:
          :   RF solver                   davidson          :
          :   write xtbopt.log                true          :
          :   linear?                        false          :
          :   energy convergence         0.5000000E-05 Eh   :
          :   grad. convergence          0.1000000E-02 Eh/α :
          :   maxmium RF displ.          1.0000000          :
          :   Hlow (freq-cutoff)         0.1000000E-01      :
          :   Hmax (freq-cutoff)         5.0000000          :
          :   S6 in model hess.         20.0000000          :
          ...................................................

generating ANC from exact Hessian ...
Using Lindh-Hessian (1995)
 Shifting diagonal of input Hessian by    9.4410478960598974E-003
 Lowest  eigenvalues of input Hessian
    0.000000    0.000000    0.000000    0.000000    0.000000    0.000000
    0.010000    0.010065    0.010347    0.010474    0.011832    0.012655
    0.013217    0.015082    0.016610    0.016906    0.019360    0.019864
 Highest eigenvalues
    2.077146    2.231421    2.312202    2.411878    2.509194    2.651326


........................................................................
.............................. CYCLE    1 ..............................
........................................................................

 iter      E             dE          RMSdq      gap      omega  full diag
   1    -56.9801305 -0.569801E+02  0.916E-05    2.27       0.0  T
   2    -56.9801305 -0.659952E-10  0.521E-05    2.27     328.9  T
   3    -56.9801305 -0.132232E-10  0.364E-05    2.27     471.5  T
     SCC iter.                  ...        0 min,  0.065 sec
     gradient                   ...        0 min,  0.040 sec
 * total energy  :   -56.1132454 Eh     change       -0.6043450E-09 Eh
   gradient norm :     0.7430955 Eh/α   predicted     0.0000000E+00 (-100.00%)
   displ. norm   :     0.5290676 α      lambda       -0.3192840E+00
   maximum displ.:     0.1564895 α      in ANC's #55, #76, #53, ...

........................................................................
.............................. CYCLE    2 ..............................
........................................................................

 iter      E             dE          RMSdq      gap      omega  full diag
   1    -57.0875808 -0.570876E+02  0.665E-01    2.82       0.0  T
   2    -57.0892428 -0.166204E-02  0.409E-01    2.89       1.0  T
   3    -57.0891256  0.117204E-03  0.240E-01    2.95       1.0  T
   4    -57.0898382 -0.712608E-03  0.677E-02    2.96       1.0  T
   5    -57.0899770 -0.138770E-03  0.205E-02    2.95       1.0  T
   6    -57.0899840 -0.695446E-05  0.922E-03    2.95       1.9  T
   7    -57.0899843 -0.329631E-06  0.427E-03    2.95       4.0  T
   8    -57.0899847 -0.382979E-06  0.140E-03    2.95      12.3  T
   9    -57.0899847 -0.864785E-08  0.636E-04    2.95      27.0  T
  10    -57.0899847 -0.343211E-08  0.302E-04    2.95      56.7  T
     SCC iter.                  ...        0 min,  0.425 sec
     gradient                   ...        0 min,  0.002 sec
 * total energy  :   -56.3504910 Eh     change       -0.2372456E+00 Eh
   gradient norm :     0.3463220 Eh/α   predicted    -0.2043894E+00 ( -13.85%)
   displ. norm   :     0.5738191 α      lambda       -0.1638417E+00
   maximum displ.:     0.1868138 α      in ANC's #55, #53, #68, ...

........................................................................
.............................. CYCLE    3 ..............................
........................................................................

 iter      E             dE          RMSdq      gap      omega  full diag
   1    -57.1949896 -0.571950E+02  0.662E-01    3.38       0.0  T
   2    -57.1964862 -0.149662E-02  0.413E-01    3.39       1.0  T
   3    -57.1964512  0.349680E-04  0.202E-01    3.48       1.0  T
   4    -57.1968519 -0.400634E-03  0.413E-02    3.46       1.0  T
   5    -57.1968866 -0.347310E-04  0.137E-02    3.46       1.3  T
   6    -57.1968881 -0.150701E-05  0.769E-03    3.46       2.2  T
   7    -57.1968886 -0.474921E-06  0.229E-03    3.46       7.5  T
   8    -57.1968887 -0.560799E-07  0.111E-03    3.46      15.5  T
   9    -57.1968887 -0.157148E-07  0.542E-04    3.46      31.6  T
  10    -57.1968887 -0.387308E-08  0.224E-04    3.46      76.5  T
     SCC iter.                  ...        0 min,  0.166 sec
     gradient                   ...        0 min,  0.051 sec
 * total energy  :   -56.4555204 Eh     change       -0.1050294E+00 Eh
   gradient norm :     0.0863462 Eh/α   predicted    -0.1088948E+00 (   3.68%)
   displ. norm   :     0.4249595 α      lambda       -0.2677486E-01
   maximum displ.:     0.1363185 α      in ANC's #32, #28, #20, ...

........................................................................
.............................. CYCLE    4 ..............................
........................................................................

 iter      E             dE          RMSdq      gap      omega  full diag
   1    -57.2199037 -0.572199E+02  0.393E-01    3.54       0.0  T
   2    -57.2200148 -0.111054E-03  0.235E-01    3.55       1.0  T
   3    -57.2198069  0.207857E-03  0.858E-02    3.55       1.0  T
   4    -57.2200579 -0.250981E-03  0.186E-02    3.55       1.0  T
   5    -57.2200661 -0.825769E-05  0.744E-03    3.55       2.3  T
   6    -57.2200665 -0.314026E-06  0.367E-03    3.55       4.7  T
   7    -57.2200665 -0.884521E-07  0.126E-03    3.55      13.6  T
   8    -57.2200666 -0.139158E-07  0.574E-04    3.55      29.9  T
   9    -57.2200666 -0.251817E-08  0.224E-04    3.55      76.5  T
     SCC iter.                  ...        0 min,  0.213 sec
     gradient                   ...        0 min,  0.008 sec
 * total energy  :   -56.4705843 Eh     change       -0.1506396E-01 Eh
   gradient norm :     0.0493008 Eh/α   predicted    -0.1580507E-01 (   4.92%)
   displ. norm   :     0.2965358 α      lambda       -0.6912418E-02
   maximum displ.:     0.1135186 α      in ANC's #24, #32, #39, ...

........................................................................
.............................. CYCLE    5 ..............................
........................................................................

 iter      E             dE          RMSdq      gap      omega  full diag
   1    -57.2317087 -0.572317E+02  0.219E-01    3.59       0.0  T
   2    -57.2318378 -0.129075E-03  0.132E-01    3.58       1.0  T
   3    -57.2317918  0.460000E-04  0.574E-02    3.58       1.0  T
   4    -57.2318578 -0.660585E-04  0.175E-02    3.58       1.0  T
   5    -57.2318667 -0.882591E-05  0.465E-03    3.58       3.7  T
   6    -57.2318669 -0.231207E-06  0.250E-03    3.58       6.9  T
   7    -57.2318669 -0.404221E-07  0.103E-03    3.58      16.7  T
   8    -57.2318669 -0.137477E-07  0.353E-04    3.58      48.6  T
   9    -57.2318669 -0.126896E-08  0.131E-04    3.58     131.4  T
     SCC iter.                  ...        0 min,  0.196 sec
     gradient                   ...        0 min,  0.002 sec
 * total energy  :   -56.4724275 Eh     change       -0.1843121E-02 Eh
   gradient norm :     0.0442440 Eh/α   predicted    -0.3760133E-02 ( 104.01%)
   displ. norm   :     0.2308246 α      lambda       -0.4919189E-02
   maximum displ.:     0.1125622 α      in ANC's #20, #21, #39, ...

........................................................................
.............................. CYCLE    6 ..............................
........................................................................

 iter      E             dE          RMSdq      gap      omega  full diag
   1    -57.2324410 -0.572324E+02  0.165E-01    3.63       0.0  T
   2    -57.2324957 -0.546568E-04  0.999E-02    3.63       1.0  T
   3    -57.2324835  0.121914E-04  0.374E-02    3.63       1.0  T
   4    -57.2325051 -0.216517E-04  0.754E-03    3.63       2.3  T
   5    -57.2325064 -0.124018E-05  0.389E-03    3.63       4.4  T
   6    -57.2325066 -0.253386E-06  0.168E-03    3.63      10.2  T
   7    -57.2325067 -0.158171E-07  0.698E-04    3.63      24.6  T
   8    -57.2325067 -0.549427E-08  0.298E-04    3.63      57.5  T
     SCC iter.                  ...        0 min,  0.126 sec
     gradient                   ...        0 min,  0.006 sec
 * total energy  :   -56.4748060 Eh     change       -0.2378559E-02 Eh
   gradient norm :     0.0198685 Eh/α   predicted    -0.2590642E-02 (   8.92%)
   displ. norm   :     0.1313441 α      lambda       -0.1027899E-02
   maximum displ.:     0.0524939 α      in ANC's #9, #4, #10, ...

........................................................................
.............................. CYCLE    7 ..............................
........................................................................

 iter      E             dE          RMSdq      gap      omega  full diag
   1    -57.2331935 -0.572332E+02  0.766E-02    3.63       0.0  T
   2    -57.2332055 -0.120697E-04  0.460E-02    3.64       1.0  T
   3    -57.2332005  0.502709E-05  0.168E-02    3.64       1.0  T
   4    -57.2332072 -0.670581E-05  0.499E-03    3.64       3.4  T
   5    -57.2332079 -0.702948E-06  0.147E-03    3.64      11.6  T
   6    -57.2332079 -0.189902E-07  0.768E-04    3.64      22.3  T
   7    -57.2332079 -0.706144E-08  0.308E-04    3.64      55.7  T
     SCC iter.                  ...        0 min,  0.047 sec
     gradient                   ...        0 min,  0.004 sec
 * total energy  :   -56.4752619 Eh     change       -0.4558535E-03 Eh
   gradient norm :     0.0134967 Eh/α   predicted    -0.5228198E-03 (  14.69%)
   displ. norm   :     0.1142505 α      lambda       -0.4464475E-03
   maximum displ.:     0.0541520 α      in ANC's #8, #16, #6, ...

........................................................................
.............................. CYCLE    8 ..............................
........................................................................

 iter      E             dE          RMSdq      gap      omega  full diag
   1    -57.2363145 -0.572363E+02  0.688E-02    3.63       0.0  T
   2    -57.2363174 -0.286245E-05  0.403E-02    3.63       1.0  T
   3    -57.2363123  0.509027E-05  0.143E-02    3.63       1.2  T
   4    -57.2363182 -0.592182E-05  0.266E-03    3.63       6.4  T
   5    -57.2363184 -0.199991E-06  0.814E-04    3.63      21.1  T
   6    -57.2363184 -0.479760E-08  0.444E-04    3.63      38.6  T
     SCC iter.                  ...        0 min,  0.095 sec
     gradient                   ...        0 min,  0.002 sec
 * total energy  :   -56.4754491 Eh     change       -0.1872108E-03 Eh
   gradient norm :     0.0076312 Eh/α   predicted    -0.2261407E-03 (  20.79%)
   displ. norm   :     0.0668683 α      lambda       -0.1686950E-03
   maximum displ.:     0.0378174 α      in ANC's #4, #8, #23, ...

........................................................................
.............................. CYCLE    9 ..............................
........................................................................

 iter      E             dE          RMSdq      gap      omega  full diag
   1    -57.2368318 -0.572368E+02  0.361E-02    3.64       0.0  T
   2    -57.2368331 -0.125353E-05  0.216E-02    3.64       1.0  T
   3    -57.2368317  0.140514E-05  0.764E-03    3.64       2.2  T
   4    -57.2368334 -0.178115E-05  0.149E-03    3.64      11.5  T
   5    -57.2368335 -0.651004E-07  0.579E-04    3.64      29.6  T
   6    -57.2368335 -0.270588E-08  0.315E-04    3.64      54.4  T
     SCC iter.                  ...        0 min,  0.610 sec
     gradient                   ...        0 min,  0.028 sec
 * total energy  :   -56.4755355 Eh     change       -0.8640263E-04 Eh
   gradient norm :     0.0041539 Eh/α   predicted    -0.8472816E-04 (  -1.94%)
   displ. norm   :     0.0554141 α      lambda       -0.5390742E-04
   maximum displ.:     0.0398577 α      in ANC's #4, #13, #8, ...

........................................................................
.............................. CYCLE   10 ..............................
........................................................................

 iter      E             dE          RMSdq      gap      omega  full diag
   1    -57.2364530 -0.572365E+02  0.222E-02    3.64       0.0  T
   2    -57.2364534 -0.362883E-06  0.130E-02    3.64       1.3  T
   3    -57.2364528  0.597145E-06  0.439E-03    3.64       3.9  T
   4    -57.2364535 -0.713862E-06  0.884E-04    3.64      19.4  T
   5    -57.2364535 -0.166388E-07  0.394E-04    3.64      43.5  T
     SCC iter.                  ...        0 min,  0.074 sec
     gradient                   ...        0 min,  0.002 sec
 * total energy  :   -56.4755689 Eh     change       -0.3343613E-04 Eh
   gradient norm :     0.0031870 Eh/α   predicted    -0.2703961E-04 ( -19.13%)
   displ. norm   :     0.0665301 α      lambda       -0.4085460E-04
   maximum displ.:     0.0448847 α      in ANC's #4, #8, #7, ...

........................................................................
.............................. CYCLE   11 ..............................
........................................................................

 iter      E             dE          RMSdq      gap      omega  full diag
   1    -57.2366519 -0.572367E+02  0.220E-02    3.63       0.0  T
   2    -57.2366524 -0.506583E-06  0.130E-02    3.63       1.3  T
   3    -57.2366516  0.856012E-06  0.543E-03    3.63       3.2  T
   4    -57.2366526 -0.106408E-05  0.104E-03    3.63      16.5  T
   5    -57.2366527 -0.280302E-07  0.403E-04    3.63      42.6  T
   6    -57.2366527 -0.981395E-09  0.231E-04    3.63      74.4  T
     SCC iter.                  ...        0 min,  0.277 sec
     gradient                   ...        0 min,  0.001 sec
 * total energy  :   -56.4755922 Eh     change       -0.2322936E-04 Eh
   gradient norm :     0.0024059 Eh/α   predicted    -0.2051883E-04 ( -11.67%)
   displ. norm   :     0.0460000 α      lambda       -0.1682376E-04
   maximum displ.:     0.0316826 α      in ANC's #4, #8, #7, ...

........................................................................
.............................. CYCLE   12 ..............................
........................................................................

 iter      E             dE          RMSdq      gap      omega  full diag
   1    -57.2364230 -0.572364E+02  0.155E-02    3.63       0.0  T
   2    -57.2364232 -0.259897E-06  0.936E-03    3.63       1.8  T
   3    -57.2364226  0.597591E-06  0.467E-03    3.63       3.7  T
   4    -57.2364234 -0.765656E-06  0.791E-04    3.63      21.7  T
   5    -57.2364234 -0.170016E-07  0.282E-04    3.63      60.9  T
     SCC iter.                  ...        0 min,  0.030 sec
     gradient                   ...        0 min,  0.002 sec
 * total energy  :   -56.4756024 Eh     change       -0.1025318E-04 Eh
   gradient norm :     0.0016437 Eh/α   predicted    -0.8432295E-05 ( -17.76%)
   displ. norm   :     0.0531011 α      lambda       -0.9027405E-05
   maximum displ.:     0.0351777 α      in ANC's #4, #7, #17, ...

........................................................................
.............................. CYCLE   13 ..............................
........................................................................

 iter      E             dE          RMSdq      gap      omega  full diag
   1    -57.2365374 -0.572365E+02  0.169E-02    3.63       0.0  T
   2    -57.2365377 -0.259677E-06  0.994E-03    3.63       1.7  T
   3    -57.2365370  0.609179E-06  0.472E-03    3.63       3.6  T
   4    -57.2365378 -0.767733E-06  0.753E-04    3.63      22.8  T
   5    -57.2365378 -0.126821E-07  0.323E-04    3.63      53.2  T
     SCC iter.                  ...        0 min,  0.020 sec
     gradient                   ...        0 min,  0.003 sec
 * total energy  :   -56.4756080 Eh     change       -0.5617381E-05 Eh
   gradient norm :     0.0014460 Eh/α   predicted    -0.4520458E-05 ( -19.53%)
   displ. norm   :     0.0248498 α      lambda       -0.5302502E-05
   maximum displ.:     0.0121468 α      in ANC's #7, #4, #1, ...

........................................................................
.............................. CYCLE   14 ..............................
........................................................................

 iter      E             dE          RMSdq      gap      omega  full diag
   1    -57.2361201 -0.572361E+02  0.105E-02    3.63       0.0  T
   2    -57.2361203 -0.147305E-06  0.614E-03    3.63       2.8  T
   3    -57.2361202  0.451045E-07  0.198E-03    3.63       8.7  T
   4    -57.2361203 -0.619199E-07  0.439E-04    3.63      39.1  T
   5    -57.2361203 -0.449370E-08  0.158E-04    3.63     108.4  T
     SCC iter.                  ...        0 min,  0.032 sec
     gradient                   ...        0 min,  0.002 sec
 * total energy  :   -56.4756111 Eh     change       -0.3042948E-05 Eh
   gradient norm :     0.0012525 Eh/α   predicted    -0.2655109E-05 ( -12.75%)
   displ. norm   :     0.0162477 α      lambda       -0.3331636E-05
   maximum displ.:     0.0082811 α      in ANC's #7, #3, #9, ...

........................................................................
.............................. CYCLE   15 ..............................
........................................................................

 iter      E             dE          RMSdq      gap      omega  full diag
   1    -57.2363241 -0.572363E+02  0.773E-03    3.63       0.0  T
   2    -57.2363241 -0.514017E-07  0.453E-03    3.63       3.8  T
   3    -57.2363241  0.470323E-07  0.150E-03    3.63      11.4  T
   4    -57.2363242 -0.602194E-07  0.256E-04    3.63      67.0  T
   5    -57.2363242 -0.140912E-08  0.100E-04    3.63     171.3  T
     SCC iter.                  ...        0 min,  0.216 sec
     gradient                   ...        0 min,  0.023 sec
 * total energy  :   -56.4756137 Eh     change       -0.2649647E-05 Eh
   gradient norm :     0.0009220 Eh/α   predicted    -0.1668343E-05 ( -37.04%)
   displ. norm   :     0.0254613 α      lambda       -0.2778188E-05
   maximum displ.:     0.0146420 α      in ANC's #7, #3, #1, ...

   *** GEOMETRY OPTIMIZATION CONVERGED AFTER 15 ITERATIONS ***

------------------------------------------------------------------------
 total energy gain   :        -0.3623683 Eh     -227.3895 kcal/mol
 total RMSD          :         0.2876444 a0        0.1522 Å
 total power (kW/mol):       -63.4265231 (step) -308.3675 (real)
------------------------------------------------------------------------

 ANCopt (total)                0 d,  0 h,  0 min,  3.085 sec
 optimizer setup                ...        0 min,  0.000 sec (  0.005%)
 model hessian                  ...        0 min,  0.009 sec (  0.299%)
 ANC generation                 ...        0 min,  0.022 sec (  0.705%)
 coordinate transformation      ...        0 min,  0.000 sec (  0.007%)
 single point calculation       ...        0 min,  3.005 sec ( 97.399%)
 optimization log               ...        0 min,  0.001 sec (  0.046%)
 hessian update                 ...        0 min,  0.036 sec (  1.180%)
 rational function              ...        0 min,  0.007 sec (  0.214%)

================
 final structure:
================
34
 xtb: 6.7.1-6.fc44.fc44
O            0.34135691976266        1.72131971921230       -1.16773408993455
C           -0.83355282767822        2.32438996272709       -1.33216346407015
O           -0.94803682772208        3.34661490625899       -1.94406594095650
H            0.27972253664167        0.94351639790056       -0.57966591393289
C           -2.02362755793964        1.60517818087760       -0.69903283076290
H           -2.92103718722881        1.85299977942535       -1.27747045054205
H           -2.16490166790259        1.98123682611592        0.32170206918254
N           -1.81639176784771        0.18241008503082       -0.60081025035244
H           -1.63070818119195       -0.35987826007051       -1.43642107284401
C           -2.15676079190927       -0.53092131236268        0.49541176023642
O           -2.51223233933520       -0.03337282637416        1.54135706651472
C           -2.00032865520019       -2.04065810939048        0.30661726120432
H           -2.83591290016990       -2.51424592999033        0.84842166652618
N           -1.97772576927935       -2.37146230552044       -1.11394878179638
H           -2.92012655537766       -2.37449271475035       -1.49050510398731
H           -1.59011487041925       -3.29816011082434       -1.25007231780633
C           -0.69430110697482       -2.49279722782928        0.99141751459085
H           -0.62446885604405       -3.58116027232086        0.91522070758494
H           -0.76276876412092       -2.22503443652533        2.04687193031970
C            0.52357799817040       -1.86889454400836        0.39658573873653
C            1.29924226592337       -2.35898908110857       -0.61361959550374
H            1.18974049182207       -3.26781554562052       -1.17379484513054
N            2.34310298128361       -1.51105171925550       -0.86439226519547
H            3.05881633328860       -1.65448584906444       -1.55557916136111
C            2.26963747945740       -0.44980540632007       -0.00981081286777
C            3.10014547844585        0.65503137768404        0.13700198296216
H            3.97300595970736        0.78155760729783       -0.48525328096976
C            2.76884867416152        1.57680428345055        1.10501492345835
H            3.39190948152413        2.44628266590584        1.24718203822873
C            1.63969001761290        1.41043378297422        1.91362255696264
H            1.41882649769259        2.15712596639687        2.66117744839133
C            0.81236406212006        0.31862534836831        1.77882388516826
H           -0.05725451286856        0.20012505147639        2.40688279631587
C            1.12120723327393       -0.63318154383835        0.80141893195728

 Bond Distances (Angstroems)
 ---------------------------
O1-C2=1.3308         O1-H4=0.9770         C2-O1=1.3308         C2-O3=1.1969         C2-C5=1.5279         O3-C2=1.1969         
H4-O1=0.9770         C5-C2=1.5279         C5-H6=1.0961         C5-H7=1.0969         C5-N8=1.4411         H6-C5=1.0961         
H7-C5=1.0969         N8-C5=1.4411         N8-H9=1.0133         N8-C10=1.3514        H9-N8=1.0133         C10-N8=1.3514        
C10-O11=1.2116       C10-C12=1.5295       O11-C10=1.2116       C12-C10=1.5295       C12-H13=1.1027       C12-N14=1.4587       
C12-C17=1.5424       H13-C12=1.1027       N14-C12=1.4587       N14-H15=1.0149       N14-H16=1.0137       H15-N14=1.0149       
H16-N14=1.0137       C17-C12=1.5424       C17-H18=1.0933       C17-H19=1.0910       C17-C20=1.4921       H18-C17=1.0933       
H19-C17=1.0910       C20-C17=1.4921       C20-C21=1.3647       C20-C34=1.4311       C21-C20=1.3647       C21-H22=1.0732       
C21-N23=1.3680       H22-C21=1.0732       N23-C21=1.3680       N23-H24=1.0053       N23-C25=1.3645       H24-N23=1.0053       
C25-N23=1.3645       C25-C26=1.3900       C25-C34=1.4180       C26-C25=1.3900       C26-H27=1.0794       C26-C28=1.3771       
H27-C26=1.0794       C28-C26=1.3771       C28-H29=1.0791       C28-C30=1.3988       H29-C28=1.0791       C30-C28=1.3988       
C30-H31=1.0794       C30-C32=1.3765       H31-C30=1.0794       C32-C30=1.3765       C32-H33=1.0792       C32-C34=1.3988       
H33-C32=1.0792       C34-C20=1.4311       C34-C25=1.4180       C34-C32=1.3988       
 C  H  Rav=1.0870 sigma=0.0096  Rmin=1.0732  Rmax=1.1027    10
 C  C  Rav=1.4372 sigma=0.0639  Rmin=1.3647  Rmax=1.5424    12
 N  H  Rav=1.0118 sigma=0.0038  Rmin=1.0053  Rmax=1.0149     4
 N  C  Rav=1.3968 sigma=0.0441  Rmin=1.3514  Rmax=1.4587     5
 O  H  Rav=0.9770 sigma=0.0000  Rmin=0.9770  Rmax=0.9770     1
 O  C  Rav=1.2464 sigma=0.0600  Rmin=1.1969  Rmax=1.3308     3

 selected bond angles (degree)
 --------------------
H4-O1-C2=112.30                O3-C2-O1=122.32                C5-C2-O1=115.03                C5-C2-O3=122.64                
H6-C5-C2=108.22                H7-C5-C2=108.94                H7-C5-H6=107.95                N8-C5-C2=112.39                
N8-C5-H6=112.14                N8-C5-H7=107.07                H9-N8-C5=119.90                C10-N8-C5=122.70               
C10-N8-H9=115.63               O11-C10-N8=123.88              C12-C10-N8=113.27              C12-C10-O11=122.81             

 selected dihedral angles (degree)
 ---------------------------------
O3-C2-O1-H4=174.87            C5-C2-O1-H4=354.07            H6-C5-C2-O1=208.24            H6-C5-C2-O3= 27.44            
H7-C5-C2-O1= 91.12            H7-C5-C2-O3=270.32            N8-C5-C2-O1=332.63            N8-C5-C2-O3=151.83            
H9-N8-C5-C2=301.81            H9-N8-C5-H6= 64.00            H9-N8-C5-H7=182.22            C10-N8-C5-C2=137.64           
C10-N8-C5-H6=259.83           C10-N8-C5-H7= 18.06           O11-C10-N8-C5=350.88          O11-C10-N8-H9=186.09          
C12-C10-N8-C5=173.02          C12-C10-N8-H9=  8.23          
           -------------------------------------------------
          |                Final Singlepoint                |
           -------------------------------------------------

          ...................................................
          :                      SETUP                      :
          :.................................................:
          :  # basis functions                  91          :
          :  # atomic orbitals                  91          :
          :  # shells                           53          :
          :  # electrons                       100          :
          :  max. iterations                   250          :
          :  Hamiltonian                  GFN2-xTB          :
          :  restarted?                      false          :
          :  GBSA solvation                  false          :
          :  PC potential                    false          :
          :  electronic temp.          300.0000000     K    :
          :  accuracy                    1.0000000          :
          :  -> integral cutoff          0.2500000E+02      :
          :  -> integral neglect         0.1000000E-07      :
          :  -> SCF convergence          0.1000000E-05 Eh   :
          :  -> wf. convergence          0.1000000E-03 e    :
          :  Broyden damping             0.4000000          :
          :  net charge                          0          :
          :  unpaired electrons                  0          :
          ...................................................

 iter      E             dE          RMSdq      gap      omega  full diag
   1    -57.2363242 -0.572363E+02  0.483E-05    3.63       0.0  T
   2    -57.2363242 -0.145519E-10  0.291E-05    3.63     589.4  T
   3    -57.2363242 -0.606093E-11  0.188E-05    3.63     910.5  T

   *** convergence criteria satisfied after 3 iterations ***

         #    Occupation            Energy/Eh            Energy/eV
      -------------------------------------------------------------
         1        2.0000           -0.7446475             -20.2629
       ...           ...                  ...                  ...
        44        2.0000           -0.4232831             -11.5181
        45        2.0000           -0.4207687             -11.4497
        46        2.0000           -0.4141564             -11.2698
        47        2.0000           -0.4066634             -11.0659
        48        2.0000           -0.3905746             -10.6281
        49        2.0000           -0.3897348             -10.6052
        50        2.0000           -0.3718902             -10.1196 (HOMO)
        51                         -0.2383781              -6.4866 (LUMO)
        52                         -0.2337477              -6.3606
        53                         -0.2195204              -5.9735
        54                         -0.2042927              -5.5591
        55                         -0.1684138              -4.5828
       ...                                ...                  ...
        91                          0.7062160              19.2171
      -------------------------------------------------------------
                  HL-Gap            0.1335121 Eh            3.6330 eV
             Fermi-level           -0.3051342 Eh           -8.3031 eV

 SCC (total)                   0 d,  0 h,  0 min,  0.077 sec
 SCC setup                      ...        0 min,  0.003 sec (  4.136%)
 Dispersion                     ...        0 min,  0.008 sec (  9.780%)
 classical contributions        ...        0 min,  0.002 sec (  2.397%)
 integral evaluation            ...        0 min,  0.003 sec (  3.431%)
 iterations                     ...        0 min,  0.053 sec ( 68.590%)
 molecular gradient             ...        0 min,  0.008 sec ( 11.001%)
 printout                       ...        0 min,  0.000 sec (  0.629%)

         :::::::::::::::::::::::::::::::::::::::::::::::::::::
         ::                     SUMMARY                     ::
         :::::::::::::::::::::::::::::::::::::::::::::::::::::
         :: total energy             -56.475613720864 Eh    ::
         :: gradient norm              0.000921720970 Eh/a0 ::
         :: HOMO-LUMO gap              3.633049330199 eV    ::
         ::.................................................::
         :: SCC energy               -57.235318688071 Eh    ::
         :: -> isotropic ES            0.098995143607 Eh    ::
         :: -> anisotropic ES          0.005896244087 Eh    ::
         :: -> anisotropic XC          0.019811129831 Eh    ::
         :: -> dispersion             -0.039057071493 Eh    ::
         :: repulsion energy           0.759704967207 Eh    ::
         :: add. restraining           0.000000000000 Eh    ::
         :: total charge              -0.000000000000 e     ::
         :::::::::::::::::::::::::::::::::::::::::::::::::::::

           -------------------------------------------------
          |                Property Printout                |
           -------------------------------------------------

    * Orbital Energies and Occupations

         #    Occupation            Energy/Eh            Energy/eV
      -------------------------------------------------------------
         1        2.0000           -0.7446475             -20.2629
       ...           ...                  ...                  ...
        38        2.0000           -0.4718969             -12.8410
        39        2.0000           -0.4662157             -12.6864
        40        2.0000           -0.4602606             -12.5243
        41        2.0000           -0.4561943             -12.4137
        42        2.0000           -0.4330177             -11.7830
        43        2.0000           -0.4320769             -11.7574
        44        2.0000           -0.4232831             -11.5181
        45        2.0000           -0.4207687             -11.4497
        46        2.0000           -0.4141564             -11.2698
        47        2.0000           -0.4066634             -11.0659
        48        2.0000           -0.3905746             -10.6281
        49        2.0000           -0.3897348             -10.6052
        50        2.0000           -0.3718902             -10.1196 (HOMO)
        51                         -0.2383781              -6.4866 (LUMO)
        52                         -0.2337477              -6.3606
        53                         -0.2195204              -5.9735
        54                         -0.2042927              -5.5591
        55                         -0.1684138              -4.5828
        56                         -0.0797055              -2.1689
        57                         -0.0144808              -0.3940
        58                          0.0132726               0.3612
        59                          0.0192878               0.5248
        60                          0.0674147               1.8344
        61                          0.0845922               2.3019
       ...                                ...                  ...
        91                          0.7062160              19.2171
      -------------------------------------------------------------
                  HL-Gap            0.1335121 Eh            3.6330 eV
             Fermi-level           -0.3051342 Eh           -8.3031 eV

     #   Z          covCN         q      C6AA      α(0)
     1   8 O        1.658    -0.370    20.284     6.080
     2   6 C        2.687     0.353    21.000     7.500
     3   8 O        0.856    -0.370    21.096     6.158
     4   1 H        0.803     0.337     0.620     1.236
     5   6 C        3.739    -0.041    21.379     6.597
     6   1 H        0.924     0.074     2.043     2.235
     7   1 H        0.924     0.107     1.723     2.053
     8   7 N        2.688    -0.186    25.040     7.432
     9   1 H        0.860     0.195     1.132     1.667
    10   6 C        2.755     0.268    22.483     7.765
    11   8 O        0.858    -0.431    22.304     6.332
    12   6 C        3.786     0.029    20.096     6.385
    13   1 H        0.923     0.031     2.577     2.511
    14   7 N        2.632    -0.354    29.111     8.013
    15   1 H        0.860     0.142     1.456     1.890
    16   1 H        0.860     0.151     1.398     1.852
    17   6 C        3.807    -0.060    21.646     6.623
    18   1 H        0.924     0.039     2.468     2.457
    19   1 H        0.924     0.059     2.209     2.324
    20   6 C        3.052    -0.034    28.800     8.801
    21   6 C        3.033    -0.007    28.170     8.706
    22   1 H        0.926     0.031     2.578     2.511
    23   7 N        2.777    -0.102    23.247     7.161
    24   1 H        0.860     0.161     1.330     1.806
    25   6 C        3.084     0.041    26.998     8.518
    26   6 C        2.908    -0.050    29.236     8.866
    27   1 H        0.926     0.030     2.587     2.515
    28   6 C        2.924    -0.032    28.807     8.802
    29   1 H        0.926     0.035     2.513     2.479
    30   6 C        2.919    -0.041    29.010     8.832
    31   1 H        0.926     0.033     2.544     2.494
    32   6 C        2.910    -0.045    29.118     8.848
    33   1 H        0.926     0.043     2.411     2.428
    34   6 C        3.117    -0.034    28.666     8.770

 Mol. C6AA /au·bohr⁶  :      13314.329647
 Mol. C8AA /au·bohr⁸  :     312158.514608
 Mol. α(0) /au        :        178.647314


Wiberg/Mayer (AO) data.
largest (>0.10) Wiberg bond orders for each atom

 ---------------------------------------------------------------------------
     #   Z sym  total        # sym  WBO       # sym  WBO       # sym  WBO
 ---------------------------------------------------------------------------
     1   8 O    2.219 --     2 C    1.154     4 H    0.830     3 O    0.171
     2   6 C    3.926 --     3 O    1.783     1 O    1.154     5 C    0.951
     3   8 O    2.068 --     2 C    1.783     1 O    0.171
     4   1 H    0.886 --     1 O    0.830
     5   6 C    3.967 --     8 N    1.002     6 H    0.955     2 C    0.951
                             7 H    0.937
     6   1 H    0.994 --     5 C    0.955
     7   1 H    0.988 --     5 C    0.937
     8   7 N    3.437 --    10 C    1.242     5 C    1.002     9 H    0.916
                            11 O    0.193
     9   1 H    0.962 --     8 N    0.916
    10   6 C    3.951 --    11 O    1.696     8 N    1.242    12 C    0.942
    11   8 O    2.013 --    10 C    1.696     8 N    0.193
    12   6 C    3.982 --    14 N    1.014    17 C    0.960    13 H    0.953
                            10 C    0.942
    13   1 H    0.998 --    12 C    0.953
    14   7 N    3.022 --    12 C    1.014    15 H    0.966    16 H    0.959
    15   1 H    0.980 --    14 N    0.966
    16   1 H    0.977 --    14 N    0.959
    17   6 C    3.993 --    20 C    1.019    18 H    0.969    19 H    0.968
                            12 C    0.960
    18   1 H    0.997 --    17 C    0.969
    19   1 H    0.996 --    17 C    0.968
    20   6 C    3.976 --    21 C    1.582    34 C    1.201    17 C    1.019
    21   6 C    3.951 --    20 C    1.582    23 N    1.198    22 H    0.969
    22   1 H    0.998 --    21 C    0.969
    23   7 N    3.546 --    21 C    1.198    25 C    1.177    24 H    0.946
    24   1 H    0.974 --    23 N    0.946
    25   6 C    3.959 --    26 C    1.334    34 C    1.244    23 N    1.177
    26   6 C    3.989 --    28 C    1.498    25 C    1.334    27 H    0.968
                            32 C    0.116
    27   1 H    0.999 --    26 C    0.968
    28   6 C    3.991 --    26 C    1.498    30 C    1.368    29 H    0.972
    29   1 H    0.998 --    28 C    0.972
    30   6 C    3.991 --    32 C    1.508    28 C    1.368    31 H    0.971
    31   1 H    0.999 --    30 C    0.971
    32   6 C    3.992 --    30 C    1.508    34 C    1.319    33 H    0.967
                            26 C    0.116
    33   1 H    0.998 --    32 C    0.967
    34   6 C    3.983 --    32 C    1.319    25 C    1.244    20 C    1.201
 ---------------------------------------------------------------------------

Topologies differ in total number of bonds
Writing topology from bond orders to xtbtopo.mol

molecular dipole:
                 x           y           z       tot (Debye)
 q only:        0.580      -1.948      -0.630
   full:        0.413      -2.772      -0.740       7.367
molecular quadrupole (traceless):
                xx          xy          yy          xz          yz          zz
 q only:        6.424       1.202      -2.797       4.396      12.237      -3.626
  q+dip:        9.949       6.079      -2.811       2.034      18.549      -7.137
   full:       10.105       4.825      -3.337       4.326      17.435      -6.768

           -------------------------------------------------
          |                Geometry Summary                 |
           -------------------------------------------------

      molecular mass/u    :      261.2770023
   center of mass at/Å    :       -0.0094196      -0.0386699       0.0125105
  moments of inertia/u·Å² :        0.1123085E+04   0.1219259E+04   0.1735046E+04
rotational constants/cm⁻¹ :        0.1501012E-01   0.1382613E-01   0.9715957E-02

 * 32 selected distances

     #   Z          #   Z                                           value/Å
     1   8 O        2   6 C                                       1.3308433
     2   6 C        3   8 O                                       1.1968606
     1   8 O        4   1 H                                       0.9770369 (min)
     5   6 C        6   1 H                                       1.0960611
     5   6 C        7   1 H                                       1.0969405
     5   6 C        8   7 N                                       1.4411328
     8   7 N        9   1 H                                       1.0133117
     8   7 N       10   6 C                                       1.3514421
    10   6 C       11   8 O                                       1.2115760
    12   6 C       13   1 H                                       1.1027414
    12   6 C       14   7 N                                       1.4587497
    14   7 N       15   1 H                                       1.0148514
    14   7 N       16   1 H                                       1.0136769
    17   6 C       18   1 H                                       1.0932597
    17   6 C       19   1 H                                       1.0910403
    17   6 C       20   6 C                                       1.4920822 (max)
    20   6 C       21   6 C                                       1.3646842
    21   6 C       22   1 H                                       1.0731974
    21   6 C       23   7 N                                       1.3680388
    23   7 N       24   1 H                                       1.0052654
    23   7 N       25   6 C                                       1.3645332
    25   6 C       26   6 C                                       1.3899504
    26   6 C       27   1 H                                       1.0793962
    26   6 C       28   6 C                                       1.3771246
    28   6 C       29   1 H                                       1.0790779
    28   6 C       30   6 C                                       1.3987584
    30   6 C       31   1 H                                       1.0794297
    30   6 C       32   6 C                                       1.3764755
    32   6 C       33   1 H                                       1.0792298
    20   6 C       34   6 C                                       1.4310966
    25   6 C       34   6 C                                       1.4179608
    32   6 C       34   6 C                                       1.3987999

 * 6 distinct bonds (by element types)

   Z      Z             #   av. dist./Å        max./Å        min./Å
   1 H    6 C          10     1.0870374     1.1027414     1.0731974
   6 C    6 C           9     1.4052148     1.4920822     1.3646842
   1 H    7 N           4     1.0117763     1.0148514     1.0052654
   6 C    7 N           5     1.3967793     1.4587497     1.3514421
   1 H    8 O           1     0.9770369     0.9770369     0.9770369
   6 C    8 O           3     1.2464266     1.3308433     1.1968606


optimized geometry written to: xtbopt.xyz


           -------------------------------------------------
          | TOTAL ENERGY              -56.475613720864 Eh   |
          | GRADIENT NORM               0.000921720970 Eh/α |
          | HOMO-LUMO GAP               3.633049330199 eV   |
           -------------------------------------------------

------------------------------------------------------------------------
 * finished run on 2026/10/01 at 18:04:49.491     
------------------------------------------------------------------------
 total:
 * wall-time:     0 d,  0 h,  0 min,  5.045 sec
 *  cpu-time:     0 d,  0 h,  1 min,  8.788 sec
 * ratio c/w:    13.634 speedup
 SCF:
 * wall-time:     0 d,  0 h,  0 min,  1.840 sec
 *  cpu-time:     0 d,  0 h,  0 min, 24.842 sec
 * ratio c/w:    13.498 speedup
 ANC optimizer:
 * wall-time:     0 d,  0 h,  0 min,  3.163 sec
 *  cpu-time:     0 d,  0 h,  0 min, 43.376 sec
 * ratio c/w:    13.712 speedup


--- STDERR ---
normal termination of xtb
Note: The following floating-point exceptions are signalling: IEEE_UNDERFLOW_FLAG IEEE_DENORMAL
