34
 energy: -56.475613720864 gnorm: 0.000921720970 xtb: 6.7.1-6.fc44.fc44
O            0.34135691976266        1.72131971921230       -1.16773408993455
C           -0.83355282767822        2.32438996272709       -1.33216346407015
O           -0.94803682772208        3.34661490625899       -1.94406594095650
H            0.27972253664167        0.94351639790056       -0.57966591393289
C           -2.02362755793964        1.60517818087760       -0.69903283076290
H           -2.92103718722881        1.85299977942535       -1.27747045054205
H           -2.16490166790259        1.98123682611592        0.32170206918254
N           -1.81639176784771        0.18241008503082       -0.60081025035244
H           -1.63070818119195       -0.35987826007051       -1.43642107284401
C           -2.15676079190927       -0.53092131236268        0.49541176023642
O           -2.51223233933520       -0.03337282637416        1.54135706651472
C           -2.00032865520019       -2.04065810939048        0.30661726120432
H           -2.83591290016990       -2.51424592999033        0.84842166652618
N           -1.97772576927935       -2.37146230552044       -1.11394878179638
H           -2.92012655537766       -2.37449271475035       -1.49050510398731
H           -1.59011487041925       -3.29816011082434       -1.25007231780633
C           -0.69430110697482       -2.49279722782928        0.99141751459085
H           -0.62446885604405       -3.58116027232086        0.91522070758494
H           -0.76276876412092       -2.22503443652533        2.04687193031970
C            0.52357799817040       -1.86889454400836        0.39658573873653
C            1.29924226592337       -2.35898908110857       -0.61361959550374
H            1.18974049182207       -3.26781554562052       -1.17379484513054
N            2.34310298128361       -1.51105171925550       -0.86439226519547
H            3.05881633328860       -1.65448584906444       -1.55557916136111
C            2.26963747945740       -0.44980540632007       -0.00981081286777
C            3.10014547844585        0.65503137768404        0.13700198296216
H            3.97300595970736        0.78155760729783       -0.48525328096976
C            2.76884867416152        1.57680428345055        1.10501492345835
H            3.39190948152413        2.44628266590584        1.24718203822873
C            1.63969001761290        1.41043378297422        1.91362255696264
H            1.41882649769259        2.15712596639687        2.66117744839133
C            0.81236406212006        0.31862534836831        1.77882388516826
H           -0.05725451286856        0.20012505147639        2.40688279631587
C            1.12120723327393       -0.63318154383835        0.80141893195728
