34
frame_0060
O      -1.975731482007668      2.730238159783990     -0.194007822381186
C      -2.674734651924815      2.455960748766498     -1.328347711515834
O      -2.831352834488118      3.263844486841756     -2.364897078951657
H      -2.405912832567764      1.835005782319055      0.557721811699989
C      -3.752589808958819      1.109912990736220     -1.372723303559436
H      -3.931533036663824      1.297143117310957     -2.165779014972863
H      -4.234940086146063      1.400341276664445     -0.655730225265902
N      -2.724910570656268      0.034202680577417     -1.435652747431505
H      -2.614572876100442     -0.779910275772448     -1.995625742851155
C      -2.098934853834802     -0.492663739772267      0.131902853002620
O      -2.315780490973157      0.453586686494949      1.283216099754851
C      -1.678818477941966     -1.774870215684162      0.114283986549043
H      -1.562658574679575     -2.125318230930960      1.182212673834419
N      -2.159680717437501     -2.635057179612813     -0.735905740958815
H      -3.229611339987490     -2.850581659655344     -0.507882457654532
H      -1.976628352652987     -3.630814792107543     -0.772133992424066
C      -0.126266564900289     -1.549552992284274     -0.482142682869391
H      -0.177602514102436     -1.096910719526074     -1.325924987969176
H       0.377391506201247     -2.607782907291040     -0.396062309155944
C       0.773753532381428     -0.903585886584558      0.581559792942376
C       0.477528499088855     -0.251876904323083      1.654585798288565
H      -0.309942222071998      0.023583964211918      2.176732432307182
N       1.838999146228746      0.325249195548585      2.163432814868945
H       1.853898753446616      0.881347134548507      2.937496683885780
C       2.910621701416635     -0.185888512609384      1.373451924445444
C       4.119593062519995      0.039142611807167      1.435947802865148
H       4.570226661118509      0.669475641619223      2.316992784927143
C       5.066185234742425     -0.702897144135714      0.585611069625607
H       6.025212572944163     -0.535840826031242      0.935952465245468
C       4.364566554429884     -1.282421767426676     -0.606167503764299
H       5.177156836994425     -1.685826376194328     -1.106258879220394
C       3.166126721491104     -1.488493930942933     -0.558253468068226
H       2.692660358332736     -1.995107713185671     -1.348154436797613
C       2.126828028436618     -1.035484652930730      0.255839305328882
