34
 energy: -56.475968447662 gnorm: 0.000671551798 xtb: 6.7.1-6.fc44.fc44
O           -2.09593118969949        2.67793248967851       -0.12487590655094
C           -2.66551156303522        2.46048690545528       -1.29384010421342
O           -2.58894905336890        3.22103668389199       -2.21635225485486
H           -2.24209033752695        1.92353341381511        0.51020090343786
C           -3.48734460183234        1.15437753812234       -1.38410786507686
H           -3.92151429136859        1.08540702220466       -2.38020183725747
H           -4.29150149566814        1.22720599054987       -0.63944758386621
N           -2.69906483156271       -0.03392221930313       -1.12393688468685
H           -2.58381660734272       -0.72164258910073       -1.85489026910476
C           -2.26157655037437       -0.37803085293069        0.09181877986228
O           -2.38954125029859        0.34500241481624        1.07509239584864
C           -1.58128701910483       -1.73794682842577        0.13178600398854
H           -1.55141313339054       -2.07093770852720        1.18192230229662
N           -2.32679043771398       -2.63404017245007       -0.74958757447965
H           -3.25100137481634       -2.81553588103302       -0.37121280505381
H           -1.84942068182778       -3.52579133438656       -0.82788204075237
C           -0.14191778890312       -1.62088192704762       -0.39376616886477
H           -0.15802198002977       -1.11752530625387       -1.36598772050644
H            0.23352982966926       -2.63500728572875       -0.56635796175526
C            0.81154038262512       -0.91913120530360        0.52077831151718
C            0.56388283713470       -0.18295151661134        1.64188103199574
H           -0.36927097181511        0.06164636845475        2.10871542390043
N            1.74021834019639        0.27134375390473        2.17413913544282
H            1.81771319100213        0.85328772962766        2.99019175056931
C            2.77802497110936       -0.16027927866520        1.40299001013680
C            4.14702371173128        0.03537524625070        1.53268540186102
H            4.55154708829498        0.61999217655073        2.34591682075435
C            4.96647054079712       -0.54198265425670        0.58739148591482
H            6.03606833082439       -0.41009228803543        0.65700902734218
C            4.44131712991790       -1.29719123811467       -0.46498216134464
H            5.11955216646999       -1.73156523370884       -1.18493731054827
C            3.08574592025510       -1.49403386880892       -0.59966709659254
H            2.69048594949206       -2.07699747950458       -1.41863147212793
C            2.23139165183909       -0.92299281489526        0.34343642652687
