34
frame_0046
O      -2.684915139300000      2.696117527100000     -0.395390465600000
C      -1.774447309000000      2.574520651900000     -1.339036525400000
O      -1.806762311700000      3.184918032900000     -2.370571451600000
H      -2.518648227700000      2.074597886400000      0.369781968100000
C      -0.623766031700000      1.598287780900000     -1.011592554900000
H      -0.118269993300000      1.965119206000000     -0.108454926800000
H       0.081957632200000      1.600905862500000     -1.841032414800000
N      -1.077996390600000      0.237739142400000     -0.782870898600000
H      -0.733887823200000     -0.471600324500000     -1.410831784500000
C      -1.706741650600000     -0.146155257300000      0.341327909000000
O      -2.114647993200000      0.661740467400000      1.168481018600000
C      -1.898293422000000     -1.649600583500000      0.523575890300000
H      -2.811543504500000     -1.779664155400000      1.116109553400000
N      -2.048819586300000     -2.422595215500000     -0.690595338700000
H      -1.170866975900000     -2.510207836100000     -1.190105738200000
H      -2.752492458900000     -2.028652960400000     -1.302754151500000
C      -0.706250290500000     -2.200811594800000      1.341556414600000
H      -0.858992949900000     -3.274803401600000      1.452594747400000
H      -0.718249822700000     -1.735172779100000      2.327234848200000
C       0.599344313700000     -1.933793695500000      0.671117550300000
C       1.245393387300000     -2.729876350000000     -0.231558725600000
H       0.978523206300000     -3.708639444400000     -0.583716203300000
N       2.386463024300000     -2.114532279700000     -0.674125711000000
H       3.058416257100000     -2.516530917300000     -1.304904469200000
C       2.507386592000000     -0.904397131800000     -0.052105157200000
C       3.483054345100000      0.077783442200000     -0.168687261200000
H       4.328083240800000     -0.051551374500000     -0.828627641500000
C       3.334319032300000      1.216392435200000      0.592763351500000
H       4.073681201100000      2.000313706500000      0.528346104800000
C       2.246031123400000      1.377090033100000      1.455791711600000
H       2.173171578800000      2.282203925400000      2.040439993600000
C       1.274931787000000      0.408424685100000      1.575479210200000
H       0.438905720300000      0.541162769400000      2.245809224100000
C       1.393151404100000     -0.750732308800000      0.807132735600000
