34
 energy: -56.477720929465 gnorm: 0.000153128260 xtb: 6.7.1-6.fc44.fc44
O           -2.68491513930000        2.69611752710000       -0.39539046560000
C           -1.77444730900000        2.57452065190000       -1.33903652540000
O           -1.80676231170000        3.18491803290000       -2.37057145160000
H           -2.51864822770000        2.07459788640000        0.36978196810000
C           -0.62376603170000        1.59828778090000       -1.01159255490000
H           -0.11826999330000        1.96511920600000       -0.10845492680000
H            0.08195763220000        1.60090586250000       -1.84103241480000
N           -1.07799639060000        0.23773914240000       -0.78287089860000
H           -0.73388782320000       -0.47160032450000       -1.41083178450000
C           -1.70674165060000       -0.14615525730000        0.34132790900000
O           -2.11464799320000        0.66174046740000        1.16848101860000
C           -1.89829342200000       -1.64960058350000        0.52357589030000
H           -2.81154350450000       -1.77966415540000        1.11610955340000
N           -2.04881958630000       -2.42259521550000       -0.69059533870000
H           -1.17086697590000       -2.51020783610000       -1.19010573820000
H           -2.75249245890000       -2.02865296040000       -1.30275415150000
C           -0.70625029050000       -2.20081159480000        1.34155641460000
H           -0.85899294990000       -3.27480340160000        1.45259474740000
H           -0.71824982270000       -1.73517277910000        2.32723484820000
C            0.59934431370000       -1.93379369550000        0.67111755030000
C            1.24539338730000       -2.72987635000000       -0.23155872560000
H            0.97852320630000       -3.70863944440000       -0.58371620330000
N            2.38646302430000       -2.11453227970000       -0.67412571100000
H            3.05841625710000       -2.51653091730000       -1.30490446920000
C            2.50738659200000       -0.90439713180000       -0.05210515720000
C            3.48305434510000        0.07778344220000       -0.16868726120000
H            4.32808324080000       -0.05155137450000       -0.82862764150000
C            3.33431903230000        1.21639243520000        0.59276335150000
H            4.07368120110000        2.00031370650000        0.52834610480000
C            2.24603112340000        1.37709003310000        1.45579171160000
H            2.17317157880000        2.28220392540000        2.04043999360000
C            1.27493178700000        0.40842468510000        1.57547921020000
H            0.43890572030000        0.54116276940000        2.24580922410000
C            1.39315140410000       -0.75073230880000        0.80713273560000
