34
frame_0021
O      -2.081864182882866      2.713542074224064     -0.733640647997437
C      -1.754568213792890      2.235771531652246     -1.940487101356777
O      -2.394995678031481      2.696662540796309     -2.704664220210177
H      -1.894338766298417      2.177094972486609      0.097573467364925
C      -0.855221565537721      0.904888442023609     -2.048575958897298
H       0.089012329017758      1.246643166701529     -1.617477050000858
H      -0.821779542191918      0.877582166205217     -3.007217508432349
N      -1.355018254507256     -0.060260584960356     -1.025954967296196
H      -1.773154805982411     -1.049733545839747     -2.009701155668067
C      -1.547686618166751     -0.264238799366052      0.099600455310543
O      -1.366271753863349      0.645669165323622      0.814160328465019
C      -1.987303778718384     -1.624351926874880      0.365100100696701
H      -2.275906476934044     -1.449383696492749      1.731707765022424
N      -2.839843880771716     -2.091102630730105     -0.534125284421605
H      -3.583430980047229     -1.692832577978439     -0.270541586016969
H      -2.934027547481708     -3.084624126734706     -0.370011868669552
C      -0.529487420347221     -2.508708228887548      0.875907047247946
H      -0.111382417526747     -2.865578585056320     -0.449948591966629
H      -0.839280525195596     -3.372025492331647      1.129194013464128
C       0.325081396266277     -1.657264125648194      1.340652127235756
C       0.864754961500304     -1.396725303421879      2.637030577862509
H       0.390617425841851     -1.861254427317043      3.620113677055508
N       1.850856392757906     -0.483622959116581      2.653892226878458
H       2.215915180492994     -0.050893603080932      3.561786289836431
C       2.180102968315679     -0.060326443304152      1.678877721651714
C       3.408763336898941      0.577934599704662      1.168256767794825
H       3.879004886717328      1.113965266819613      1.998492374529313
C       3.538583139427542      0.534457355203571     -0.279453103542742
H       4.550659000649392      1.396043684250631     -0.492910178535873
C       2.954826598396119      0.200926734645575     -1.066218415469096
H       3.175557521108217      0.220412847753913     -2.127159727888574
C       1.823906543765196     -0.713231553442924     -0.800576031631881
H       1.177604422624956     -1.316957845529980     -1.624535442660856
C       1.734647648550595     -0.764287402359453      0.608754581363459
