      -----------------------------------------------------------      
     |                   =====================                   |     
     |                           x T B                           |     
     |                   =====================                   |     
     |                         S. Grimme                         |     
     |          Mulliken Center for Theoretical Chemistry        |     
     |                    University of Bonn                     |     
      -----------------------------------------------------------      

   * xtb version 6.7.1-6.fc44.fc44 compiled by Fedora project on Sun Jan 18 23:32:34 UTC 2026

   xtb is free software: you can redistribute it and/or modify it under
   the terms of the GNU Lesser General Public License as published by
   the Free Software Foundation, either version 3 of the License, or
   (at your option) any later version.
   
   xtb is distributed in the hope that it will be useful,
   but WITHOUT ANY WARRANTY; without even the implied warranty of
   MERCHANTABILITY or FITNESS FOR A PARTICULAR PURPOSE.  See the
   GNU Lesser General Public License for more details.
   
   Cite this work as:
   * C. Bannwarth, E. Caldeweyher, S. Ehlert, A. Hansen, P. Pracht,
     J. Seibert, S. Spicher, S. Grimme, WIREs Comput. Mol. Sci., 2020, 11,
     e01493. DOI: 10.1002/wcms.1493
   
   for GFN2-xTB:
   * C. Bannwarth, S. Ehlert and S. Grimme., J. Chem. Theory Comput., 2019,
     15, 1652-1671. DOI: 10.1021/acs.jctc.8b01176
   for GFN1-xTB:
   * S. Grimme, C. Bannwarth, P. Shushkov, J. Chem. Theory Comput., 2017,
     13, 1989-2009. DOI: 10.1021/acs.jctc.7b00118
   for GFN0-xTB:
   * P. Pracht, E. Caldeweyher, S. Ehlert, S. Grimme, ChemRxiv, 2019, preprint.
     DOI: 10.26434/chemrxiv.8326202.v1
   for GFN-FF:
   * S. Spicher and S. Grimme, Angew. Chem. Int. Ed., 2020, 59, 15665-15673.
     DOI: 10.1002/anie.202004239
   
   for ALPB and GBSA implicit solvation:
   * S. Ehlert, M. Stahn, S. Spicher, S. Grimme, J. Chem. Theory Comput.,
     2021, 17, 4250-4261. DOI: 10.1021/acs.jctc.1c00471
   
   for ddCOSMO and CPCM-X implicit solvation:
   * M. Stahn, S. Ehlert, S. Grimme, J. Phys. Chem. A,
     2023, XX, XXXX-XXXX. DOI: 10.1021/acs.jpca.3c04382
   
   for DFT-D4:
   * E. Caldeweyher, C. Bannwarth and S. Grimme, J. Chem. Phys., 2017,
     147, 034112. DOI: 10.1063/1.4993215
   * E. Caldeweyher, S. Ehlert, A. Hansen, H. Neugebauer, S. Spicher,
     C. Bannwarth and S. Grimme, J. Chem. Phys., 2019, 150, 154122.
     DOI: 10.1063/1.5090222
   * E. Caldeweyher, J.-M. Mewes, S. Ehlert and S. Grimme, Phys. Chem. Chem. Phys.
     2020, 22, 8499-8512. DOI: 10.1039/D0CP00502A
   
   for sTDA-xTB:
   * S. Grimme and C. Bannwarth, J. Chem. Phys., 2016, 145, 054103.
     DOI: 10.1063/1.4959605
   
   in the mass-spec context:
   * V. Asgeirsson, C. Bauer and S. Grimme, Chem. Sci., 2017, 8, 4879.
     DOI: 10.1039/c7sc00601b
   * J. Koopman and S. Grimme, ACS Omega 2019, 4, 12, 15120-15133.
     DOI: 10.1021/acsomega.9b02011
   
   for metadynamics refer to:
   * S. Grimme, J. Chem. Theory Comput., 2019, 155, 2847-2862
     DOI: 10.1021/acs.jctc.9b00143
   
   for SPH calculations refer to:
   * S. Spicher and S. Grimme, J. Chem. Theory Comput., 2021, 17, 1701-1714
     DOI: 10.1021/acs.jctc.0c01306
   
   for ONIOM refer to:
   * C. Plett, A. Katbashev, S. Ehlert, S. Grimme, M. Bursch,
     Phys. Chem. Chem. Phys., 2023, 25, 17860-17868. DOI: 10.1039/D3CP02178E
   
   for DIPRO refer to:
   * J. Kohn, N. Gildemeister, S. Grimme, D. Fazzi, A. Hansen,
     J. Chem. Phys., 2023, just accepted.
   
   for PTB refer to:
   * S. Grimme, M. Mueller, A. Hansen, J. Chem. Phys., 2023, 158, 124111.
     DOI: 10.1063/5.0137838
   
   with help from (in alphabetical order)
   P. Atkinson, C. Bannwarth, F. Bohle, G. Brandenburg, E. Caldeweyher
   M. Checinski, S. Dohm, S. Ehlert, S. Ehrlich, I. Gerasimov, C. Hölzer
   A. Katbashev, J. Kohn, J. Koopman, C. Lavigne, S. Lehtola, F. März, M. Müller,
   F. Musil, H. Neugebauer, J. Pisarek, C. Plett, P. Pracht, F. Pultar,
   J. Seibert, P. Shushkov, S. Spicher, M. Stahn, M. Steiner, T. Strunk,
   J. Stückrath, T. Rose, and J. Unsleber
   
 * started run on 2026/10/01 at 18:05:27.275     
   ID    Z sym.   atoms
    1    8 O      1, 3, 11
    2    6 C      2, 5, 10, 12, 17, 20, 21, 25, 26, 28, 30, 32, 34
    3    1 H      4, 6, 7, 9, 13, 15, 16, 18, 19, 22, 24, 27, 29, 31, 33
    4    7 N      8, 14, 23

           -------------------------------------------------
          |                Calculation Setup                |
           -------------------------------------------------

          program call               : /usr/bin/xtb input.xyz --opt --gfn 2 --chrg 0 --uhf 0
          hostname                   : fedora
          coordinate file            : input.xyz
          omp threads                :                    16


molecular fragmentation (1/2 indicates fragments):
1111111121111111121111111111111111
# atoms in fragment 1/2:    32     2
 fragment masses (1/2) :      259.26        2.02
CMA distance (Bohr)    :   4.741
constraining FC (au)   :  0.0500

           -------------------------------------------------
          |                 G F N 2 - x T B                 |
           -------------------------------------------------

        Reference                      10.1021/acs.jctc.8b01176
      * Hamiltonian:
        H0-scaling (s, p, d)           1.850000    2.230000    2.230000
        zeta-weighting                 0.500000
      * Dispersion:
        s8                             2.700000
        a1                             0.520000
        a2                             5.000000
        s9                             5.000000
      * Repulsion:
        kExp                           1.500000    1.000000
        rExp                           1.000000
      * Coulomb:
        alpha                          2.000000
        third order                    shell-resolved
        anisotropic                    true
        a3                             3.000000
        a5                             4.000000
        cn-shift                       1.200000
        cn-exp                         4.000000
        max-rad                        5.000000


          ...................................................
          :                      SETUP                      :
          :.................................................:
          :  # basis functions                  91          :
          :  # atomic orbitals                  91          :
          :  # shells                           53          :
          :  # electrons                       100          :
          :  max. iterations                   250          :
          :  Hamiltonian                  GFN2-xTB          :
          :  restarted?                      false          :
          :  GBSA solvation                  false          :
          :  PC potential                    false          :
          :  electronic temp.          300.0000000     K    :
          :  accuracy                    1.0000000          :
          :  -> integral cutoff          0.2500000E+02      :
          :  -> integral neglect         0.1000000E-07      :
          :  -> SCF convergence          0.1000000E-05 Eh   :
          :  -> wf. convergence          0.1000000E-03 e    :
          :  Broyden damping             0.4000000          :
          :  net charge                          0          :
          :  unpaired electrons                  0          :
          ...................................................

 iter      E             dE          RMSdq      gap      omega  full diag
   1    -56.6922118 -0.566922E+02  0.461E+00    2.02       0.0  T
   2    -56.8685400 -0.176328E+00  0.278E+00    2.31       1.0  T
   3    -56.8565686  0.119714E-01  0.199E+00    2.60       1.0  T
   4    -56.8725821 -0.160134E-01  0.124E+00    2.31       1.0  T
   5    -56.9121010 -0.395190E-01  0.426E-01    2.40       1.0  T
   6    -56.9182064 -0.610531E-02  0.175E-01    2.40       1.0  T
   7    -56.9190149 -0.808577E-03  0.594E-02    2.38       1.0  T
   8    -56.9190215 -0.658387E-05  0.341E-02    2.38       1.0  T
   9    -56.9190382 -0.166500E-04  0.120E-02    2.38       1.4  T
  10    -56.9190410 -0.284253E-05  0.468E-03    2.38       3.7  T
  11    -56.9190412 -0.217536E-06  0.208E-03    2.38       8.2  T
  12    -56.9190413 -0.423671E-07  0.698E-04    2.38      24.6  T
  13    -56.9190413 -0.366579E-08  0.261E-04    2.38      65.8  T

   *** convergence criteria satisfied after 13 iterations ***

         #    Occupation            Energy/Eh            Energy/eV
      -------------------------------------------------------------
         1        2.0000           -0.7476147             -20.3436
       ...           ...                  ...                  ...
        44        2.0000           -0.4085376             -11.1169
        45        2.0000           -0.4026463             -10.9566
        46        2.0000           -0.3989884             -10.8570
        47        2.0000           -0.3892147             -10.5911
        48        2.0000           -0.3877071             -10.5500
        49        2.0000           -0.3738020             -10.1717
        50        2.0000           -0.3457220              -9.4076 (HOMO)
        51                         -0.2583189              -7.0292 (LUMO)
        52                         -0.2418092              -6.5800
        53                         -0.2200132              -5.9869
        54                         -0.2062512              -5.6124
        55                         -0.1732442              -4.7142
       ...                                ...                  ...
        91                          2.5081524              68.2503
      -------------------------------------------------------------
                  HL-Gap            0.0874030 Eh            2.3784 eV
             Fermi-level           -0.3020205 Eh           -8.2184 eV

 SCC (total)                   0 d,  0 h,  0 min,  0.087 sec
 SCC setup                      ...        0 min,  0.001 sec (  1.118%)
 Dispersion                     ...        0 min,  0.008 sec (  9.787%)
 classical contributions        ...        0 min,  0.003 sec (  3.979%)
 integral evaluation            ...        0 min,  0.017 sec ( 19.801%)
 iterations                     ...        0 min,  0.050 sec ( 57.539%)
 molecular gradient             ...        0 min,  0.006 sec (  7.101%)
 printout                       ...        0 min,  0.001 sec (  0.658%)

         :::::::::::::::::::::::::::::::::::::::::::::::::::::
         ::                     SUMMARY                     ::
         :::::::::::::::::::::::::::::::::::::::::::::::::::::
         :: total energy             -55.675210000098 Eh    ::
         :: gradient norm              1.663849597586 Eh/a0 ::
         :: HOMO-LUMO gap              2.378357227364 eV    ::
         ::.................................................::
         :: SCC energy               -56.918145138903 Eh    ::
         :: -> isotropic ES            0.101057996026 Eh    ::
         :: -> anisotropic ES          0.004468008963 Eh    ::
         :: -> anisotropic XC          0.015799247201 Eh    ::
         :: -> dispersion             -0.039788462024 Eh    ::
         :: repulsion energy           1.242935138804 Eh    ::
         :: add. restraining           0.000000000000 Eh    ::
         :: total charge               0.000000000000 e     ::
         :::::::::::::::::::::::::::::::::::::::::::::::::::::

      ----------------------------------------------------------- 
     |                   =====================                   |
     |                        A N C O P T                        |
     |                   =====================                   |
     |               Approximate Normal Coordinate               |
     |                Rational Function Optimizer                |
      ----------------------------------------------------------- 
      ----------------------------------------------------------- 
     |                   =====================                   |
     |                        A N C O P T                        |
     |                   =====================                   |
     |               Approximate Normal Coordinate               |
     |                Rational Function Optimizer                |
      ----------------------------------------------------------- 

          ...................................................
          :                      SETUP                      :
          :.................................................:
          :   optimization level            normal          :
          :   max. optcycles                   200          :
          :   ANC micro-cycles                  20          :
          :   degrees of freedom                96          :
          :.................................................:
          :   RF solver                   davidson          :
          :   write xtbopt.log                true          :
          :   linear?                        false          :
          :   energy convergence         0.5000000E-05 Eh   :
          :   grad. convergence          0.1000000E-02 Eh/α :
          :   maxmium RF displ.          1.0000000          :
          :   Hlow (freq-cutoff)         0.1000000E-01      :
          :   Hmax (freq-cutoff)         5.0000000          :
          :   S6 in model hess.         20.0000000          :
          ...................................................

generating ANC from exact Hessian ...
Using Lindh-Hessian (1995)
 Shifting diagonal of input Hessian by    9.7033354177342036E-003
 Lowest  eigenvalues of input Hessian
    0.000000    0.000000    0.000000    0.000000    0.000000    0.000000
    0.010000    0.010184    0.010612    0.011023    0.011520    0.013167
    0.014103    0.015545    0.016279    0.016912    0.017618    0.019054
 Highest eigenvalues
    2.613582    2.687463    2.714641    2.924128    3.113778    3.311439


........................................................................
.............................. CYCLE    1 ..............................
........................................................................

 iter      E             dE          RMSdq      gap      omega  full diag
   1    -56.9190413 -0.569190E+02  0.114E-04    2.38       0.0  T
   2    -56.9190413 -0.108514E-09  0.825E-05    2.38     207.8  T
   3    -56.9190413 -0.189623E-09  0.420E-05    2.38     407.9  T
     SCC iter.                  ...        0 min,  0.008 sec
     gradient                   ...        0 min,  0.002 sec
 * total energy  :   -55.6752100 Eh     change       -0.3913598E-09 Eh
   gradient norm :     1.6638493 Eh/α   predicted     0.0000000E+00 (-100.00%)
   displ. norm   :     0.5418768 α      lambda       -0.8318141E+00
   maximum displ.:     0.2955993 α      in ANC's #96, #95, #74, ...

........................................................................
.............................. CYCLE    2 ..............................
........................................................................

 iter      E             dE          RMSdq      gap      omega  full diag
   1    -56.9910194 -0.569910E+02  0.878E-01    3.14       0.0  T
   2    -56.9999026 -0.888315E-02  0.512E-01    3.03       1.0  T
   3    -57.0018155 -0.191294E-02  0.300E-01    3.04       1.0  T
   4    -57.0019243 -0.108818E-03  0.126E-01    3.04       1.0  T
   5    -57.0022469 -0.322588E-03  0.516E-02    3.03       1.0  T
   6    -57.0023134 -0.664759E-04  0.154E-02    3.04       1.1  T
   7    -57.0023156 -0.223721E-05  0.924E-03    3.04       1.9  T
   8    -57.0023177 -0.203025E-05  0.360E-03    3.04       4.8  T
   9    -57.0023178 -0.160762E-06  0.119E-03    3.04      14.4  T
  10    -57.0023178 -0.687993E-08  0.514E-04    3.04      33.4  T
  11    -57.0023178 -0.202475E-08  0.223E-04    3.04      77.0  T
     SCC iter.                  ...        0 min,  0.017 sec
     gradient                   ...        0 min,  0.002 sec
 * total energy  :   -56.1834190 Eh     change       -0.5082090E+00 Eh
   gradient norm :     0.5467661 Eh/α   predicted    -0.5380369E+00 (   5.87%)
   displ. norm   :     0.5758954 α      lambda       -0.2603916E+00
   maximum displ.:     0.1650724 α      in ANC's #53, #78, #62, ...

........................................................................
.............................. CYCLE    3 ..............................
........................................................................

 iter      E             dE          RMSdq      gap      omega  full diag
   1    -57.1254814 -0.571255E+02  0.713E-01    3.43       0.0  T
   2    -57.1275940 -0.211252E-02  0.411E-01    3.42       1.0  T
   3    -57.1275069  0.871193E-04  0.225E-01    3.40       1.0  T
   4    -57.1279311 -0.424293E-03  0.745E-02    3.41       1.0  T
   5    -57.1280603 -0.129128E-03  0.232E-02    3.40       1.0  T
   6    -57.1280696 -0.928411E-05  0.106E-02    3.41       1.6  T
   7    -57.1280709 -0.138791E-05  0.415E-03    3.41       4.1  T
   8    -57.1280712 -0.225654E-06  0.176E-03    3.41       9.7  T
   9    -57.1280712 -0.442785E-07  0.608E-04    3.41      28.2  T
  10    -57.1280712 -0.348750E-08  0.278E-04    3.41      61.7  T
     SCC iter.                  ...        0 min,  0.010 sec
     gradient                   ...        0 min,  0.003 sec
 * total energy  :   -56.3877766 Eh     change       -0.2043576E+00 Eh
   gradient norm :     0.2784894 Eh/α   predicted    -0.1733793E+00 ( -15.16%)
   displ. norm   :     0.6201831 α      lambda       -0.1469333E+00
   maximum displ.:     0.1608522 α      in ANC's #57, #54, #53, ...

........................................................................
.............................. CYCLE    4 ..............................
........................................................................

 iter      E             dE          RMSdq      gap      omega  full diag
   1    -57.2185784 -0.572186E+02  0.658E-01    3.53       0.0  T
   2    -57.2200112 -0.143282E-02  0.378E-01    3.54       1.0  T
   3    -57.2199362  0.750627E-04  0.201E-01    3.52       1.0  T
   4    -57.2203439 -0.407767E-03  0.457E-02    3.54       1.0  T
   5    -57.2203896 -0.456330E-04  0.139E-02    3.53       1.2  T
   6    -57.2203908 -0.121976E-05  0.855E-03    3.53       2.0  T
   7    -57.2203918 -0.103757E-05  0.296E-03    3.53       5.8  T
   8    -57.2203919 -0.668817E-07  0.112E-03    3.53      15.3  T
   9    -57.2203919 -0.186095E-07  0.439E-04    3.53      39.1  T
  10    -57.2203919 -0.135511E-08  0.202E-04    3.53      84.8  T
     SCC iter.                  ...        0 min,  0.010 sec
     gradient                   ...        0 min,  0.004 sec
 * total energy  :   -56.4553833 Eh     change       -0.6760669E-01 Eh
   gradient norm :     0.1586372 Eh/α   predicted    -0.1017244E+00 (  50.46%)
   displ. norm   :     0.4335171 α      lambda       -0.4479306E-01
   maximum displ.:     0.1720915 α      in ANC's #20, #43, #50, ...

........................................................................
.............................. CYCLE    5 ..............................
........................................................................

 iter      E             dE          RMSdq      gap      omega  full diag
   1    -57.2023578 -0.572024E+02  0.344E-01    3.58       0.0  T
   2    -57.2024033 -0.454952E-04  0.203E-01    3.58       1.0  T
   3    -57.2024008  0.252078E-05  0.243E-02    3.58       1.0  T
   4    -57.2024142 -0.134608E-04  0.884E-03    3.58       1.9  T
   5    -57.2024148 -0.587676E-06  0.409E-03    3.58       4.2  T
   6    -57.2024149 -0.645277E-07  0.130E-03    3.58      13.2  T
   7    -57.2024149 -0.193685E-07  0.481E-04    3.58      35.7  T
   8    -57.2024149 -0.320289E-08  0.224E-04    3.58      76.5  T
     SCC iter.                  ...        0 min,  0.017 sec
     gradient                   ...        0 min,  0.002 sec
 * total energy  :   -56.4652415 Eh     change       -0.9858221E-02 Eh
   gradient norm :     0.0967286 Eh/α   predicted    -0.2660570E-01 ( 169.88%)
   displ. norm   :     0.3075547 α      lambda       -0.1412210E-01
   maximum displ.:     0.1208731 α      in ANC's #23, #13, #12, ...

........................................................................
.............................. CYCLE    6 ..............................
........................................................................

 iter      E             dE          RMSdq      gap      omega  full diag
   1    -57.2073060 -0.572073E+02  0.180E-01    3.65       0.0  T
   2    -57.2073963 -0.902140E-04  0.107E-01    3.63       1.0  T
   3    -57.2073816  0.146881E-04  0.513E-02    3.64       1.0  T
   4    -57.2074136 -0.320407E-04  0.119E-02    3.63       1.4  T
   5    -57.2074172 -0.362958E-05  0.415E-03    3.63       4.1  T
   6    -57.2074174 -0.168521E-06  0.225E-03    3.63       7.6  T
   7    -57.2074175 -0.677851E-07  0.738E-04    3.63      23.2  T
   8    -57.2074175 -0.382309E-08  0.311E-04    3.63      55.1  T
     SCC iter.                  ...        0 min,  0.013 sec
     gradient                   ...        0 min,  0.002 sec
 * total energy  :   -56.4731047 Eh     change       -0.7863146E-02 Eh
   gradient norm :     0.0612659 Eh/α   predicted    -0.7729007E-02 (  -1.71%)
   displ. norm   :     0.3503868 α      lambda       -0.9562992E-02
   maximum displ.:     0.1502885 α      in ANC's #23, #10, #8, ...

........................................................................
.............................. CYCLE    7 ..............................
........................................................................

 iter      E             dE          RMSdq      gap      omega  full diag
   1    -57.2315723 -0.572316E+02  0.221E-01    3.64       0.0  T
   2    -57.2316187 -0.464479E-04  0.129E-01    3.63       1.0  T
   3    -57.2316109  0.784775E-05  0.264E-02    3.64       1.0  T
   4    -57.2316242 -0.133322E-04  0.726E-03    3.63       2.4  T
   5    -57.2316254 -0.117397E-05  0.337E-03    3.63       5.1  T
   6    -57.2316255 -0.591199E-07  0.115E-03    3.63      14.9  T
   7    -57.2316255 -0.174691E-07  0.464E-04    3.63      37.0  T
   8    -57.2316255 -0.241505E-08  0.222E-04    3.63      77.1  T
     SCC iter.                  ...        0 min,  0.015 sec
     gradient                   ...        0 min,  0.002 sec
 * total energy  :   -56.4769634 Eh     change       -0.3858702E-02 Eh
   gradient norm :     0.0427177 Eh/α   predicted    -0.5368529E-02 (  39.13%)
   displ. norm   :     0.2196726 α      lambda       -0.3103876E-02
   maximum displ.:     0.1010772 α      in ANC's #7, #10, #13, ...

........................................................................
.............................. CYCLE    8 ..............................
........................................................................

 iter      E             dE          RMSdq      gap      omega  full diag
   1    -57.2321134 -0.572321E+02  0.142E-01    3.60       0.0  T
   2    -57.2321212 -0.777217E-05  0.837E-02    3.60       1.0  T
   3    -57.2321110  0.101580E-04  0.217E-02    3.60       1.0  T
   4    -57.2321242 -0.131614E-04  0.343E-03    3.60       5.0  T
   5    -57.2321243 -0.133386E-06  0.177E-03    3.60       9.7  T
   6    -57.2321243 -0.139266E-07  0.698E-04    3.60      24.6  T
   7    -57.2321243 -0.602693E-08  0.245E-04    3.60      69.9  T
     SCC iter.                  ...        0 min,  0.015 sec
     gradient                   ...        0 min,  0.002 sec
 * total energy  :   -56.4784804 Eh     change       -0.1517070E-02 Eh
   gradient norm :     0.0257700 Eh/α   predicted    -0.1626846E-02 (   7.24%)
   displ. norm   :     0.1823648 α      lambda       -0.1830841E-02
   maximum displ.:     0.0789229 α      in ANC's #8, #7, #10, ...

........................................................................
.............................. CYCLE    9 ..............................
........................................................................

 iter      E             dE          RMSdq      gap      omega  full diag
   1    -57.2314242 -0.572314E+02  0.107E-01    3.60       0.0  T
   2    -57.2314290 -0.477304E-05  0.625E-02    3.60       1.0  T
   3    -57.2314233  0.562635E-05  0.149E-02    3.60       1.1  T
   4    -57.2314305 -0.716924E-05  0.312E-03    3.60       5.5  T
   5    -57.2314307 -0.191299E-06  0.153E-03    3.60      11.2  T
   6    -57.2314307 -0.925376E-08  0.673E-04    3.60      25.5  T
   7    -57.2314307 -0.832382E-08  0.195E-04    3.60      88.1  T
     SCC iter.                  ...        0 min,  0.013 sec
     gradient                   ...        0 min,  0.002 sec
 * total energy  :   -56.4790831 Eh     change       -0.6026597E-03 Eh
   gradient norm :     0.0213594 Eh/α   predicted    -0.9458714E-03 (  56.95%)
   displ. norm   :     0.1214948 α      lambda       -0.8168529E-03
   maximum displ.:     0.0570849 α      in ANC's #12, #9, #8, ...

........................................................................
.............................. CYCLE   10 ..............................
........................................................................

 iter      E             dE          RMSdq      gap      omega  full diag
   1    -57.2363270 -0.572363E+02  0.827E-02    3.61       0.0  T
   2    -57.2363308 -0.381992E-05  0.486E-02    3.61       1.0  T
   3    -57.2363285  0.226005E-05  0.100E-02    3.61       1.7  T
   4    -57.2363314 -0.289015E-05  0.289E-03    3.61       5.9  T
   5    -57.2363316 -0.216316E-06  0.102E-03    3.61      16.8  T
   6    -57.2363316 -0.129992E-08  0.560E-04    3.61      30.6  T
   7    -57.2363316 -0.505084E-08  0.138E-04    3.61     124.5  T
     SCC iter.                  ...        0 min,  0.011 sec
     gradient                   ...        0 min,  0.002 sec
 * total energy  :   -56.4794576 Eh     change       -0.3744823E-03 Eh
   gradient norm :     0.0119064 Eh/α   predicted    -0.4144571E-03 (  10.67%)
   displ. norm   :     0.1541259 α      lambda       -0.6937607E-03
   maximum displ.:     0.0899848 α      in ANC's #13, #9, #8, ...

........................................................................
.............................. CYCLE   11 ..............................
........................................................................

 iter      E             dE          RMSdq      gap      omega  full diag
   1    -57.2376209 -0.572376E+02  0.103E-01    3.61       0.0  T
   2    -57.2376257 -0.482934E-05  0.605E-02    3.61       1.0  T
   3    -57.2376235  0.222709E-05  0.105E-02    3.61       1.6  T
   4    -57.2376265 -0.303229E-05  0.340E-03    3.61       5.0  T
   5    -57.2376268 -0.270557E-06  0.129E-03    3.61      13.3  T
   6    -57.2376268 -0.848201E-08  0.404E-04    3.61      42.4  T
   7    -57.2376268 -0.192765E-08  0.142E-04    3.61     120.7  T
     SCC iter.                  ...        0 min,  0.011 sec
     gradient                   ...        0 min,  0.002 sec
 * total energy  :   -56.4793993 Eh     change        0.5827376E-04 Eh
   gradient norm :     0.0152030 Eh/α   predicted    -0.3551231E-03 (-709.40%)
   displ. norm   :     0.0756820 α      lambda       -0.5875873E-03
   maximum displ.:     0.0505966 α      in ANC's #13, #10, #8, ...

........................................................................
.............................. CYCLE   12 ..............................
........................................................................

 iter      E             dE          RMSdq      gap      omega  full diag
   1    -57.2373351 -0.572373E+02  0.604E-02    3.60       0.0  T
   2    -57.2373371 -0.200892E-05  0.352E-02    3.60       1.0  T
   3    -57.2373367  0.380373E-06  0.576E-03    3.60       3.0  T
   4    -57.2373374 -0.717217E-06  0.153E-03    3.60      11.2  T
   5    -57.2373374 -0.365976E-07  0.805E-04    3.60      21.3  T
   6    -57.2373374 -0.511400E-08  0.276E-04    3.60      62.1  T
     SCC iter.                  ...        0 min,  0.006 sec
     gradient                   ...        0 min,  0.002 sec
 * total energy  :   -56.4797173 Eh     change       -0.3180323E-03 Eh
   gradient norm :     0.0065685 Eh/α   predicted    -0.2954823E-03 (  -7.09%)
   displ. norm   :     0.0447800 α      lambda       -0.8819302E-04
   maximum displ.:     0.0171466 α      in ANC's #11, #6, #19, ...

........................................................................
.............................. CYCLE   13 ..............................
........................................................................

 iter      E             dE          RMSdq      gap      omega  full diag
   1    -57.2377165 -0.572377E+02  0.213E-02    3.61       0.0  T
   2    -57.2377169 -0.468373E-06  0.129E-02    3.61       1.3  T
   3    -57.2377165  0.461618E-06  0.434E-03    3.61       3.9  T
   4    -57.2377171 -0.590061E-06  0.109E-03    3.61      15.8  T
   5    -57.2377171 -0.279738E-07  0.419E-04    3.61      41.0  T
   6    -57.2377171 -0.497323E-09  0.212E-04    3.61      81.0  T
     SCC iter.                  ...        0 min,  0.008 sec
     gradient                   ...        0 min,  0.002 sec
 * total energy  :   -56.4797660 Eh     change       -0.4871372E-04 Eh
   gradient norm :     0.0045029 Eh/α   predicted    -0.4418545E-04 (  -9.30%)
   displ. norm   :     0.0652048 α      lambda       -0.6750070E-04
   maximum displ.:     0.0251264 α      in ANC's #4, #1, #6, ...

........................................................................
.............................. CYCLE   14 ..............................
........................................................................

 iter      E             dE          RMSdq      gap      omega  full diag
   1    -57.2379433 -0.572379E+02  0.264E-02    3.61       0.0  T
   2    -57.2379439 -0.569113E-06  0.153E-02    3.61       1.1  T
   3    -57.2379438  0.537302E-07  0.303E-03    3.61       5.7  T
   4    -57.2379440 -0.123564E-06  0.976E-04    3.61      17.6  T
   5    -57.2379440 -0.182032E-07  0.494E-04    3.61      34.7  T
     SCC iter.                  ...        0 min,  0.009 sec
     gradient                   ...        0 min,  0.002 sec
 * total energy  :   -56.4798102 Eh     change       -0.4414963E-04 Eh
   gradient norm :     0.0031039 Eh/α   predicted    -0.3389725E-04 ( -23.22%)
   displ. norm   :     0.0594293 α      lambda       -0.4094409E-04
   maximum displ.:     0.0210531 α      in ANC's #1, #4, #6, ...

........................................................................
.............................. CYCLE   15 ..............................
........................................................................

 iter      E             dE          RMSdq      gap      omega  full diag
   1    -57.2382988 -0.572383E+02  0.239E-02    3.60       0.0  T
   2    -57.2382993 -0.475123E-06  0.138E-02    3.60       1.2  T
   3    -57.2382991  0.120793E-06  0.343E-03    3.60       5.0  T
   4    -57.2382994 -0.206515E-06  0.913E-04    3.60      18.8  T
   5    -57.2382994 -0.121397E-07  0.457E-04    3.60      37.6  T
     SCC iter.                  ...        0 min,  0.005 sec
     gradient                   ...        0 min,  0.005 sec
 * total energy  :   -56.4798274 Eh     change       -0.1720775E-04 Eh
   gradient norm :     0.0026756 Eh/α   predicted    -0.2054692E-04 (  19.41%)
   displ. norm   :     0.0217875 α      lambda       -0.1551628E-04
   maximum displ.:     0.0105966 α      in ANC's #11, #13, #5, ...

........................................................................
.............................. CYCLE   16 ..............................
........................................................................

 iter      E             dE          RMSdq      gap      omega  full diag
   1    -57.2383710 -0.572384E+02  0.111E-02    3.60       0.0  T
   2    -57.2383710 -0.530052E-07  0.649E-03    3.60       2.6  T
   3    -57.2383710  0.105455E-07  0.954E-04    3.60      18.0  T
   4    -57.2383711 -0.228159E-07  0.327E-04    3.60      52.5  T
     SCC iter.                  ...        0 min,  0.005 sec
     gradient                   ...        0 min,  0.002 sec
 * total energy  :   -56.4798364 Eh     change       -0.8972800E-05 Eh
   gradient norm :     0.0018216 Eh/α   predicted    -0.7763138E-05 ( -13.48%)
   displ. norm   :     0.0254527 α      lambda       -0.7041556E-05
   maximum displ.:     0.0133968 α      in ANC's #11, #21, #5, ...

........................................................................
.............................. CYCLE   17 ..............................
........................................................................

 iter      E             dE          RMSdq      gap      omega  full diag
   1    -57.2383576 -0.572384E+02  0.101E-02    3.60       0.0  T
   2    -57.2383577 -0.695802E-07  0.590E-03    3.60       2.9  T
   3    -57.2383576  0.262925E-07  0.144E-03    3.60      11.9  T
   4    -57.2383577 -0.405851E-07  0.371E-04    3.60      46.2  T
   5    -57.2383577 -0.201118E-08  0.177E-04    3.60      96.9  T
     SCC iter.                  ...        0 min,  0.011 sec
     gradient                   ...        0 min,  0.002 sec
 * total energy  :   -56.4798434 Eh     change       -0.6998988E-05 Eh
   gradient norm :     0.0013691 Eh/α   predicted    -0.3524511E-05 ( -49.64%)
   displ. norm   :     0.0381789 α      lambda       -0.6653518E-05
   maximum displ.:     0.0188442 α      in ANC's #11, #5, #17, ...

........................................................................
.............................. CYCLE   18 ..............................
........................................................................

 iter      E             dE          RMSdq      gap      omega  full diag
   1    -57.2382191 -0.572382E+02  0.146E-02    3.61       0.0  T
   2    -57.2382192 -0.941311E-07  0.850E-03    3.61       2.0  T
   3    -57.2382192 -0.946656E-09  0.112E-03    3.61      15.4  T
   4    -57.2382192 -0.255464E-07  0.413E-04    3.61      41.5  T
   5    -57.2382192 -0.517787E-09  0.235E-04    3.61      72.9  T
     SCC iter.                  ...        0 min,  0.005 sec
     gradient                   ...        0 min,  0.004 sec
 * total energy  :   -56.4798487 Eh     change       -0.5361197E-05 Eh
   gradient norm :     0.0012498 Eh/α   predicted    -0.3331480E-05 ( -37.86%)
   displ. norm   :     0.0333547 α      lambda       -0.4601215E-05
   maximum displ.:     0.0137125 α      in ANC's #11, #3, #5, ...

........................................................................
.............................. CYCLE   19 ..............................
........................................................................

 iter      E             dE          RMSdq      gap      omega  full diag
   1    -57.2381862 -0.572382E+02  0.138E-02    3.61       0.0  T
   2    -57.2381862 -0.784399E-07  0.809E-03    3.61       2.1  T
   3    -57.2381862  0.140030E-07  0.117E-03    3.61      14.7  T
   4    -57.2381863 -0.306771E-07  0.426E-04    3.61      40.2  T
   5    -57.2381863 -0.256617E-08  0.223E-04    3.61      76.8  T
     SCC iter.                  ...        0 min,  0.006 sec
     gradient                   ...        0 min,  0.002 sec
 * total energy  :   -56.4798520 Eh     change       -0.3310240E-05 Eh
   gradient norm :     0.0014820 Eh/α   predicted    -0.2306547E-05 ( -30.32%)
   displ. norm   :     0.0215939 α      lambda       -0.3289830E-05
   maximum displ.:     0.0109022 α      in ANC's #3, #11, #5, ...

........................................................................
.............................. CYCLE   20 ..............................
........................................................................

 iter      E             dE          RMSdq      gap      omega  full diag
   1    -57.2382703 -0.572383E+02  0.891E-03    3.61       0.0  T
   2    -57.2382704 -0.404534E-07  0.523E-03    3.61       3.3  T
   3    -57.2382703  0.195391E-07  0.993E-04    3.61      17.3  T
   4    -57.2382704 -0.283240E-07  0.332E-04    3.61      51.6  T
     SCC iter.                  ...        0 min,  0.009 sec
     gradient                   ...        0 min,  0.002 sec
 * total energy  :   -56.4798548 Eh     change       -0.2736381E-05 Eh
   gradient norm :     0.0010626 Eh/α   predicted    -0.1648420E-05 ( -39.76%)
   displ. norm   :     0.0227940 α      lambda       -0.2859318E-05
   maximum displ.:     0.0139020 α      in ANC's #3, #5, #2, ...
 * RMSD in coord.:     0.3483383 α      energy gain  -0.8046448E+00 Eh

generating ANC from exact Hessian ...
Using Lindh-Hessian (1995)
 Shifting diagonal of input Hessian by    9.5035418867763840E-003
 Lowest  eigenvalues of input Hessian
    0.000000    0.000000    0.000000    0.000000    0.000000    0.000000
    0.010000    0.010175    0.010889    0.011600    0.012350    0.014480
    0.016493    0.018479    0.019345    0.020235    0.024019    0.025055
 Highest eigenvalues
    2.003301    2.013888    2.102238    2.209904    2.319325    2.365836


........................................................................
.............................. CYCLE   21 ..............................
........................................................................

 iter      E             dE          RMSdq      gap      omega  full diag
   1    -57.2384079 -0.572384E+02  0.919E-03    3.61       0.0  T
   2    -57.2384080 -0.688639E-07  0.536E-03    3.61       3.2  T
   3    -57.2384079  0.144326E-07  0.116E-03    3.61      14.8  T
   4    -57.2384080 -0.250734E-07  0.354E-04    3.61      48.5  T
   5    -57.2384080 -0.262618E-08  0.172E-04    3.61     100.0  T
     SCC iter.                  ...        0 min,  0.011 sec
     gradient                   ...        0 min,  0.002 sec
 * total energy  :   -56.4798567 Eh     change       -0.1936409E-05 Eh
   gradient norm :     0.0007620 Eh/α   predicted     0.0000000E+00 (-100.00%)
   displ. norm   :     0.0099379 α      lambda       -0.1512388E-05
   maximum displ.:     0.0062016 α      in ANC's #3, #4, #1, ...

   *** GEOMETRY OPTIMIZATION CONVERGED AFTER 21 ITERATIONS ***

------------------------------------------------------------------------
 total energy gain   :        -0.8046467 Eh     -504.9234 kcal/mol
 total RMSD          :         0.3483383 a0        0.1843 Å
 total power (kW/mol):      -100.5999845 (step)-6482.9712 (real)
------------------------------------------------------------------------

 ANCopt (total)                0 d,  0 h,  0 min,  0.326 sec
 optimizer setup                ...        0 min,  0.000 sec (  0.080%)
 model hessian                  ...        0 min,  0.017 sec (  5.173%)
 ANC generation                 ...        0 min,  0.003 sec (  0.863%)
 coordinate transformation      ...        0 min,  0.000 sec (  0.038%)
 single point calculation       ...        0 min,  0.290 sec ( 89.004%)
 optimization log               ...        0 min,  0.002 sec (  0.503%)
 hessian update                 ...        0 min,  0.007 sec (  2.111%)
 rational function              ...        0 min,  0.003 sec (  0.804%)

================
 final structure:
================
34
 xtb: 6.7.1-6.fc44.fc44
O           -2.11678787649066        2.70307633275033       -0.69506824874409
C           -1.85935452885706        2.26221916554312       -1.90999778004055
O           -2.29387754817823        2.77573041432033       -2.90266015460655
H           -1.71310212051679        2.12096943179166        0.01042623162356
C           -0.91829360863829        1.03947340032222       -1.97292154049994
H            0.03807024649381        1.33527856969930       -1.52103919617889
H           -0.75851686604393        0.77949653367478       -3.01862922139243
N           -1.42733650692709       -0.12092917057374       -1.26944780774131
H           -1.71781345929779       -0.93684498820552       -1.78994786447988
C           -1.49396755524327       -0.21292690728133        0.06200687560835
O           -1.27360613976537        0.72766118709814        0.81723842111225
C           -1.85571008986022       -1.60308451840863        0.56628741197217
H           -2.26540650310490       -1.48125674464254        1.58217903511837
N           -2.77176977531106       -2.23230242503334       -0.37645774716499
H           -3.67282983599219       -1.76515170782210       -0.36262644610224
H           -2.92510926119069       -3.20148043007941       -0.11957896665671
C           -0.55966867177206       -2.44145845038184        0.65161003114063
H           -0.28325576675423       -2.74156248187535       -0.36074478204772
H           -0.76251234422169       -3.34139184213095        1.23657933804593
C            0.54792346793112       -1.65313546575353        1.26729249032018
C            0.75657786124282       -1.41401254718607        2.59402327471797
H            0.21970885655407       -1.79186310576167        3.44328001165271
N            1.81981310150211       -0.57145609141619        2.76004822202964
H            2.15247702606538       -0.22243230325668        3.64222332009854
C            2.31135579147365       -0.22936637481977        1.53514648256367
C            3.36351769141075        0.60712479737334        1.18427133364322
H            3.94591115915382        1.11513791564044        1.93874699323258
C            3.63245924663932        0.76723637980940       -0.15751248987700
H            4.43965627762258        1.41387042452919       -0.46630887976740
C            2.88033828486856        0.10513302132629       -1.13228720646108
H            3.12736200691124        0.25500873010605       -2.17321228026142
C            1.83988855656687       -0.72901501748393       -0.79079554957576
H            1.27247768449933       -1.24218236646927       -1.55384667411983
C            1.53571254328352       -0.90137267608539        0.55962404395555

 Bond Distances (Angstroems)
 ---------------------------
O1-C2=1.3178         O1-H4=0.9998         C2-O1=1.3178         C2-O3=1.1991         C2-C5=1.5442         O3-C2=1.1991         
H4-O1=0.9998         C5-C2=1.5442         C5-H6=1.0983         C5-H7=1.0893         C5-N8=1.4493         H6-C5=1.0983         
H7-C5=1.0893         N8-C5=1.4493         N8-H9=1.0105         N8-C10=1.3363        H9-N8=1.0105         C10-N8=1.3363        
C10-O11=1.2262       C10-C12=1.5224       O11-C10=1.2262       C12-C10=1.5224       C12-H13=1.1021       C12-N14=1.4573       
C12-C17=1.5459       H13-C12=1.1021       N14-C12=1.4573       N14-H15=1.0151       N14-H16=1.0143       H15-N14=1.0151       
H16-N14=1.0143       C17-C12=1.5459       C17-H18=1.0915       C17-H19=1.0923       C17-C20=1.4924       H18-C17=1.0915       
H19-C17=1.0923       C20-C17=1.4924       C20-C21=1.3642       C20-C34=1.4289       C21-C20=1.3642       C21-H22=1.0734       
C21-N23=1.3667       H22-C21=1.0734       N23-C21=1.3667       N23-H24=1.0053       N23-C25=1.3635       H24-N23=1.0053       
C25-N23=1.3635       C25-C26=1.3892       C25-C34=1.4159       C26-C25=1.3892       C26-H27=1.0800       C26-C28=1.3778       
H27-C26=1.0800       C28-C26=1.3778       C28-H29=1.0794       C28-C30=1.3979       H29-C28=1.0794       C30-C28=1.3979       
C30-H31=1.0803       C30-C32=1.3766       H31-C30=1.0803       C32-C30=1.3766       C32-H33=1.0805       C32-C34=1.3949       
H33-C32=1.0805       C34-C20=1.4289       C34-C25=1.4159       C34-C32=1.3949       
 C  H  Rav=1.0867 sigma=0.0089  Rmin=1.0734  Rmax=1.1021    10
 C  C  Rav=1.4375 sigma=0.0660  Rmin=1.3642  Rmax=1.5459    12
 N  H  Rav=1.0113 sigma=0.0038  Rmin=1.0053  Rmax=1.0151     4
 N  C  Rav=1.3946 sigma=0.0491  Rmin=1.3363  Rmax=1.4573     5
 O  H  Rav=0.9998 sigma=0.0000  Rmin=0.9998  Rmax=0.9998     1
 O  C  Rav=1.2477 sigma=0.0508  Rmin=1.1991  Rmax=1.3178     3

 selected bond angles (degree)
 --------------------
H4-O1-C2=112.14                O3-C2-O1=123.31                C5-C2-O1=114.93                C5-C2-O3=121.75                
H6-C5-C2=107.49                H7-C5-C2=108.51                H7-C5-H6=109.36                N8-C5-C2=113.59                
N8-C5-H6=108.77                N8-C5-H7=109.05                H9-N8-C5=119.83                C10-N8-C5=123.80               
C10-N8-H9=116.32               O11-C10-N8=123.50              C12-C10-N8=113.88              C12-C10-O11=122.62             

 selected dihedral angles (degree)
 ---------------------------------
O3-C2-O1-H4=176.75            C5-C2-O1-H4=355.36            H6-C5-C2-O1=299.51            H6-C5-C2-O3=118.15            
H7-C5-C2-O1=181.34            H7-C5-C2-O3=  0.00            N8-C5-C2-O1= 59.89            N8-C5-C2-O3=238.53            
H9-N8-C5-C2=111.09            H9-N8-C5-H6=230.75            H9-N8-C5-H7=349.95            C10-N8-C5-C2=288.29           
C10-N8-C5-H6= 47.95           C10-N8-C5-H7=167.15           O11-C10-N8-C5=  8.53          O11-C10-N8-H9=185.82          
C12-C10-N8-C5=189.17          C12-C10-N8-H9=  6.46          

 CMA Distance (Angstroems)
 ---------------------------
R(CMA):  2.3595
           -------------------------------------------------
          |                Final Singlepoint                |
           -------------------------------------------------

          ...................................................
          :                      SETUP                      :
          :.................................................:
          :  # basis functions                  91          :
          :  # atomic orbitals                  91          :
          :  # shells                           53          :
          :  # electrons                       100          :
          :  max. iterations                   250          :
          :  Hamiltonian                  GFN2-xTB          :
          :  restarted?                      false          :
          :  GBSA solvation                  false          :
          :  PC potential                    false          :
          :  electronic temp.          300.0000000     K    :
          :  accuracy                    1.0000000          :
          :  -> integral cutoff          0.2500000E+02      :
          :  -> integral neglect         0.1000000E-07      :
          :  -> SCF convergence          0.1000000E-05 Eh   :
          :  -> wf. convergence          0.1000000E-03 e    :
          :  Broyden damping             0.4000000          :
          :  net charge                          0          :
          :  unpaired electrons                  0          :
          ...................................................

 iter      E             dE          RMSdq      gap      omega  full diag
   1    -57.2384080 -0.572384E+02  0.803E-05    3.61       0.0  T
   2    -57.2384080 -0.361737E-10  0.564E-05    3.61     304.1  T
   3    -57.2384080 -0.541860E-10  0.309E-05    3.61     555.5  T

   *** convergence criteria satisfied after 3 iterations ***

         #    Occupation            Energy/Eh            Energy/eV
      -------------------------------------------------------------
         1        2.0000           -0.7320147             -19.9191
       ...           ...                  ...                  ...
        44        2.0000           -0.4234021             -11.5214
        45        2.0000           -0.4209555             -11.4548
        46        2.0000           -0.4151226             -11.2961
        47        2.0000           -0.4002486             -10.8913
        48        2.0000           -0.3975335             -10.8174
        49        2.0000           -0.3858565             -10.4997
        50        2.0000           -0.3678613             -10.0100 (HOMO)
        51                         -0.2353627              -6.4045 (LUMO)
        52                         -0.2331662              -6.3448
        53                         -0.2277064              -6.1962
        54                         -0.2012575              -5.4765
        55                         -0.1636002              -4.4518
       ...                                ...                  ...
        91                          0.7153668              19.4661
      -------------------------------------------------------------
                  HL-Gap            0.1324986 Eh            3.6055 eV
             Fermi-level           -0.3016120 Eh           -8.2073 eV

 SCC (total)                   0 d,  0 h,  0 min,  0.010 sec
 SCC setup                      ...        0 min,  0.000 sec (  3.424%)
 Dispersion                     ...        0 min,  0.000 sec (  1.149%)
 classical contributions        ...        0 min,  0.000 sec (  0.144%)
 integral evaluation            ...        0 min,  0.003 sec ( 27.112%)
 iterations                     ...        0 min,  0.005 sec ( 49.827%)
 molecular gradient             ...        0 min,  0.001 sec ( 15.334%)
 printout                       ...        0 min,  0.000 sec (  2.938%)

         :::::::::::::::::::::::::::::::::::::::::::::::::::::
         ::                     SUMMARY                     ::
         :::::::::::::::::::::::::::::::::::::::::::::::::::::
         :: total energy             -56.479856720268 Eh    ::
         :: gradient norm              0.000761600509 Eh/a0 ::
         :: HOMO-LUMO gap              3.605471464442 eV    ::
         ::.................................................::
         :: SCC energy               -57.237616793380 Eh    ::
         :: -> isotropic ES            0.098644913051 Eh    ::
         :: -> anisotropic ES          0.003534151058 Eh    ::
         :: -> anisotropic XC          0.019348761173 Eh    ::
         :: -> dispersion             -0.037196701772 Eh    ::
         :: repulsion energy           0.757760073111 Eh    ::
         :: add. restraining           0.000000000000 Eh    ::
         :: total charge               0.000000000000 e     ::
         :::::::::::::::::::::::::::::::::::::::::::::::::::::

           -------------------------------------------------
          |                Property Printout                |
           -------------------------------------------------

    * Orbital Energies and Occupations

         #    Occupation            Energy/Eh            Energy/eV
      -------------------------------------------------------------
         1        2.0000           -0.7320147             -19.9191
       ...           ...                  ...                  ...
        38        2.0000           -0.4667715             -12.7015
        39        2.0000           -0.4608914             -12.5415
        40        2.0000           -0.4587786             -12.4840
        41        2.0000           -0.4542774             -12.3615
        42        2.0000           -0.4436702             -12.0729
        43        2.0000           -0.4319552             -11.7541
        44        2.0000           -0.4234021             -11.5214
        45        2.0000           -0.4209555             -11.4548
        46        2.0000           -0.4151226             -11.2961
        47        2.0000           -0.4002486             -10.8913
        48        2.0000           -0.3975335             -10.8174
        49        2.0000           -0.3858565             -10.4997
        50        2.0000           -0.3678613             -10.0100 (HOMO)
        51                         -0.2353627              -6.4045 (LUMO)
        52                         -0.2331662              -6.3448
        53                         -0.2277064              -6.1962
        54                         -0.2012575              -5.4765
        55                         -0.1636002              -4.4518
        56                         -0.0756350              -2.0581
        57                         -0.0182150              -0.4957
        58                          0.0153140               0.4167
        59                          0.0277290               0.7545
        60                          0.0627461               1.7074
        61                          0.0846294               2.3029
       ...                                ...                  ...
        91                          0.7153668              19.4661
      -------------------------------------------------------------
                  HL-Gap            0.1324986 Eh            3.6055 eV
             Fermi-level           -0.3016120 Eh           -8.2073 eV

     #   Z          covCN         q      C6AA      α(0)
     1   8 O        1.654    -0.377    20.419     6.100
     2   6 C        2.684     0.358    20.930     7.487
     3   8 O        0.856    -0.380    21.276     6.184
     4   1 H        0.800     0.365     0.556     1.172
     5   6 C        3.737    -0.040    21.379     6.598
     6   1 H        0.923     0.079     1.988     2.205
     7   1 H        0.925     0.078     2.002     2.213
     8   7 N        2.688    -0.158    24.429     7.341
     9   1 H        0.860     0.204     1.088     1.634
    10   6 C        2.757     0.269    22.457     7.760
    11   8 O        0.859    -0.458    22.865     6.411
    12   6 C        3.789     0.032    20.041     6.376
    13   1 H        0.923     0.032     2.559     2.502
    14   7 N        2.634    -0.353    29.106     8.013
    15   1 H        0.860     0.145     1.435     1.876
    16   1 H        0.860     0.151     1.391     1.848
    17   6 C        3.809    -0.062    21.686     6.629
    18   1 H        0.924     0.053     2.284     2.363
    19   1 H        0.924     0.041     2.434     2.440
    20   6 C        3.058    -0.033    28.769     8.796
    21   6 C        3.036    -0.001    28.029     8.684
    22   1 H        0.926     0.033     2.545     2.495
    23   7 N        2.780    -0.098    23.157     7.147
    24   1 H        0.860     0.161     1.326     1.804
    25   6 C        3.089     0.048    26.827     8.490
    26   6 C        2.909    -0.051    29.267     8.871
    27   1 H        0.926     0.026     2.645     2.543
    28   6 C        2.924    -0.037    28.911     8.818
    29   1 H        0.926     0.030     2.589     2.516
    30   6 C        2.920    -0.044    29.083     8.844
    31   1 H        0.926     0.026     2.641     2.541
    32   6 C        2.912    -0.041    29.006     8.831
    33   1 H        0.926     0.021     2.719     2.578
    34   6 C        3.119    -0.018    28.289     8.711

 Mol. C6AA /au·bohr⁶  :      13342.930954
 Mol. C8AA /au·bohr⁸  :     312496.557363
 Mol. α(0) /au        :        178.820276


Wiberg/Mayer (AO) data.
largest (>0.10) Wiberg bond orders for each atom

 ---------------------------------------------------------------------------
     #   Z sym  total        # sym  WBO       # sym  WBO       # sym  WBO
 ---------------------------------------------------------------------------
     1   8 O    2.231 --     2 C    1.201     4 H    0.766     3 O    0.183
     2   6 C    3.931 --     3 O    1.771     1 O    1.201     5 C    0.926
     3   8 O    2.063 --     2 C    1.771     1 O    0.183
     4   1 H    0.867 --     1 O    0.766
     5   6 C    3.963 --     8 N    0.990     7 H    0.974     6 H    0.949
                             2 C    0.926
     6   1 H    0.994 --     5 C    0.949
     7   1 H    0.994 --     5 C    0.974
     8   7 N    3.480 --    10 C    1.309     5 C    0.990     9 H    0.921
                            11 O    0.193
     9   1 H    0.959 --     8 N    0.921
    10   6 C    3.947 --    11 O    1.609     8 N    1.309    12 C    0.950
    11   8 O    2.016 --    10 C    1.609     8 N    0.193
    12   6 C    3.981 --    14 N    1.013    13 H    0.958    17 C    0.956
                            10 C    0.950
    13   1 H    0.999 --    12 C    0.958
    14   7 N    3.013 --    12 C    1.013    15 H    0.965    16 H    0.961
    15   1 H    0.978 --    14 N    0.965
    16   1 H    0.977 --    14 N    0.961
    17   6 C    3.992 --    20 C    1.015    18 H    0.971    19 H    0.970
                            12 C    0.956
    18   1 H    0.997 --    17 C    0.971
    19   1 H    0.997 --    17 C    0.970
    20   6 C    3.975 --    21 C    1.582    34 C    1.204    17 C    1.015
    21   6 C    3.953 --    20 C    1.582    23 N    1.201    22 H    0.970
    22   1 H    0.998 --    21 C    0.970
    23   7 N    3.549 --    21 C    1.201    25 C    1.179    24 H    0.946
    24   1 H    0.973 --    23 N    0.946
    25   6 C    3.959 --    26 C    1.338    34 C    1.246    23 N    1.179
    26   6 C    3.989 --    28 C    1.494    25 C    1.338    27 H    0.968
                            32 C    0.113
    27   1 H    0.999 --    26 C    0.968
    28   6 C    3.991 --    26 C    1.494    30 C    1.371    29 H    0.972
    29   1 H    0.999 --    28 C    0.972
    30   6 C    3.990 --    32 C    1.504    28 C    1.371    31 H    0.972
    31   1 H    0.999 --    30 C    0.972
    32   6 C    3.992 --    30 C    1.504    34 C    1.331    33 H    0.968
                            26 C    0.113
    33   1 H    0.999 --    32 C    0.968
    34   6 C    3.984 --    32 C    1.331    25 C    1.246    20 C    1.204
 ---------------------------------------------------------------------------

Topologies differ in total number of bonds
Writing topology from bond orders to xtbtopo.mol

molecular dipole:
                 x           y           z       tot (Debye)
 q only:        0.672      -2.022       0.817
   full:        0.622      -2.501       1.405       7.461
molecular quadrupole (traceless):
                xx          xy          yy          xz          yz          zz
 q only:        0.462      16.917      -5.606      -1.868       8.789       5.144
  q+dip:        2.109      25.819     -10.394      -4.374       9.819       8.285
   full:        3.444      24.180      -9.116      -4.032       9.600       5.672

           -------------------------------------------------
          |                Geometry Summary                 |
           -------------------------------------------------

      molecular mass/u    :      261.2770023
   center of mass at/Å    :       -0.0033931      -0.0165816       0.0042790
  moments of inertia/u·Å² :        0.9745075E+03   0.1626336E+04   0.2119455E+04
rotational constants/cm⁻¹ :        0.1729862E-01   0.1036540E-01   0.7953759E-02

 * 32 selected distances

     #   Z          #   Z                                           value/Å
     1   8 O        2   6 C                                       1.3178320
     2   6 C        3   8 O                                       1.1991176
     1   8 O        4   1 H                                       0.9997666 (min)
     5   6 C        6   1 H                                       1.0983307
     5   6 C        7   1 H                                       1.0893215
     5   6 C        8   7 N                                       1.4493221
     8   7 N        9   1 H                                       1.0104534
     8   7 N       10   6 C                                       1.3362916
    10   6 C       11   8 O                                       1.2262300
    12   6 C       13   1 H                                       1.1021475
    12   6 C       14   7 N                                       1.4573433
    14   7 N       15   1 H                                       1.0150520
    14   7 N       16   1 H                                       1.0143007
    17   6 C       18   1 H                                       1.0914802
    17   6 C       19   1 H                                       1.0923438
    17   6 C       20   6 C                                       1.4924070 (max)
    20   6 C       21   6 C                                       1.3641596
    21   6 C       22   1 H                                       1.0734228
    21   6 C       23   7 N                                       1.3667243
    23   7 N       24   1 H                                       1.0053437
    23   7 N       25   6 C                                       1.3634604
    25   6 C       26   6 C                                       1.3891997
    26   6 C       27   1 H                                       1.0800432
    26   6 C       28   6 C                                       1.3778060
    28   6 C       29   1 H                                       1.0793786
    28   6 C       30   6 C                                       1.3979460
    30   6 C       31   1 H                                       1.0802818
    30   6 C       32   6 C                                       1.3765738
    32   6 C       33   1 H                                       1.0805291
    20   6 C       34   6 C                                       1.4288700
    25   6 C       34   6 C                                       1.4159305
    32   6 C       34   6 C                                       1.3949422

 * 6 distinct bonds (by element types)

   Z      Z             #   av. dist./Å        max./Å        min./Å
   1 H    6 C          10     1.0867279     1.1021475     1.0734228
   6 C    6 C           9     1.4042039     1.4924070     1.3641596
   1 H    7 N           4     1.0112874     1.0150520     1.0053437
   6 C    7 N           5     1.3946283     1.4573433     1.3362916
   1 H    8 O           1     0.9997666     0.9997666     0.9997666
   6 C    8 O           3     1.2477265     1.3178320     1.1991176


optimized geometry written to: xtbopt.xyz


           -------------------------------------------------
          | TOTAL ENERGY              -56.479856720268 Eh   |
          | GRADIENT NORM               0.000761600509 Eh/α |
          | HOMO-LUMO GAP               3.605471464442 eV   |
           -------------------------------------------------

------------------------------------------------------------------------
 * finished run on 2026/10/01 at 18:05:27.708     
------------------------------------------------------------------------
 total:
 * wall-time:     0 d,  0 h,  0 min,  0.433 sec
 *  cpu-time:     0 d,  0 h,  0 min,  6.514 sec
 * ratio c/w:    15.051 speedup
 SCF:
 * wall-time:     0 d,  0 h,  0 min,  0.087 sec
 *  cpu-time:     0 d,  0 h,  0 min,  1.303 sec
 * ratio c/w:    14.939 speedup
 ANC optimizer:
 * wall-time:     0 d,  0 h,  0 min,  0.337 sec
 *  cpu-time:     0 d,  0 h,  0 min,  5.085 sec
 * ratio c/w:    15.094 speedup


--- STDERR ---
normal termination of xtb
Note: The following floating-point exceptions are signalling: IEEE_UNDERFLOW_FLAG IEEE_DENORMAL
