34
 energy: -56.479856720268 gnorm: 0.000761600509 xtb: 6.7.1-6.fc44.fc44
O           -2.11678787649066        2.70307633275033       -0.69506824874409
C           -1.85935452885706        2.26221916554312       -1.90999778004055
O           -2.29387754817823        2.77573041432033       -2.90266015460655
H           -1.71310212051679        2.12096943179166        0.01042623162356
C           -0.91829360863829        1.03947340032222       -1.97292154049994
H            0.03807024649381        1.33527856969930       -1.52103919617889
H           -0.75851686604393        0.77949653367478       -3.01862922139243
N           -1.42733650692709       -0.12092917057374       -1.26944780774131
H           -1.71781345929779       -0.93684498820552       -1.78994786447988
C           -1.49396755524327       -0.21292690728133        0.06200687560835
O           -1.27360613976537        0.72766118709814        0.81723842111225
C           -1.85571008986022       -1.60308451840863        0.56628741197217
H           -2.26540650310490       -1.48125674464254        1.58217903511837
N           -2.77176977531106       -2.23230242503334       -0.37645774716499
H           -3.67282983599219       -1.76515170782210       -0.36262644610224
H           -2.92510926119069       -3.20148043007941       -0.11957896665671
C           -0.55966867177206       -2.44145845038184        0.65161003114063
H           -0.28325576675423       -2.74156248187535       -0.36074478204772
H           -0.76251234422169       -3.34139184213095        1.23657933804593
C            0.54792346793112       -1.65313546575353        1.26729249032018
C            0.75657786124282       -1.41401254718607        2.59402327471797
H            0.21970885655407       -1.79186310576167        3.44328001165271
N            1.81981310150211       -0.57145609141619        2.76004822202964
H            2.15247702606538       -0.22243230325668        3.64222332009854
C            2.31135579147365       -0.22936637481977        1.53514648256367
C            3.36351769141075        0.60712479737334        1.18427133364322
H            3.94591115915382        1.11513791564044        1.93874699323258
C            3.63245924663932        0.76723637980940       -0.15751248987700
H            4.43965627762258        1.41387042452919       -0.46630887976740
C            2.88033828486856        0.10513302132629       -1.13228720646108
H            3.12736200691124        0.25500873010605       -2.17321228026142
C            1.83988855656687       -0.72901501748393       -0.79079554957576
H            1.27247768449933       -1.24218236646927       -1.55384667411983
C            1.53571254328352       -0.90137267608539        0.55962404395555
