68
 energy: -106.573605377873 gnorm: 0.000766676084 xtb: 6.7.1-6.fc44.fc44
O            1.21575301653448       -0.18277723467050        1.45605062710543
O            1.00470769015403       -0.90583938923781       -1.64560765719871
O           -3.44702792999964       -2.61974803174926       -0.22222973690496
O           -3.20166364046382        3.08292040047843        0.40835906274554
O           -1.33202217716600        1.65217059030251       -1.37728376434052
O            2.26607540131731        2.84228741509052        1.25115690992654
N            0.30287480344697       -2.34052092933132       -0.09527258707917
N           -2.21468579983248       -0.88380531167759       -0.97882884632831
N           -3.86571319847106        0.95600695416771        0.25984448106447
N           -0.58541483425168        2.08989183991406        0.70306682408391
N            1.92444300237234        1.77022158245185       -0.70845258407706
N            3.22423946746433       -0.46207662831305        0.50013598393070
C            2.00394408085367       -0.89214249138794        0.85245094037412
C            1.63434132749293       -2.33413883595991        0.50291270288744
C            1.49529660885603       -3.20268522596863        1.75628680211097
C            0.30146546241904       -4.09750495559643        1.43121909432788
C           -0.61957163012271       -3.14152145137787        0.68171745637785
C            0.09506723628793       -1.58625889034022       -1.18203273244828
C           -1.30302722170607       -1.64175057381254       -1.81100365333254
C           -1.27693322348243       -1.05848325738161       -3.21855122161496
C           -3.19723897843563       -1.42682148846566       -0.25892562156909
C           -3.98090155517674       -0.43482497610476        0.63446803393260
C           -5.45401537948212       -0.83670192276151        0.64941634022743
C           -2.98601505485243        1.91319480376813        0.63924048981054
C           -1.71221252505679        1.47011644124704        1.37720940720692
C           -1.75840928243953        1.94904695064227        2.82269963657894
C           -0.47409489261715        2.09357252315550       -0.62426614517704
C            0.85530350539722        2.65482871079869       -1.13988308141041
C            0.85828001851604        2.75891010092848       -2.65674354354905
C            2.50574786003797        1.91955045823884        0.49457461305676
C            3.61547178834149        0.91111845745239        0.79227985125265
C            4.84790029937271        1.13886834463734       -0.08577072238336
C            5.45991123692329       -0.25554054400999       -0.18120907452382
C            4.23438451752052       -1.16388917923006       -0.27067767422886
H            2.33616880016961       -2.75865893390842       -0.22046867867562
H            2.40493582377153       -3.76044935179591        1.96990829243384
H            1.26035104364504       -2.56441184381374        2.60942372341472
H            0.60714242461283       -4.91520716562853        0.77684394546485
H           -0.16819698393180       -4.51345656056232        2.31919919092842
H           -1.35359151936978       -3.64759563441584        0.05613622552704
H           -1.15846485876181       -2.50194848776569        1.39028776794597
H           -2.09666189072228        0.13176640405690       -1.04356025438631
H           -1.65324781560711       -2.68019286928427       -1.82876931713404
H           -0.51314548589949       -1.55043736712184       -3.81455073115747
H           -1.05372708849026        0.00353123921189       -3.16173226960739
H           -2.24530967543031       -1.19198739872428       -3.69344887615896
H           -4.63684773126391        1.31959466063383       -0.28521235383360
H           -3.57482269451168       -0.56925309895597        1.64609306165779
H           -5.99994450378271       -0.26773155884986        1.39757202970960
H           -5.53082577155241       -1.89694033365756        0.87363637467014
H           -5.89859005317584       -0.66133632488032       -0.32786499891792
H            0.18067106504207        2.42567089885433        1.27304672727350
H           -1.58584022867854        0.38129928997056        1.34053414974419
H           -2.57301484159892        1.46502141321571        3.35668968534562
H           -1.91543779525133        3.02481002552340        2.84419206321285
H           -0.81979144747122        1.70968262184327        3.31675332464235
H            1.94480532164093        0.86911863090016       -1.17498129627375
H            1.03390515035930        3.62954684315789       -0.67221856734098
H            0.01763955098805        3.36427827436711       -2.98285637474916
H            0.75804839429681        1.76637722310029       -3.08921682152674
H            1.78409227733943        3.20985188580195       -3.00424741620075
H            3.85857873522754        1.00726093438719        1.85840002053655
H            5.52384587689223        1.87298401232964        0.34547934957401
H            4.53669567490435        1.48321329569694       -1.07290944338028
H            6.02418652663059       -0.47900081175053        0.72475560015091
H            6.11766255448705       -0.36864060527612       -1.03988647435844
H            3.89966740099770       -1.27412329383545       -1.30935413778380
H            4.43590018980223       -2.15192873261411        0.14887869433008
