6
structure_id=water_dimer_packing_00
O 0.000000000000 0.000000000000 0.000000000000
H 0.957200000000 0.000000000000 0.000000000000
H -0.239000000000 0.927000000000 0.000000000000
O 3.300000000000 0.000000000000 0.000000000000
H 4.257200000000 0.000000000000 0.000000000000
H 3.061000000000 0.927000000000 0.000000000000
6
structure_id=water_dimer_packing_00_permuted
H -3.617625703504 -0.315027375910 -4.154254465183
H -3.530343673429 -0.216052629950 -2.646670541520
O -3.409290302839 0.295279817244 -3.446743694372
H -4.034963901318 -2.077874300003 -1.395957970811
O -3.826628500652 -1.467567106848 -0.688447200000
H -3.947681871242 -1.978899554043 0.111625952852
6
structure_id=water_dimer_packing_01
O 0.000000000000 0.000000000000 0.000000000000
H 0.957200000000 0.000000000000 0.000000000000
H -0.239000000000 0.927000000000 0.000000000000
O 3.400000000000 0.000000000000 0.000000000000
H 4.357200000000 0.000000000000 0.000000000000
H 3.161000000000 0.927000000000 0.000000000000
6
structure_id=water_dimer_packing_01_permuted
H -2.935716056102 1.429844608758 5.411948832994
O -3.367602602957 1.472277153546 4.558647309623
H -4.064969347966 0.818694845354 4.611007880423
H -0.458650726986 3.751386447299 5.225962685146
H -1.587904018850 3.140236683895 4.425021732575
O -0.890537273841 3.793818992087 4.372661161775
6
structure_id=water_dimer_packing_02
O 0.000000000000 0.000000000000 0.000000000000
H 0.957200000000 0.000000000000 0.000000000000
H -0.239000000000 0.927000000000 0.000000000000
O 3.500000000000 0.000000000000 0.000000000000
H 4.457200000000 0.000000000000 0.000000000000
H 3.261000000000 0.927000000000 0.000000000000
6
structure_id=water_dimer_packing_02_permuted
O 2.661173077492 2.235423976799 -2.368555985061
H 3.225072398207 -1.549688366273 -1.927656782949
H 2.414986576415 3.155447417209 -2.272738889597
H 3.315167054655 -0.208616562560 -2.623093918977
H 2.324891919967 1.814375613497 -1.577301753569
O 3.561353555733 -1.128640002971 -2.718911014441
6
structure_id=water_dimer_packing_03
O 0.000000000000 0.000000000000 0.000000000000
H 0.957200000000 0.000000000000 0.000000000000
H -0.239000000000 0.927000000000 0.000000000000
O 6.300000000000 0.000000000000 0.000000000000
H 7.257200000000 0.000000000000 0.000000000000
H 6.061000000000 0.927000000000 0.000000000000
6
structure_id=water_dimer_packing_03_permuted
H 0.262879088765 3.287845286941 2.958292167674
O -3.361290504735 0.594880907920 5.814662145613
H -4.010585843303 0.112417498547 6.326400811272
H -2.527723274939 0.403399328118 6.244720836963
H 1.745741657130 3.578827116512 2.876612193365
O 0.912174427333 3.770308696314 2.446553502015
6
structure_id=water_dimer_packing_04
O 0.000000000000 0.000000000000 0.000000000000
H 0.957200000000 0.000000000000 0.000000000000
H -0.239000000000 0.927000000000 0.000000000000
O 6.400000000000 0.000000000000 0.000000000000
H 7.357200000000 0.000000000000 0.000000000000
H 6.161000000000 0.927000000000 0.000000000000
6
structure_id=water_dimer_packing_04_permuted
O -1.765680286174 -1.011596328336 1.267318537789
H -2.256516658504 -1.549069787231 1.888956516505
H 1.335977409101 2.185966240250 -3.741769519066
H -1.945837031882 -1.407671596073 0.414606435575
O 1.516134154808 2.582041507987 -2.889057416851
H 1.025297782478 2.044568049092 -2.267419438135
6
structure_id=water_dimer_packing_05
O 0.000000000000 0.000000000000 0.000000000000
H 0.957200000000 0.000000000000 0.000000000000
H -0.239000000000 0.927000000000 0.000000000000
O 6.500000000000 0.000000000000 0.000000000000
H 7.457200000000 0.000000000000 0.000000000000
H 6.261000000000 0.927000000000 0.000000000000
6
structure_id=water_dimer_packing_05_permuted
H 0.158433957519 2.195084894033 1.204627647605
H 0.361518526455 3.670693701578 0.937122984175
O 0.436277764793 3.009126602335 1.624852487310
O -0.071385261949 7.501590188919 -3.045270549024
H -0.349229069223 6.687548480617 -3.465495388728
H -0.146144500287 8.163157288162 -3.733000052159
6
structure_id=water_dimer_beyond_cutoff_00
O 0.000000000000 0.000000000000 0.000000000000
H 0.957200000000 0.000000000000 0.000000000000
H -0.239000000000 0.927000000000 0.000000000000
O 14.900000000000 0.000000000000 0.000000000000
H 15.857200000000 0.000000000000 0.000000000000
H 14.661000000000 0.927000000000 0.000000000000
6
structure_id=water_dimer_beyond_cutoff_00_permuted
O -2.929637999173 0.722289908428 -2.514971652643
H -15.798932761545 -5.876806444340 0.061349299038
H -2.597005541806 0.822620619180 -1.622929390872
O -16.131565218912 -5.977137155093 -0.830692962733
H -3.777751068618 0.291907922844 -2.406770876671
H -16.979678288357 -6.407519140677 -0.722492186761
6
structure_id=water_dimer_beyond_cutoff_01
O 0.000000000000 0.000000000000 0.000000000000
H 0.957200000000 0.000000000000 0.000000000000
H -0.239000000000 0.927000000000 0.000000000000
O 15.000000000000 0.000000000000 0.000000000000
H 15.957200000000 0.000000000000 0.000000000000
H 14.761000000000 0.927000000000 0.000000000000
6
structure_id=water_dimer_beyond_cutoff_01_permuted
H -2.715543242085 -3.666185584077 3.849346518481
H -1.415745211253 -3.307253179998 3.162385057882
O -1.819444809327 -3.380585104417 4.027312259082
H -16.758038531846 -8.141746798982 1.060497679146
H -15.458240501015 -7.782814394904 0.373536218546
O -15.861940099089 -7.856146319322 1.238463419746
6
structure_id=water_dimer_beyond_cutoff_02
O 0.000000000000 0.000000000000 0.000000000000
H 0.957200000000 0.000000000000 0.000000000000
H -0.239000000000 0.927000000000 0.000000000000
O 15.100000000000 0.000000000000 0.000000000000
H 16.057200000000 0.000000000000 0.000000000000
H 14.861000000000 0.927000000000 0.000000000000
6
structure_id=water_dimer_beyond_cutoff_02_permuted
H -4.616457305417 -2.405192610865 1.731531463110
H -15.900822935722 5.691572702718 0.599954148760
H -3.692635334753 -3.192034383791 0.827287894763
H -16.824644906386 6.478414475644 1.504197717107
O -16.050759000979 5.915276150928 1.518608568873
O -3.842571400010 -2.968330935581 1.745942314877
6
structure_id=water_dimer_beyond_cutoff_03
O 0.000000000000 0.000000000000 0.000000000000
H 0.957200000000 0.000000000000 0.000000000000
H -0.239000000000 0.927000000000 0.000000000000
O 19.900000000000 0.000000000000 0.000000000000
H 20.857200000000 0.000000000000 0.000000000000
H 19.661000000000 0.927000000000 0.000000000000
6
structure_id=water_dimer_beyond_cutoff_03_permuted
H 1.593915039670 -2.338025372947 3.228594554573
O 2.207557350046 -2.239185937868 2.500498488803
H -0.925525568249 16.433277399085 -2.878828082176
H 2.086370990754 -1.336276841718 2.206728390919
H -0.433069617164 17.435025930314 -3.900694245830
O -0.311883257873 16.532116834164 -3.606924147946
6
structure_id=water_dimer_beyond_cutoff_04
O 0.000000000000 0.000000000000 0.000000000000
H 0.957200000000 0.000000000000 0.000000000000
H -0.239000000000 0.927000000000 0.000000000000
O 20.000000000000 0.000000000000 0.000000000000
H 20.957200000000 0.000000000000 0.000000000000
H 19.761000000000 0.927000000000 0.000000000000
6
structure_id=water_dimer_beyond_cutoff_04_permuted
H 1.315039408912 -2.426487649562 -4.458100800632
H -0.022519848928 -2.844134680248 -5.029703485654
O -8.490839514801 -8.023265207623 -21.280623485980
H -7.578946418669 -7.865950887504 -21.525884950364
O 0.403146312780 -2.583801969680 -4.212839336247
H -8.916505676509 -8.283597918190 -22.097487635386
6
structure_id=water_dimer_beyond_cutoff_05
O 0.000000000000 0.000000000000 0.000000000000
H 0.957200000000 0.000000000000 0.000000000000
H -0.239000000000 0.927000000000 0.000000000000
O 20.100000000000 0.000000000000 0.000000000000
H 21.057200000000 0.000000000000 0.000000000000
H 19.861000000000 0.927000000000 0.000000000000
6
structure_id=water_dimer_beyond_cutoff_05_permuted
H -5.499806226342 -18.291094668758 -3.296576137039
H -1.713218572288 -0.099879313933 4.368372515923
H -1.678264902056 0.664392306218 5.674087098659
H -5.464852556111 -17.526823048607 -1.990861554303
O -5.319481763533 -17.424794602209 -2.931556791237
O -1.532894109479 0.766420752616 4.733391861724
6
structure_id=water_dimer_orientation_00
O 0.000000000000 0.000000000000 0.000000000000
H 0.957200000000 0.000000000000 0.000000000000
H -0.239000000000 0.927000000000 0.000000000000
O 3.500000000000 0.000000000000 0.000000000000
H 4.442657981183 0.166216035663 0.000000000000
H 3.103659086333 0.871414872580 0.000000000000
6
structure_id=water_dimer_orientation_00_permuted
H -5.756522961284 -1.357623404780 -6.330504095441
O -3.805276083717 -0.432270355425 -3.937092103919
H -4.215145940299 -0.569460401912 -4.791151488160
H -5.826300995407 -1.160667621453 -7.829357952683
H -4.364900351547 -0.909190274733 -3.324052081226
O -5.303964443557 -0.933905502420 -7.059958636350
6
structure_id=water_dimer_orientation_01
O 0.000000000000 0.000000000000 0.000000000000
H 0.957200000000 0.000000000000 0.000000000000
H -0.239000000000 0.927000000000 0.000000000000
O 3.500000000000 0.000000000000 0.000000000000
H 4.457200000000 0.000000000000 0.000000000000
H 3.261000000000 0.927000000000 0.000000000000
6
structure_id=water_dimer_orientation_01_permuted
H 0.269664543705 -5.656643795884 -5.477050241768
H 2.630169083919 -1.940032222871 -3.598635971437
O 0.577546805701 -4.826294400098 -5.113786930013
O 1.703317717720 -1.790123395868 -3.785515313692
H 1.504398171900 -4.976203227102 -4.926907587758
H 1.395435455724 -2.620472791653 -4.148778625447
6
structure_id=water_dimer_orientation_02
O 0.000000000000 0.000000000000 0.000000000000
H 0.957200000000 0.000000000000 0.000000000000
H -0.239000000000 0.927000000000 0.000000000000
O 3.500000000000 0.000000000000 0.000000000000
H 4.442657981183 -0.166216035663 0.000000000000
H 3.425602807727 0.954418701505 0.000000000000
6
structure_id=water_dimer_orientation_02_permuted
O 0.441896531071 -6.406738307796 -1.897499391127
H 0.855776269288 -4.474517899395 -0.297168270499
H 0.125868987063 -7.088543286388 -2.490374084967
H 1.957284088549 -3.757965731510 0.453469428265
O 1.011575264656 -3.747161687769 0.305253055859
H 1.387635182934 -6.548311807228 -1.852942162421
6
structure_id=water_dimer_orientation_03
O 0.000000000000 0.000000000000 0.000000000000
H 0.957200000000 0.000000000000 0.000000000000
H -0.239000000000 0.927000000000 0.000000000000
O 3.500000000000 0.000000000000 0.000000000000
H 3.333783964337 -0.942657981183 0.000000000000
H 4.454418701505 0.074397192273 0.000000000000
6
structure_id=water_dimer_orientation_03_permuted
H -7.069132818634 -5.983669796590 -4.852084826714
O -6.381823367582 -5.408559861896 -4.515477813253
O -3.687329332326 -3.484962114404 -3.379927902500
H -4.424234958196 -4.011038618376 -3.690484580950
H -2.912037862064 -3.983618234492 -3.638220778977
H -6.855144665469 -4.676555747862 -4.120042905836
6
structure_id=water_dimer_orientation_04
O 0.000000000000 0.000000000000 0.000000000000
H 0.957200000000 0.000000000000 0.000000000000
H -0.239000000000 0.927000000000 0.000000000000
O 3.500000000000 0.000000000000 0.000000000000
H 3.172618318809 -0.899473776616 0.000000000000
H 4.452837873723 -0.092466136495 0.000000000000
6
structure_id=water_dimer_orientation_04_permuted
H -4.582986328526 -3.094506874609 4.723828547201
H -7.631872012172 -1.382624109355 4.766108763524
H -3.555686315484 -3.779182516417 5.599098441989
O -3.747666043273 -3.560470565901 4.687090291356
O -6.802013095493 -1.856675204929 4.821423654769
H -6.500220767584 -1.916716781154 3.915030671599
6
structure_id=water_dimer_orientation_05
O 0.000000000000 0.000000000000 0.000000000000
H 0.957200000000 0.000000000000 0.000000000000
H -0.239000000000 0.927000000000 0.000000000000
O 3.500000000000 0.000000000000 0.000000000000
H 3.021400000000 -0.828959516502 0.000000000000
H 4.422305549308 -0.256519928496 0.000000000000
6
structure_id=water_dimer_orientation_05_permuted
O -1.539832710836 3.984019779027 3.076341026824
H -2.291074923631 4.300221765631 3.578438070614
H -1.741942848563 4.218572089874 2.170599040547
H 1.436201515335 2.748936327305 0.965123569540
H 0.096203618344 3.405289186673 1.217769567053
O 0.712065650077 3.187434489882 0.518137428744
7
structure_id=water_ammonia_packing_00
O 0.000000000000 0.000000000000 0.000000000000
H 0.957200000000 0.000000000000 0.000000000000
H -0.239000000000 0.927000000000 0.000000000000
N 3.300000000000 0.000000000000 0.000000000000
H 4.250000000000 0.000000000000 -0.350000000000
H 2.825000000000 0.823000000000 -0.350000000000
H 2.825000000000 -0.823000000000 -0.350000000000
7
structure_id=water_ammonia_packing_00_permuted
H -3.369776483276 -0.047843343259 6.386020714221
H -2.594778908303 2.413462693753 4.694050457109
N -4.230551916592 0.011290757738 6.916136561466
H -3.744287803373 1.741676247869 5.413463906580
O -3.545614417181 2.448661475439 4.799515526327
H -4.970017735435 0.328097213925 6.301093496242
H -4.465665575010 -0.912374056401 7.257552552224
7
structure_id=water_ammonia_packing_01
O 0.000000000000 0.000000000000 0.000000000000
H 0.957200000000 0.000000000000 0.000000000000
H -0.239000000000 0.927000000000 0.000000000000
N 3.400000000000 0.000000000000 0.000000000000
H 4.350000000000 0.000000000000 -0.350000000000
H 2.925000000000 0.823000000000 -0.350000000000
H 2.925000000000 -0.823000000000 -0.350000000000
7
structure_id=water_ammonia_packing_01_permuted
H -3.123566633533 -6.358998880513 -3.805250433375
H -2.166336617095 -4.614803252032 -4.649974142772
H -2.508372818065 -7.883821232372 -3.738862447404
N -2.268800898655 -6.901932935171 -3.798028884256
O -2.126186457315 -3.718601953235 -4.983804993210
H -1.773634544416 -6.740263202314 -4.666433846879
H -1.355902055911 -3.709554276361 -5.552162346024
7
structure_id=water_ammonia_packing_02
O 0.000000000000 0.000000000000 0.000000000000
H 0.957200000000 0.000000000000 0.000000000000
H -0.239000000000 0.927000000000 0.000000000000
N 3.500000000000 0.000000000000 0.000000000000
H 4.450000000000 0.000000000000 -0.350000000000
H 3.025000000000 0.823000000000 -0.350000000000
H 3.025000000000 -0.823000000000 -0.350000000000
7
structure_id=water_ammonia_packing_02_permuted
H -1.194700535653 1.876846403190 3.373909864772
H -2.250355479855 0.811647449058 1.692669350480
H -3.685203971705 1.209276203334 0.991916056367
H 0.109870838095 1.334222530667 3.916013456132
H -2.948119700672 2.267334532074 2.014253256307
N -3.132521809146 1.287604184963 1.836550388185
O -0.465235959993 2.098658048340 3.952626433512
7
structure_id=water_ammonia_packing_03
O 0.000000000000 0.000000000000 0.000000000000
H 0.957200000000 0.000000000000 0.000000000000
H -0.239000000000 0.927000000000 0.000000000000
N 6.300000000000 0.000000000000 0.000000000000
H 7.250000000000 0.000000000000 -0.350000000000
H 5.825000000000 0.823000000000 -0.350000000000
H 5.825000000000 -0.823000000000 -0.350000000000
7
structure_id=water_ammonia_packing_03_permuted
H -3.896589443347 -3.494707656056 -10.140604950759
N -3.385042103605 -3.876095611647 -9.354562619499
H -2.416536124105 -3.996091085390 -9.624842574279
H 0.265829045877 -4.294317417808 -5.476194120924
H -3.429165264642 -3.216415517350 -8.587536335824
H 1.653518933010 -4.827053533608 -5.192059561125
O 0.919908155011 -4.369244780401 -4.781357270053
7
structure_id=water_ammonia_packing_04
O 0.000000000000 0.000000000000 0.000000000000
H 0.957200000000 0.000000000000 0.000000000000
H -0.239000000000 0.927000000000 0.000000000000
N 6.400000000000 0.000000000000 0.000000000000
H 7.350000000000 0.000000000000 -0.350000000000
H 5.925000000000 0.823000000000 -0.350000000000
H 5.925000000000 -0.823000000000 -0.350000000000
7
structure_id=water_ammonia_packing_04_permuted
O -2.838058189349 1.835440409540 -0.872512563114
N -8.913576247264 0.951509665403 0.934901824213
H -8.654322084121 0.683591345271 -0.006618782375
H -9.918846262974 1.064739161578 0.975042535605
H -8.477866306662 1.839512387384 1.151839634229
H -2.710552539823 1.217454068838 -1.592432830953
H -3.746727858886 1.703237517620 -0.602191148810
7
structure_id=water_ammonia_packing_05
O 0.000000000000 0.000000000000 0.000000000000
H 0.957200000000 0.000000000000 0.000000000000
H -0.239000000000 0.927000000000 0.000000000000
N 6.500000000000 0.000000000000 0.000000000000
H 7.450000000000 0.000000000000 -0.350000000000
H 6.025000000000 0.823000000000 -0.350000000000
H 6.025000000000 -0.823000000000 -0.350000000000
7
structure_id=water_ammonia_packing_05_permuted
H -3.826812202232 -5.608013509072 -3.401666069542
H -3.120831993686 -0.539581177210 -2.858516474613
O -2.909639162243 0.362168009377 -2.616694572305
H -4.213385489377 -6.722386681032 -4.549136124613
N -4.343773517008 -5.761285514252 -4.258819901391
H -2.775620723589 0.330425130043 -1.669339597804
H -3.971146020970 -5.151861000322 -4.976597381546
9
structure_id=water_trimer_packing_00
O 0.000000000000 0.000000000000 0.000000000000
H 0.957200000000 0.000000000000 0.000000000000
H -0.239000000000 0.927000000000 0.000000000000
O 3.400000000000 0.000000000000 0.000000000000
H 4.357200000000 0.000000000000 0.000000000000
H 3.161000000000 0.927000000000 0.000000000000
O 1.700000000000 2.944486372867 0.000000000000
H 2.657200000000 2.944486372867 0.000000000000
H 1.461000000000 3.871486372867 0.000000000000
9
structure_id=water_trimer_packing_00_permuted
H -2.660465181589 0.590667444418 -1.108552877744
H -1.773899924559 0.320865777414 3.636717428656
O -2.428185546414 0.898317935416 -0.232283885669
O -1.731781060488 1.104892413705 3.089213935631
O -1.582173728852 3.889775994347 1.144466885603
H -1.624292592923 3.105749358056 1.691970378629
H -1.814453364027 3.582125503350 0.268197893529
H -2.470304410485 0.114291299125 0.315219607356
H -1.964060695663 0.797241922707 2.212944943556
9
structure_id=water_trimer_packing_01
O 0.000000000000 0.000000000000 0.000000000000
H 0.957200000000 0.000000000000 0.000000000000
H -0.239000000000 0.927000000000 0.000000000000
O 3.500000000000 0.000000000000 0.000000000000
H 4.457200000000 0.000000000000 0.000000000000
H 3.261000000000 0.927000000000 0.000000000000
O 1.750000000000 3.031088913246 0.000000000000
H 2.707200000000 3.031088913246 0.000000000000
H 1.511000000000 3.958088913246 0.000000000000
9
structure_id=water_trimer_packing_01_permuted
H -3.866318415716 -1.581431459577 3.187226807565
H -6.913952874174 -2.484109863667 1.721929600029
O -6.586439238552 -0.751648709790 5.785659661677
H -6.856965154270 -1.128012269065 4.948034327668
H -7.461326117925 -1.983742633204 3.041110636393
H -4.413691659468 -1.081064229114 4.506407843929
O -3.595792499998 -1.205067900302 4.024852141574
H -7.404338398022 -0.627645038602 6.267215364032
O -6.643426958455 -2.107746304392 2.559554934038
9
structure_id=water_trimer_packing_02
O 0.000000000000 0.000000000000 0.000000000000
H 0.957200000000 0.000000000000 0.000000000000
H -0.239000000000 0.927000000000 0.000000000000
O 3.600000000000 0.000000000000 0.000000000000
H 4.557200000000 0.000000000000 0.000000000000
H 3.361000000000 0.927000000000 0.000000000000
O 1.800000000000 3.117691453624 0.000000000000
H 2.757200000000 3.117691453624 0.000000000000
H 1.561000000000 4.044691453624 0.000000000000
9
structure_id=water_trimer_packing_02_permuted
H 4.659533274664 2.374706621374 -7.645023755212
O 4.965832123201 -0.402484072349 -4.044820329559
H 1.061240259361 -0.686382168016 -5.907564059418
H 4.111051227510 -0.831223085054 -4.000295287768
H 4.901496729139 0.180840541895 -4.801011569582
H 1.851685760990 0.325681458933 -6.708280341231
H 3.869087773035 1.362642994425 -6.844307473398
O 4.723868668726 1.791382007130 -6.888832515188
O 1.916021155051 -0.257643155311 -5.952089101208
9
structure_id=water_trimer_packing_03
O -3.400000000000 0.000000000000 0.000000000000
H -2.442800000000 0.000000000000 0.000000000000
H -3.639000000000 0.927000000000 0.000000000000
O 0.000000000000 0.000000000000 0.000000000000
H 0.957200000000 0.000000000000 0.000000000000
H -0.239000000000 0.927000000000 0.000000000000
O 3.400000000000 0.000000000000 0.000000000000
H 4.357200000000 0.000000000000 0.000000000000
H 3.161000000000 0.927000000000 0.000000000000
9
structure_id=water_trimer_packing_03_permuted
H 8.482415876404 -0.745313233879 0.883882490413
H 6.977132991142 -0.729981304356 0.728602719436
O 4.950449035911 -1.892009332945 1.442405805997
H 5.661585088872 -2.362676627200 1.877386049571
O 2.129618248380 -3.509372726266 2.435909365155
H 1.335471416078 -3.964708090997 2.715609837750
H 4.156302203610 -2.347344697676 1.722106278593
H 2.840754301340 -3.980040020521 2.870889608728
O 7.771279823443 -0.274645939624 0.448902246840
9
structure_id=water_trimer_packing_04
O -3.500000000000 0.000000000000 0.000000000000
H -2.542800000000 0.000000000000 0.000000000000
H -3.739000000000 0.927000000000 0.000000000000
O 0.000000000000 0.000000000000 0.000000000000
H 0.957200000000 0.000000000000 0.000000000000
H -0.239000000000 0.927000000000 0.000000000000
O 3.500000000000 0.000000000000 0.000000000000
H 4.457200000000 0.000000000000 0.000000000000
H 3.261000000000 0.927000000000 0.000000000000
9
structure_id=water_trimer_packing_04_permuted
O -0.072792913249 -2.078637129878 -4.223977824140
H 1.651779838781 -0.467051700660 -5.169743686967
O -2.446555943020 -4.296880405899 -2.922192186303
H -1.620446184630 -4.778714753281 -2.879433224960
H 3.127079874913 -0.342228201240 -5.483004500636
H 0.753316845142 -2.560471477261 -4.181218862798
H -0.721983190991 -2.685294976680 -3.867958049130
H -3.095746220762 -4.903538252701 -2.566172411292
O 2.300970116523 0.139606146142 -5.525763461978
9
structure_id=water_trimer_packing_05
O -3.600000000000 0.000000000000 0.000000000000
H -2.642800000000 0.000000000000 0.000000000000
H -3.839000000000 0.927000000000 0.000000000000
O 0.000000000000 0.000000000000 0.000000000000
H 0.957200000000 0.000000000000 0.000000000000
H -0.239000000000 0.927000000000 0.000000000000
O 3.600000000000 0.000000000000 0.000000000000
H 4.557200000000 0.000000000000 0.000000000000
H 3.361000000000 0.927000000000 0.000000000000
9
structure_id=water_trimer_packing_05_permuted
O -5.754289104190 -2.706655059695 -0.108230327651
H -6.428809461337 -3.060102879272 0.471896319409
H -4.488301263387 -3.183324907988 2.162111603131
H -6.212819284762 -2.534009237542 -0.930529138059
H -4.704291439962 -3.709418549718 3.564537060599
H -2.979773418587 -4.358734220164 6.657177801788
H -2.763783242011 -3.832640578434 5.254752344320
O -4.029771082814 -3.355970730141 2.984410413538
O -2.305253061439 -4.005286400587 6.077051154727
24
structure_id=benzene_dimer_packing_00
C 1.397000000000 0.000000000000 0.000000000000
C 0.698500000000 1.209837489087 0.000000000000
C -0.698500000000 1.209837489087 0.000000000000
C -1.397000000000 0.000000000000 0.000000000000
C -0.698500000000 -1.209837489087 0.000000000000
C 0.698500000000 -1.209837489087 0.000000000000
H 2.477000000000 0.000000000000 0.000000000000
H 1.238500000000 2.145144925174 0.000000000000
H -1.238500000000 2.145144925174 0.000000000000
H -2.477000000000 0.000000000000 0.000000000000
H -1.238500000000 -2.145144925174 0.000000000000
H 1.238500000000 -2.145144925174 0.000000000000
C 1.397000000000 0.000000000000 3.400000000000
C 0.698500000000 1.209837489087 3.400000000000
C -0.698500000000 1.209837489087 3.400000000000
C -1.397000000000 0.000000000000 3.400000000000
C -0.698500000000 -1.209837489087 3.400000000000
C 0.698500000000 -1.209837489087 3.400000000000
H 2.477000000000 0.000000000000 3.400000000000
H 1.238500000000 2.145144925174 3.400000000000
H -1.238500000000 2.145144925174 3.400000000000
H -2.477000000000 0.000000000000 3.400000000000
H -1.238500000000 -2.145144925174 3.400000000000
H 1.238500000000 -2.145144925174 3.400000000000
24
structure_id=benzene_dimer_packing_00_permuted
C -3.371831950741 -0.556875455459 -1.053600456159
H -5.211114791713 -0.161026678198 1.776213915218
C -2.605496424548 2.654208116941 0.562964158187
H -5.193518156543 0.497984064178 -0.611446906562
C -2.350018717894 -1.361424578611 -0.543495147803
C -1.593607495024 1.477984384545 2.419683179917
C -2.359943021217 -1.733099187856 0.803118565571
C -0.551945655530 1.416784479882 0.236561061525
C -4.403569486912 -0.124000941552 -0.217092051141
C -2.615420727871 2.282533507697 1.909577871561
H -1.566086556532 2.508669736165 -1.314591355237
C -1.573758888378 2.221333603034 -0.273544246831
H 0.228078710778 0.423124864908 1.977529630320
H -1.569994351585 -2.355084193585 1.197473420993
C -4.413493790235 -0.495675550796 1.129521662233
H -3.364159618895 -0.269539322328 -2.094647564565
H -1.552397716416 -1.696073451210 -1.190187400787
H -3.413041729349 2.617182380295 2.556270124545
C -3.391680557387 -1.300224673948 1.639626970589
H -3.399352889233 -1.587560807079 2.680674078995
H -3.395445094180 3.276193122671 0.168609302765
H -1.601279826870 1.190648251414 3.460730288323
C -0.561869958853 1.045109870637 1.583174774899
H 0.245675345948 1.082135607283 -0.410131191460
24
structure_id=benzene_dimer_packing_01
C 1.397000000000 0.000000000000 0.000000000000
C 0.698500000000 1.209837489087 0.000000000000
C -0.698500000000 1.209837489087 0.000000000000
C -1.397000000000 0.000000000000 0.000000000000
C -0.698500000000 -1.209837489087 0.000000000000
C 0.698500000000 -1.209837489087 0.000000000000
H 2.477000000000 0.000000000000 0.000000000000
H 1.238500000000 2.145144925174 0.000000000000
H -1.238500000000 2.145144925174 0.000000000000
H -2.477000000000 0.000000000000 0.000000000000
H -1.238500000000 -2.145144925174 0.000000000000
H 1.238500000000 -2.145144925174 0.000000000000
C 1.397000000000 0.000000000000 3.500000000000
C 0.698500000000 1.209837489087 3.500000000000
C -0.698500000000 1.209837489087 3.500000000000
C -1.397000000000 0.000000000000 3.500000000000
C -0.698500000000 -1.209837489087 3.500000000000
C 0.698500000000 -1.209837489087 3.500000000000
H 2.477000000000 0.000000000000 3.500000000000
H 1.238500000000 2.145144925174 3.500000000000
H -1.238500000000 2.145144925174 3.500000000000
H -2.477000000000 0.000000000000 3.500000000000
H -1.238500000000 -2.145144925174 3.500000000000
H 1.238500000000 -2.145144925174 3.500000000000
24
structure_id=benzene_dimer_packing_01_permuted
C -0.259030887601 -4.071930928573 -3.373399051661
H -1.688258050119 -0.471383346175 -3.408652772113
C -3.055563824991 -2.147211034692 -0.452561353296
H 1.357043708085 -3.248574909781 -2.217044102912
C -3.226902246611 -4.476078022174 -1.086476726110
H -3.454006090225 -1.143444542954 -0.462389442632
C -1.976546655147 -2.505626280064 -4.045452871150
H 0.443208994208 -0.946417872713 -2.239585007806
C 0.427699982662 -3.041454486421 -2.726770863288
C -1.853440506086 -2.415125137870 0.206779650635
H -4.671638420677 -2.970567053484 -1.608916302044
C -0.087692465980 -1.743063941091 -2.739483678846
H -2.905890380571 -2.298505856705 -4.555179631526
C -1.461154206505 -3.804016825395 -4.032740055592
H -1.322539045898 -1.618479069492 0.706678321675
H -1.992055666694 -4.600662893773 -4.532638726631
C -1.289815784885 -1.475149837912 -3.398824682777
H -3.757803706800 -5.272724090552 -1.586375397150
C -3.742294695253 -3.177687476843 -1.099189541668
H -1.626336662472 -5.747758617090 -0.417307632843
C -1.338048057445 -3.713515683201 0.219492466193
H 0.139411377634 -5.075697420311 -3.363570962324
C -2.024778927707 -4.743992125353 -0.427135722180
H -0.408704332021 -3.920636106560 0.729219226569
24
structure_id=benzene_dimer_packing_02
C 1.397000000000 0.000000000000 0.000000000000
C 0.698500000000 1.209837489087 0.000000000000
C -0.698500000000 1.209837489087 0.000000000000
C -1.397000000000 0.000000000000 0.000000000000
C -0.698500000000 -1.209837489087 0.000000000000
C 0.698500000000 -1.209837489087 0.000000000000
H 2.477000000000 0.000000000000 0.000000000000
H 1.238500000000 2.145144925174 0.000000000000
H -1.238500000000 2.145144925174 0.000000000000
H -2.477000000000 0.000000000000 0.000000000000
H -1.238500000000 -2.145144925174 0.000000000000
H 1.238500000000 -2.145144925174 0.000000000000
C 1.397000000000 0.000000000000 3.600000000000
C 0.698500000000 1.209837489087 3.600000000000
C -0.698500000000 1.209837489087 3.600000000000
C -1.397000000000 0.000000000000 3.600000000000
C -0.698500000000 -1.209837489087 3.600000000000
C 0.698500000000 -1.209837489087 3.600000000000
H 2.477000000000 0.000000000000 3.600000000000
H 1.238500000000 2.145144925174 3.600000000000
H -1.238500000000 2.145144925174 3.600000000000
H -2.477000000000 0.000000000000 3.600000000000
H -1.238500000000 -2.145144925174 3.600000000000
H 1.238500000000 -2.145144925174 3.600000000000
24
structure_id=benzene_dimer_packing_02_permuted
H 3.558181340979 -0.121670497468 -4.016335802349
H 0.996945357757 2.943480611824 -2.450607244951
C 0.694983959589 0.971353139504 -1.646678425380
C 1.315466391236 1.911754981090 -2.472665670051
H 2.458013135403 -1.789083068412 -2.551790057862
H 2.301882527754 1.963233184461 1.603006323645
C 2.347961678227 1.517600613292 -3.327185896077
C 5.165079909144 0.870209547489 -0.766651053323
C 1.106996814933 -0.363203069880 -1.675211406736
H 5.963286716553 0.565494646113 -1.427267978240
C 2.759974533571 0.183044403908 -3.355718877432
H 4.863118510976 -1.101917924832 0.037277766247
H 0.627311041004 -1.090213799239 -1.036652906919
H 3.032416416577 -0.403048655658 1.552414917190
C 4.753067053800 2.204765756873 -0.738118071968
H 5.232752827729 2.931776486231 -1.376676571784
H -0.103222847820 1.276068040880 -0.986061500464
C 2.139492101924 -0.757357437678 -2.529731632762
H 2.827647452156 2.244611342651 -3.965744395894
C 3.720571766809 2.598920124671 0.116402154058
C 4.544597477497 -0.070192294098 0.059336191347
H 3.402050733330 3.630645755405 0.138460579158
C 3.512102190506 0.323962073700 0.913856417373
C 3.100089335162 1.658518283085 0.942389398729
24
structure_id=benzene_dimer_packing_03
C 1.397000000000 0.000000000000 0.000000000000
C 0.698500000000 1.209837489087 0.000000000000
C -0.698500000000 1.209837489087 0.000000000000
C -1.397000000000 0.000000000000 0.000000000000
C -0.698500000000 -1.209837489087 0.000000000000
C 0.698500000000 -1.209837489087 0.000000000000
H 2.477000000000 0.000000000000 0.000000000000
H 1.238500000000 2.145144925174 0.000000000000
H -1.238500000000 2.145144925174 0.000000000000
H -2.477000000000 0.000000000000 0.000000000000
H -1.238500000000 -2.145144925174 0.000000000000
H 1.238500000000 -2.145144925174 0.000000000000
C 4.397000000000 0.000000000000 3.400000000000
C 3.698500000000 1.209837489087 3.400000000000
C 2.301500000000 1.209837489087 3.400000000000
C 1.603000000000 0.000000000000 3.400000000000
C 2.301500000000 -1.209837489087 3.400000000000
C 3.698500000000 -1.209837489087 3.400000000000
H 5.477000000000 0.000000000000 3.400000000000
H 4.238500000000 2.145144925174 3.400000000000
H 1.761500000000 2.145144925174 3.400000000000
H 0.523000000000 0.000000000000 3.400000000000
H 1.761500000000 -2.145144925174 3.400000000000
H 4.238500000000 -2.145144925174 3.400000000000
24
structure_id=benzene_dimer_packing_03_permuted
C -0.306749435971 4.619285568315 -2.307652710415
H -1.132116790625 4.049034348002 -0.404930640431
C 1.069554518280 2.954985641343 -3.398853965268
H 1.683340014826 2.649984969378 -4.233504763106
C 2.113198806641 5.048548642952 0.485447845569
H 1.694408557966 6.994968821482 -0.328697237464
H 2.726984303187 4.743547970987 -0.349202952269
C -0.518331294080 3.744033676037 -1.239581438269
H 0.286680155241 7.694493510794 1.585589823874
H -0.756964133120 5.600930509185 -2.298711986963
C 0.736894852390 6.712848569924 1.576649100422
C 0.487193470209 4.224761550968 -3.387288973914
C 0.525312994281 5.837596677646 2.644720372567
H -0.099541045405 1.797613497507 -0.425436355237
H 0.650764269606 4.901405819873 -4.212999048300
H 1.308187357321 1.098088808195 -2.339723416574
H 0.944103242955 3.891176499115 3.458865455600
C 1.530837758570 6.318324552577 0.497012836922
C 0.857972660172 2.079733749065 -2.330782693122
H 2.351831645681 3.191651809804 1.544578394262
C 1.901616948532 4.173296750674 1.553519117714
C 1.107674042352 4.567820768020 2.633155381214
H -0.088472502265 6.142597349610 3.479371170405
C 0.064029753992 2.474257766412 -1.251146429623
24
structure_id=benzene_dimer_packing_04
C 1.397000000000 0.000000000000 0.000000000000
C 0.698500000000 1.209837489087 0.000000000000
C -0.698500000000 1.209837489087 0.000000000000
C -1.397000000000 0.000000000000 0.000000000000
C -0.698500000000 -1.209837489087 0.000000000000
C 0.698500000000 -1.209837489087 0.000000000000
H 2.477000000000 0.000000000000 0.000000000000
H 1.238500000000 2.145144925174 0.000000000000
H -1.238500000000 2.145144925174 0.000000000000
H -2.477000000000 0.000000000000 0.000000000000
H -1.238500000000 -2.145144925174 0.000000000000
H 1.238500000000 -2.145144925174 0.000000000000
C 4.397000000000 0.000000000000 3.500000000000
C 3.698500000000 1.209837489087 3.500000000000
C 2.301500000000 1.209837489087 3.500000000000
C 1.603000000000 0.000000000000 3.500000000000
C 2.301500000000 -1.209837489087 3.500000000000
C 3.698500000000 -1.209837489087 3.500000000000
H 5.477000000000 0.000000000000 3.500000000000
H 4.238500000000 2.145144925174 3.500000000000
H 1.761500000000 2.145144925174 3.500000000000
H 0.523000000000 0.000000000000 3.500000000000
H 1.761500000000 -2.145144925174 3.500000000000
H 4.238500000000 -2.145144925174 3.500000000000
24
structure_id=benzene_dimer_packing_04_permuted
C 1.636173643724 5.833794247087 -5.089572071810
C 3.505759639670 4.370387014491 -5.556385177182
H 4.201392685674 6.521943557611 -0.896485166767
C 1.645141042861 8.755974623061 -0.747522966142
H 2.461337835910 7.349249206276 0.660211169548
C 3.607883574246 7.822792555086 -2.503441239725
H 0.949507996856 6.604418079941 -5.407422976557
C 2.719668843992 8.819608753695 -2.914587271144
C 1.738297578299 9.286199787682 -2.036628134353
H 4.099268751099 3.069538017015 -3.949429104224
H 2.791686781196 9.229517971871 -3.911175375416
H 4.366567158317 7.462077940408 -3.182178439249
H 0.886457458789 9.116689237739 -0.068785766618
H 0.784333524213 5.664283697144 -3.121729704075
C 2.617544909416 5.367203213100 -5.967531208601
C 1.543017108285 5.303569082466 -3.800466903599
H 2.359213901335 3.896843665681 -2.392732767909
H 2.689562846620 5.777112431276 -6.964119312873
C 2.533355773114 7.759158424452 -0.336376934723
H 4.264443223741 4.009672399813 -6.235122376706
C 3.412603104231 3.840161849870 -4.267280008972
C 2.431231838539 4.306752883857 -3.389320872180
C 3.514727038807 7.292567390465 -1.214336071515
H 1.051631931432 10.056823620537 -2.354479039100
24
structure_id=benzene_dimer_packing_05
C 1.397000000000 0.000000000000 0.000000000000
C 0.698500000000 1.209837489087 0.000000000000
C -0.698500000000 1.209837489087 0.000000000000
C -1.397000000000 0.000000000000 0.000000000000
C -0.698500000000 -1.209837489087 0.000000000000
C 0.698500000000 -1.209837489087 0.000000000000
H 2.477000000000 0.000000000000 0.000000000000
H 1.238500000000 2.145144925174 0.000000000000
H -1.238500000000 2.145144925174 0.000000000000
H -2.477000000000 0.000000000000 0.000000000000
H -1.238500000000 -2.145144925174 0.000000000000
H 1.238500000000 -2.145144925174 0.000000000000
C 4.397000000000 0.000000000000 3.600000000000
C 3.698500000000 1.209837489087 3.600000000000
C 2.301500000000 1.209837489087 3.600000000000
C 1.603000000000 0.000000000000 3.600000000000
C 2.301500000000 -1.209837489087 3.600000000000
C 3.698500000000 -1.209837489087 3.600000000000
H 5.477000000000 0.000000000000 3.600000000000
H 4.238500000000 2.145144925174 3.600000000000
H 1.761500000000 2.145144925174 3.600000000000
H 0.523000000000 0.000000000000 3.600000000000
H 1.761500000000 -2.145144925174 3.600000000000
H 4.238500000000 -2.145144925174 3.600000000000
24
structure_id=benzene_dimer_packing_05_permuted
H -6.434895621476 -2.472733187328 -0.733994978032
C -10.011815537459 -1.431196558395 0.693105006285
H -8.930317317643 0.345169567989 1.242335363758
C -3.896317916332 -1.865385745303 1.441840337338
H -3.001292928994 0.060588343512 1.782902034475
C -3.749837722672 -0.491690068541 1.234204260251
C -5.539870634138 -0.546759098513 -0.392933280895
H -7.732959693228 -3.259528566150 3.237096773298
C -4.571614081575 0.167623254855 0.316817451134
H -10.906840524796 -3.357170647210 0.352043309147
H -3.261014789907 -2.375091106268 2.151058486119
H -6.175173760563 -0.037053737548 -1.102151429676
H -4.977816136148 -3.641751871687 0.892609979865
C -8.221782625993 -1.376127528423 2.320242547431
C -9.336519372216 -3.464205558554 1.818127892489
C -8.368262819653 -2.749823205186 2.527878624518
H -4.458372414322 1.229607027871 0.156297076578
H -9.449761039469 -4.526189331570 1.978648267045
H -10.647118663883 -0.921491197431 -0.016113142496
C -4.864574468895 -2.579768098671 0.732089605309
C -9.043558984896 -0.716814205028 1.402855738314
C -10.158295731119 -2.804892235158 0.900741083372
C -5.686350827798 -1.920454775275 -0.185297203808
H -7.473237832315 -0.823849116371 2.868940321655
14
structure_id=butane_torsions_00
C -1.926779165934 -0.152246673943 -0.182230740193
C -0.564640098486 0.218231942221 0.382364889644
C 0.564640453867 -0.218233332475 -0.548779463667
C 1.901139105669 0.360888680404 -0.113079385419
H -2.013818737418 -1.234963857925 -0.318229240791
H -2.720029983705 0.169262368851 0.499903224639
H -2.094758235508 0.330564299562 -1.150231089643
H -0.441635534551 -0.253979109487 1.364029929013
H -0.522122198977 1.302735262565 0.536719614244
H 0.348986336631 0.106129605103 -1.573504543803
H 0.634103665363 -1.312196586169 -0.562891720919
H 1.875297334851 1.455256092648 -0.119431739680
H 2.162031535290 0.028896694256 0.896902418781
H 2.694815944367 0.035918160142 -0.793073718606
14
structure_id=butane_torsions_00_permuted
H -1.309595386535 0.146945861917 1.460520335311
C -3.168316043487 -0.437622419270 2.360720031030
H 0.963928077808 -0.578893425176 3.266439482801
H -1.287901963474 -2.335656356257 2.153309480142
H -3.560250539452 -0.779135616927 3.324100989018
H -3.672214238253 0.498820705768 2.101718217580
C -0.932406589742 -1.516193389291 2.788828236472
H 0.827502414901 -1.125495423865 1.583504254023
H 1.075256605134 -2.305158118056 2.882326842475
C 0.571357731019 -1.369814041483 2.619383781040
H -3.425167817071 -1.182961308749 1.601216713893
C -1.664458081432 -0.224963167072 2.428784578864
H -1.443916061395 0.548494826162 3.173703261734
H -1.152245322547 -1.792125859452 3.826764579940
14
structure_id=butane_torsions_01
C -1.926779165934 -0.152246673943 -0.182230740193
C -0.564640098486 0.218231942221 0.382364889644
C 0.564640453867 -0.218233332475 -0.548779463667
C 1.926779389520 0.152245418207 0.015816432110
H -2.013818737418 -1.234963857925 -0.318229240791
H -2.720029983705 0.169262368851 0.499903224639
H -2.094758235508 0.330564299562 -1.150231089643
H -0.441635534551 -0.253979109487 1.364029929013
H -0.522122198977 1.302735262565 0.536719614244
H 0.441635655643 0.253979184574 -1.530443694334
H 0.522122513570 -1.302736121896 -0.703135605365
H 2.013815484401 1.234962066415 0.151822168708
H 2.094760349984 -0.330570151377 0.983813491094
H 2.720030329680 -0.169255590647 -0.666320726920
14
structure_id=butane_torsions_01_permuted
H -0.996188534634 -4.465594626731 -3.867940077093
H -0.614341355332 -2.469159004463 -5.276965419413
H -3.389906600017 -4.881191715401 -4.499822614552
C -1.626153365119 -2.868653137105 -5.156289964971
H -2.538850198349 -5.848345814734 -2.354033432992
H -1.844531492411 -3.506766943543 -6.018536938895
H -3.869406066910 -3.410304315164 -3.650793833623
H -3.021068040980 -4.369129597864 -1.500196157669
H -4.251249536206 -5.406746458403 -2.241770572008
H -1.475685963740 -2.994707058885 -3.018909998438
C -3.134226763277 -4.223439536778 -3.660912967439
C -1.731367309077 -3.652458503316 -3.857819848553
H -2.326737697046 -2.027547375548 -5.164696592812
C -3.239440395638 -5.007244845211 -2.362442775139
14
structure_id=butane_torsions_02
C -1.926779165934 -0.152246673943 -0.182230740193
C -0.564640098486 0.218231942221 0.382364889644
C 0.564640453867 -0.218233332475 -0.548779463667
C 1.923546188317 -0.072491457235 0.117238569825
H -2.013818737418 -1.234963857925 -0.318229240791
H -2.720029983705 0.169262368851 0.499903224639
H -2.094758235508 0.330564299562 -1.150231089643
H -0.441635534551 -0.253979109487 1.364029929013
H -0.522122198977 1.302735262565 0.536719614244
H 0.546392560346 0.384245776090 -1.464457049687
H 0.419803412106 -1.263558645331 -0.845591046368
H 2.113447689109 0.968524316660 0.397545118095
H 1.986143837693 -0.688612849777 1.019913897648
H 2.716851329170 -0.390255458689 -0.566584542805
14
structure_id=butane_torsions_02_permuted
H -3.915993525647 1.518921778497 2.171495878103
C 0.272698916775 0.925632118149 2.307744552082
H -1.433788439322 0.599577185089 3.568106498318
C -1.872999017148 2.243413970253 2.234838486916
H -1.316390132483 3.038953440283 2.743840839686
H 0.748517930131 1.664018596551 2.960990030215
C -1.230794817737 0.889558929239 2.530569112351
C -3.324124744986 2.282210184874 2.686695196497
H 0.509487539328 1.181267974140 1.269992395809
H -1.671472414374 0.119538369527 1.886634179253
H -3.763986852506 3.259717984992 2.465514538287
H -1.825420757827 2.451426536496 1.159549416507
H 0.711687709882 -0.053123762353 2.525109306309
H -3.404081346062 2.109778743556 3.764758795504
14
structure_id=butane_torsions_03
C -1.926779165934 -0.152246673943 -0.182230740193
C -0.564640098486 0.218231942221 0.382364889644
C 0.564640453867 -0.218233332475 -0.548779463667
C 0.316262828182 0.238040397405 -1.977614075766
H -2.013818737418 -1.234963857925 -0.318229240791
H -2.720029983705 0.169262368851 0.499903224639
H -2.094758235508 0.330564299562 -1.150231089643
H -0.441635534551 -0.253979109487 1.364029929013
H -0.522122198977 1.302735262565 0.536719614244
H 0.660825952962 -1.310125106712 -0.531452994480
H 1.517207157536 0.196680484615 -0.199146665666
H -0.613914103367 -0.186271873558 -2.368866111200
H 0.247319300968 1.329066104686 -2.034679648752
H 1.136290989969 -0.084893686559 -2.626604405263
14
structure_id=butane_torsions_03_permuted
H -4.099831126345 3.233739136507 -4.494864833362
H -2.938746550608 3.848035877072 -3.316390302987
H -4.978777691695 6.750579567451 -5.736538533111
C -4.483881951799 5.774379511280 -5.742258100911
C -3.368656274495 4.028987126687 -4.308465866740
H -4.948612995493 5.366888048661 -3.686801942706
C -4.063320751601 5.389004237530 -4.332981802407
H -1.500959148108 4.710065242980 -5.174819686084
H -5.183103906002 5.041437205057 -6.157265351479
H -1.782666420491 2.966419403597 -5.317180322600
H -3.616539153274 5.837091831452 -6.407188035001
H -3.390871422188 6.158064852432 -3.935317152992
C -2.266223974841 3.947675822885 -5.352245999665
H -2.668621081305 4.092296093432 -6.359970975313
14
structure_id=butane_torsions_04
C -1.926779165934 -0.152246673943 -0.182230740193
C -0.564640098486 0.218231942221 0.382364889644
C 0.564640453867 -0.218233332475 -0.548779463667
C 0.445499032340 0.438433123478 -1.914810209132
H -2.013818737418 -1.234963857925 -0.318229240791
H -2.720029983705 0.169262368851 0.499903224639
H -2.094758235508 0.330564299562 -1.150231089643
H -0.441635534551 -0.253979109487 1.364029929013
H -0.522122198977 1.302735262565 0.536719614244
H 0.547098040740 -1.307561467636 -0.670582505930
H 1.533495276033 0.043027539710 -0.107369241516
H -0.499734739734 0.170696140727 -2.397716211066
H 0.492250988712 1.528932831401 -1.831315148744
H 1.263378041811 0.112167340809 -2.564845301582
14
structure_id=butane_torsions_04_permuted
C 2.533603455121 -1.797436801597 -2.661414704424
C 1.659413527841 -0.891932375566 -3.514233075951
H 0.708945850065 -1.398387662652 -3.718915367095
H 3.479949552640 -1.307193198975 -2.411538228022
H 2.022606418984 -2.046238017989 -1.726052927221
H 1.426574879278 0.018646047866 -2.949952340732
C 2.661387801220 -1.763412499307 -5.654899562748
H 3.330305106219 -2.438490670980 -5.111606562877
H 2.758261363229 -2.732252525932 -3.184861422198
H 3.152614833722 -1.478995756290 -6.590700917375
H 1.702962868614 0.141701654520 -5.412235262055
H 3.276977231641 0.015839660897 -4.624252459378
H 1.747378182683 -2.311915026897 -5.904054490381
C 2.346557660261 -0.526734053468 -4.828489304949
14
structure_id=butane_torsions_05
C -1.926779165934 -0.152246673943 -0.182230740193
C -0.564640098486 0.218231942221 0.382364889644
C 0.564640453867 -0.218233332475 -0.548779463667
C 0.590869705533 0.614036567699 -1.820818908761
H -2.013818737418 -1.234963857925 -0.318229240791
H -2.720029983705 0.169262368851 0.499903224639
H -2.094758235508 0.330564299562 -1.150231089643
H -0.441635534551 -0.253979109487 1.364029929013
H -0.522122198977 1.302735262565 0.536719614244
H 0.442273293005 -1.275134193976 -0.812912669301
H 1.528715395252 -0.121798740772 -0.035905433416
H -0.348068369301 0.513857613099 -2.374630836391
H 0.744528785504 1.673723648172 -1.593225055297
H 1.406331350493 0.284851357559 -2.472417296968
14
structure_id=butane_torsions_05_permuted
C -4.969087885037 -1.407395061653 0.913686838647
H -4.937067869435 -2.943104659658 -0.607259422092
H -5.370605834408 0.629319366593 0.319971453443
C -2.925752107565 -2.611542862989 0.064751681666
H -2.375383034671 -2.408578479809 0.989006691076
C -4.419684175574 -2.707534509274 0.330077988980
H -4.609556519621 -3.536164766809 1.022248516297
H -5.991094262396 -1.564946089660 1.277638115880
C -4.973745044887 -0.291471460109 -0.118852911984
H -4.362688247786 -1.099386898702 1.773448407288
H -2.553652540977 -3.552482852521 -0.352495869692
H -3.960753545495 -0.086683829750 -0.479766241077
H -2.704749100771 -1.812152622605 -0.649727845721
H -5.598382666405 -0.554877001297 -0.978383101198
