68
 energy: -106.565287538464 gnorm: 0.000548901100 xtb: 6.7.1-6.fc44.fc44
O            2.12242707118190       -1.51295450406671        1.32370605978065
O           -1.20564581573524       -4.15575010715582        1.53933158970791
O           -0.62146263660246        0.04924176823439       -0.71188541600242
O           -1.05508396516784        2.95508616952530       -2.63611336553066
O           -2.13895553530851        1.38777682661903        1.77379811615490
O            1.82290590273652        2.85644359408428        0.29231759503764
N            0.44538351476469       -3.42828180263275        0.21679987486172
N           -2.02379295702227       -1.28837456438927        0.43226911477452
N           -2.48677610403828        1.34043592960731       -2.05500701975830
N           -0.92162095076687        2.78457608296412        0.48522438439102
N            1.28104467958838        1.15125951912148        1.68807932280528
N            2.32076383436752       -0.35261761208840       -0.58319191157119
C            1.90399885035294       -1.41032564533000        0.11892207296398
C            1.13809667102528       -2.48800251514597       -0.65209506248559
C            2.09454775342059       -3.37116391945449       -1.47589824932743
C            1.44711308886189       -4.75200035583357       -1.43558852722438
C            0.88776502179900       -4.79496501047953       -0.02314668506137
C           -0.60412283345438       -3.22318080445956        1.03680006627060
C           -1.00350500813989       -1.77188456769569        1.34875248466839
C           -1.52186889888042       -1.69069252495840        2.77973254635926
C           -1.75533052220397       -0.30215025293302       -0.43201635339033
C           -2.96980850872586        0.36286221067512       -1.10533578535137
C           -3.85756186138858       -0.64465728181774       -1.83049587002946
C           -1.76924077223958        2.46405290924002       -1.78811987782823
C           -1.98865560396086        3.14172960325353       -0.42614635085281
C           -2.00078730750429        4.65596083601451       -0.61897399788167
C           -1.08225259184685        1.94071314850205        1.50503165520673
C            0.16001382031450        1.75197692270613        2.39852610789797
C            0.54658760302471        3.07822283481291        3.05684398624521
C            1.97399126541513        1.71350472684037        0.69182142622531
C            3.01191375928927        0.75972231292140        0.06507113702734
C            3.74284152479354        1.44024229934199       -1.08467750944408
C            2.74143604149825        1.28984044795085       -2.22752368561870
C            2.14945791939849       -0.10233089535411       -2.00398300758105
H            0.41075145582839       -1.98540904417206       -1.29914374073083
H            2.22199166148507       -3.00472879324585       -2.49182119522200
H            3.06957324209962       -3.40479965167452       -0.98649022363425
H            0.63786092899274       -4.81136497198601       -2.16484530284968
H            2.15610002585864       -5.55308713192651       -1.63076015317916
H            0.04407599596506       -5.47375802879488        0.10518750045731
H            1.66450074625089       -5.05747270463141        0.70293910042642
H           -2.97687510380899       -1.46337344364436        0.71010077487996
H           -0.14602129363353       -1.11465211737241        1.21645261364702
H           -2.28209136854532       -2.45257098340603        2.93724714317734
H           -1.94362898767931       -0.70420569446069        2.95805228849379
H           -0.70657410283835       -1.87272201189203        3.47473655318050
H           -2.23469572728039        0.94162127556406       -2.95315555310137
H           -3.53885518334997        0.86302327908047       -0.31484132024191
H           -4.30036880578789       -1.34995599739640       -1.13311365819595
H           -3.27859124121623       -1.20199795275452       -2.56503363099196
H           -4.65902381802674       -0.11994137745542       -2.34551472370341
H            0.01377340176790        3.12026237052919        0.26046289360367
H           -2.92582678070545        2.80633323349767        0.02683539356039
H           -2.07151722631177        5.15412677514206        0.34450846011543
H           -2.84772751367809        4.94639052767324       -1.23480201553301
H           -1.08687225384332        4.96341296597748       -1.12060246801836
H            1.52230036665013        0.19391214417616        1.92592739547204
H           -0.13016116629548        1.03843608462016        3.17547038925390
H            1.34208014494377        2.91041169802592        3.77953864639140
H           -0.31524573565449        3.49456325140814        3.57210848948511
H            0.89568047016513        3.78905507011796        2.31406628025691
H            3.66962455180105        0.37318728303634        0.85016309750518
H            4.67488660918504        0.91845929780277       -1.30463398462264
H            3.95209492480822        2.48252421889484       -0.85708778316121
H            3.20310133994529        1.38379657323294       -3.20800918451205
H            1.96314441699497        2.04547924399407       -2.13221366905733
H            1.09261677889085       -0.13347977669964       -2.27117029123118
H            2.69777740462683       -0.85455173309008       -2.57930093975424
