34
frame_0038
O      -2.170531787400000      1.923146532900000     -2.152784880500000
C      -1.882261431100000      2.766109666700000     -1.180892554800000
O      -2.291273045400000      3.892006388900000     -1.141952273900000
H      -1.776328336200000      1.020572716200000     -1.991822452800000
C      -0.941943821600000      2.203841468200000     -0.093118433500000
H      -0.738980527500000      2.991398910900000      0.630981100100000
H      -0.003797662900000      1.907950433100000     -0.580312907900000
N      -1.493212248500000      1.050328712300000      0.600131073400000
H      -1.731200527700000      1.161742722700000      1.571741530900000
C      -1.555853463400000     -0.169553166000000      0.043815870900000
O      -1.326573070600000     -0.358542711900000     -1.146119652600000
C      -1.941094914300000     -1.317333469200000      0.978471866900000
H      -2.755198516200000     -0.993707821100000      1.638049207800000
N      -2.390986996800000     -2.483964888100000      0.249802642400000
H      -1.673616572300000     -2.744844893100000     -0.420945078100000
H      -3.227085412700000     -2.266376025500000     -0.282785172300000
C      -0.706601922200000     -1.694231750000000      1.835043256300000
H      -0.916367451200000     -2.662984604500000      2.289718013800000
H      -0.569823671000000     -0.955696563400000      2.626027894800000
C       0.526559143600000     -1.764676504000000      0.995521845400000
C       0.921447209000000     -2.796138498600000      0.193343518800000
H       0.478746878000000     -3.766680138200000      0.073600766600000
N       2.052769206200000     -2.453690528400000     -0.494262902100000
H       2.530019918700000     -3.037964746700000     -1.158934291200000
C       2.411377757800000     -1.182736089000000     -0.155432016000000
C       3.471621047700000     -0.397212241000000     -0.589756665100000
H       4.177015984300000     -0.768457462900000     -1.318411043500000
C       3.590111309900000      0.868039298700000     -0.057590276500000
H       4.400052722200000      1.507371685400000     -0.375132818100000
C       2.683763736300000      1.341014683300000      0.895707846000000
H       2.818762287800000      2.334681346800000      1.297289355400000
C       1.631962864600000      0.566875797000000      1.330329215800000
H       0.949342201400000      0.940666293400000      2.080008881800000
C       1.472732353900000     -0.711886816700000      0.795253667900000
