34
 energy: -56.478249526851 gnorm: 0.000100450201 xtb: 6.7.1-6.fc44.fc44
O           -2.17053178740000        1.92314653290000       -2.15278488050000
C           -1.88226143110000        2.76610966670000       -1.18089255480000
O           -2.29127304540000        3.89200638890000       -1.14195227390000
H           -1.77632833620000        1.02057271620000       -1.99182245280000
C           -0.94194382160000        2.20384146820000       -0.09311843350000
H           -0.73898052750000        2.99139891090000        0.63098110010000
H           -0.00379766290000        1.90795043310000       -0.58031290790000
N           -1.49321224850000        1.05032871230000        0.60013107340000
H           -1.73120052770000        1.16174272270000        1.57174153090000
C           -1.55585346340000       -0.16955316600000        0.04381587090000
O           -1.32657307060000       -0.35854271190000       -1.14611965260000
C           -1.94109491430000       -1.31733346920000        0.97847186690000
H           -2.75519851620000       -0.99370782110000        1.63804920780000
N           -2.39098699680000       -2.48396488810000        0.24980264240000
H           -1.67361657230000       -2.74484489310000       -0.42094507810000
H           -3.22708541270000       -2.26637602550000       -0.28278517230000
C           -0.70660192220000       -1.69423175000000        1.83504325630000
H           -0.91636745120000       -2.66298460450000        2.28971801380000
H           -0.56982367100000       -0.95569656340000        2.62602789480000
C            0.52655914360000       -1.76467650400000        0.99552184540000
C            0.92144720900000       -2.79613849860000        0.19334351880000
H            0.47874687800000       -3.76668013820000        0.07360076660000
N            2.05276920620000       -2.45369052840000       -0.49426290210000
H            2.53001991870000       -3.03796474670000       -1.15893429120000
C            2.41137775780000       -1.18273608900000       -0.15543201600000
C            3.47162104770000       -0.39721224100000       -0.58975666510000
H            4.17701598430000       -0.76845746290000       -1.31841104350000
C            3.59011130990000        0.86803929870000       -0.05759027650000
H            4.40005272220000        1.50737168540000       -0.37513281810000
C            2.68376373630000        1.34101468330000        0.89570784600000
H            2.81876228780000        2.33468134680000        1.29728935540000
C            1.63196286460000        0.56687579700000        1.33032921580000
H            0.94934220140000        0.94066629340000        2.08000888180000
C            1.47273235390000       -0.71188681670000        0.79525366790000
