34
frame_0022
O      -4.822365070363084      0.620661009163188     -0.671609756937613
C      -4.698149197995907      1.655388784453756     -1.268245523599189
O      -5.452683511638906      2.622026459858900     -1.113996557545629
H      -3.833127376797484      0.049093684989846     -0.585118029142658
C      -3.250778191946583      1.555854983214321     -2.237794650384318
H      -3.671048887503785      2.390453512016001     -2.920846464198753
H      -3.401306974099705      0.684205151143754     -2.768617693175407
N      -1.957091160762068      1.580882298797767     -1.679793647397954
H      -1.453120420782798      2.427593518755762     -1.615021973171741
C      -1.542589234438414      0.474550059383979     -0.902720658188317
O      -2.421589143569949     -0.685808602916030     -0.914072530180521
C      -0.412866891054012      0.317621278212982     -0.523851468428162
H       0.399234206742023     -0.010117453647659     -1.176961579565784
N       0.039170032358396      1.656278549718018     -0.353557696191188
H       1.089328950798093      1.986561755638367     -0.191905653369317
H      -0.115540678704451      2.605509273843525      0.510716517740617
C      -0.329095989915441     -0.217699716522794      0.928658210453021
H      -0.565992765340264     -1.398837232880142      0.857636685526826
H      -0.568717166378289      0.313213505386867      1.743362984726096
C       1.406319462230561     -0.486733143990601      1.122101060152896
C       2.036274585669294      0.321940315782774      2.392297861997895
H       1.429534973539488      1.064359708004620      2.867555604392284
N       3.090749394769166     -0.039542933850873      2.346384152799611
H       3.933239421465186      0.655707213128362      3.005968127120431
C       3.426509804356205     -0.965474350598265      1.476632905128927
C       4.673698959467913     -1.332066280783348      1.191973006361333
H       5.670119453729835     -1.316179382125875      1.332430701134515
C       4.838284486109748     -2.489638071240255      0.036431910773985
H       5.651766133258834     -3.045191477157745     -0.243613929063707
C       3.495905141395123     -2.734808713734338     -0.628941509955068
H       3.570155809026066     -3.510485107684109     -1.329895539345979
C       2.161601417315186     -2.247202746194376     -0.374267952582815
H       1.377049287585749     -2.504256195711976     -0.865900951685540
C       2.357705299427716     -1.278072956763823      0.964171628536864
