      -----------------------------------------------------------      
     |                   =====================                   |     
     |                           x T B                           |     
     |                   =====================                   |     
     |                         S. Grimme                         |     
     |          Mulliken Center for Theoretical Chemistry        |     
     |                    University of Bonn                     |     
      -----------------------------------------------------------      

   * xtb version 6.7.1-6.fc44.fc44 compiled by Fedora project on Sun Jan 18 23:32:34 UTC 2026

   xtb is free software: you can redistribute it and/or modify it under
   the terms of the GNU Lesser General Public License as published by
   the Free Software Foundation, either version 3 of the License, or
   (at your option) any later version.
   
   xtb is distributed in the hope that it will be useful,
   but WITHOUT ANY WARRANTY; without even the implied warranty of
   MERCHANTABILITY or FITNESS FOR A PARTICULAR PURPOSE.  See the
   GNU Lesser General Public License for more details.
   
   Cite this work as:
   * C. Bannwarth, E. Caldeweyher, S. Ehlert, A. Hansen, P. Pracht,
     J. Seibert, S. Spicher, S. Grimme, WIREs Comput. Mol. Sci., 2020, 11,
     e01493. DOI: 10.1002/wcms.1493
   
   for GFN2-xTB:
   * C. Bannwarth, S. Ehlert and S. Grimme., J. Chem. Theory Comput., 2019,
     15, 1652-1671. DOI: 10.1021/acs.jctc.8b01176
   for GFN1-xTB:
   * S. Grimme, C. Bannwarth, P. Shushkov, J. Chem. Theory Comput., 2017,
     13, 1989-2009. DOI: 10.1021/acs.jctc.7b00118
   for GFN0-xTB:
   * P. Pracht, E. Caldeweyher, S. Ehlert, S. Grimme, ChemRxiv, 2019, preprint.
     DOI: 10.26434/chemrxiv.8326202.v1
   for GFN-FF:
   * S. Spicher and S. Grimme, Angew. Chem. Int. Ed., 2020, 59, 15665-15673.
     DOI: 10.1002/anie.202004239
   
   for ALPB and GBSA implicit solvation:
   * S. Ehlert, M. Stahn, S. Spicher, S. Grimme, J. Chem. Theory Comput.,
     2021, 17, 4250-4261. DOI: 10.1021/acs.jctc.1c00471
   
   for ddCOSMO and CPCM-X implicit solvation:
   * M. Stahn, S. Ehlert, S. Grimme, J. Phys. Chem. A,
     2023, XX, XXXX-XXXX. DOI: 10.1021/acs.jpca.3c04382
   
   for DFT-D4:
   * E. Caldeweyher, C. Bannwarth and S. Grimme, J. Chem. Phys., 2017,
     147, 034112. DOI: 10.1063/1.4993215
   * E. Caldeweyher, S. Ehlert, A. Hansen, H. Neugebauer, S. Spicher,
     C. Bannwarth and S. Grimme, J. Chem. Phys., 2019, 150, 154122.
     DOI: 10.1063/1.5090222
   * E. Caldeweyher, J.-M. Mewes, S. Ehlert and S. Grimme, Phys. Chem. Chem. Phys.
     2020, 22, 8499-8512. DOI: 10.1039/D0CP00502A
   
   for sTDA-xTB:
   * S. Grimme and C. Bannwarth, J. Chem. Phys., 2016, 145, 054103.
     DOI: 10.1063/1.4959605
   
   in the mass-spec context:
   * V. Asgeirsson, C. Bauer and S. Grimme, Chem. Sci., 2017, 8, 4879.
     DOI: 10.1039/c7sc00601b
   * J. Koopman and S. Grimme, ACS Omega 2019, 4, 12, 15120-15133.
     DOI: 10.1021/acsomega.9b02011
   
   for metadynamics refer to:
   * S. Grimme, J. Chem. Theory Comput., 2019, 155, 2847-2862
     DOI: 10.1021/acs.jctc.9b00143
   
   for SPH calculations refer to:
   * S. Spicher and S. Grimme, J. Chem. Theory Comput., 2021, 17, 1701-1714
     DOI: 10.1021/acs.jctc.0c01306
   
   for ONIOM refer to:
   * C. Plett, A. Katbashev, S. Ehlert, S. Grimme, M. Bursch,
     Phys. Chem. Chem. Phys., 2023, 25, 17860-17868. DOI: 10.1039/D3CP02178E
   
   for DIPRO refer to:
   * J. Kohn, N. Gildemeister, S. Grimme, D. Fazzi, A. Hansen,
     J. Chem. Phys., 2023, just accepted.
   
   for PTB refer to:
   * S. Grimme, M. Mueller, A. Hansen, J. Chem. Phys., 2023, 158, 124111.
     DOI: 10.1063/5.0137838
   
   with help from (in alphabetical order)
   P. Atkinson, C. Bannwarth, F. Bohle, G. Brandenburg, E. Caldeweyher
   M. Checinski, S. Dohm, S. Ehlert, S. Ehrlich, I. Gerasimov, C. Hölzer
   A. Katbashev, J. Kohn, J. Koopman, C. Lavigne, S. Lehtola, F. März, M. Müller,
   F. Musil, H. Neugebauer, J. Pisarek, C. Plett, P. Pracht, F. Pultar,
   J. Seibert, P. Shushkov, S. Spicher, M. Stahn, M. Steiner, T. Strunk,
   J. Stückrath, T. Rose, and J. Unsleber
   
 * started run on 2026/10/01 at 18:04:49.501     
   ID    Z sym.   atoms
    1    8 O      1, 3, 11
    2    6 C      2, 5, 10, 12, 17, 20, 21, 25, 26, 28, 30, 32, 34
    3    1 H      4, 6, 7, 9, 13, 15, 16, 18, 19, 22, 24, 27, 29, 31, 33
    4    7 N      8, 14, 23

           -------------------------------------------------
          |                Calculation Setup                |
           -------------------------------------------------

          program call               : /usr/bin/xtb input.xyz --opt --gfn 2 --chrg 0 --uhf 0
          hostname                   : fedora
          coordinate file            : input.xyz
          omp threads                :                    16


           -------------------------------------------------
          |                 G F N 2 - x T B                 |
           -------------------------------------------------

        Reference                      10.1021/acs.jctc.8b01176
      * Hamiltonian:
        H0-scaling (s, p, d)           1.850000    2.230000    2.230000
        zeta-weighting                 0.500000
      * Dispersion:
        s8                             2.700000
        a1                             0.520000
        a2                             5.000000
        s9                             5.000000
      * Repulsion:
        kExp                           1.500000    1.000000
        rExp                           1.000000
      * Coulomb:
        alpha                          2.000000
        third order                    shell-resolved
        anisotropic                    true
        a3                             3.000000
        a5                             4.000000
        cn-shift                       1.200000
        cn-exp                         4.000000
        max-rad                        5.000000


          ...................................................
          :                      SETUP                      :
          :.................................................:
          :  # basis functions                  91          :
          :  # atomic orbitals                  91          :
          :  # shells                           53          :
          :  # electrons                       100          :
          :  max. iterations                   250          :
          :  Hamiltonian                  GFN2-xTB          :
          :  restarted?                      false          :
          :  GBSA solvation                  false          :
          :  PC potential                    false          :
          :  electronic temp.          300.0000000     K    :
          :  accuracy                    1.0000000          :
          :  -> integral cutoff          0.2500000E+02      :
          :  -> integral neglect         0.1000000E-07      :
          :  -> SCF convergence          0.1000000E-05 Eh   :
          :  -> wf. convergence          0.1000000E-03 e    :
          :  Broyden damping             0.4000000          :
          :  net charge                          0          :
          :  unpaired electrons                  0          :
          ...................................................

 iter      E             dE          RMSdq      gap      omega  full diag
   1    -56.4613952 -0.564614E+02  0.467E+00    2.03       0.0  T
   2    -56.5732682 -0.111873E+00  0.335E+00    1.22       1.0  T
   3    -56.6246123 -0.513441E-01  0.241E+00    1.52       1.0  T
   4    -56.6991153 -0.745029E-01  0.142E+00    1.16       1.0  T
   5    -56.7368009 -0.376856E-01  0.418E-01    1.17       1.0  T
   6    -56.7419393 -0.513836E-02  0.135E-01    1.16       1.0  T
   7    -56.7421606 -0.221336E-03  0.761E-02    1.13       1.0  T
   8    -56.7421971 -0.365238E-04  0.439E-02    1.11       1.0  T
   9    -56.7422538 -0.566826E-04  0.137E-02    1.12       1.2  T
  10    -56.7422565 -0.272367E-05  0.531E-03    1.12       3.2  T
  11    -56.7422567 -0.225302E-06  0.237E-03    1.12       7.2  T
  12    -56.7422568 -0.675841E-07  0.102E-03    1.12      16.8  T
  13    -56.7422568 -0.105579E-07  0.374E-04    1.12      45.8  T
  14    -56.7422568 -0.163557E-08  0.141E-04    1.12     121.8  T

   *** convergence criteria satisfied after 14 iterations ***

         #    Occupation            Energy/Eh            Energy/eV
      -------------------------------------------------------------
         1        2.0000           -0.7421156             -20.1940
       ...           ...                  ...                  ...
        44        2.0000           -0.4088667             -11.1258
        45        2.0000           -0.4075319             -11.0895
        46        2.0000           -0.4000138             -10.8849
        47        2.0000           -0.3905262             -10.6268
        48        2.0000           -0.3819223             -10.3926
        49        2.0000           -0.3785833             -10.3018
        50        2.0000           -0.3315162              -9.0210 (HOMO)
        51                         -0.2902853              -7.8991 (LUMO)
        52                         -0.2643217              -7.1926
        53                         -0.2119301              -5.7669
        54                         -0.2041553              -5.5553
        55                         -0.1991705              -5.4197
       ...                                ...                  ...
        91                          1.2340074              33.5791
      -------------------------------------------------------------
                  HL-Gap            0.0412309 Eh            1.1219 eV
             Fermi-level           -0.3109007 Eh           -8.4600 eV

 SCC (total)                   0 d,  0 h,  0 min,  0.281 sec
 SCC setup                      ...        0 min,  0.004 sec (  1.474%)
 Dispersion                     ...        0 min,  0.010 sec (  3.464%)
 classical contributions        ...        0 min,  0.003 sec (  1.142%)
 integral evaluation            ...        0 min,  0.010 sec (  3.521%)
 iterations                     ...        0 min,  0.246 sec ( 87.677%)
 molecular gradient             ...        0 min,  0.007 sec (  2.662%)
 printout                       ...        0 min,  0.000 sec (  0.052%)

         :::::::::::::::::::::::::::::::::::::::::::::::::::::
         ::                     SUMMARY                     ::
         :::::::::::::::::::::::::::::::::::::::::::::::::::::
         :: total energy             -55.781642306942 Eh    ::
         :: gradient norm              1.131737880832 Eh/a0 ::
         :: HOMO-LUMO gap              1.121948755165 eV    ::
         ::.................................................::
         :: SCC energy               -56.742206909198 Eh    ::
         :: -> isotropic ES            0.118397604859 Eh    ::
         :: -> anisotropic ES          0.008381245634 Eh    ::
         :: -> anisotropic XC          0.026474584842 Eh    ::
         :: -> dispersion             -0.032642948780 Eh    ::
         :: repulsion energy           0.960564602256 Eh    ::
         :: add. restraining           0.000000000000 Eh    ::
         :: total charge               0.000000000000 e     ::
         :::::::::::::::::::::::::::::::::::::::::::::::::::::

      ----------------------------------------------------------- 
     |                   =====================                   |
     |                        A N C O P T                        |
     |                   =====================                   |
     |               Approximate Normal Coordinate               |
     |                Rational Function Optimizer                |
      ----------------------------------------------------------- 
      ----------------------------------------------------------- 
     |                   =====================                   |
     |                        A N C O P T                        |
     |                   =====================                   |
     |               Approximate Normal Coordinate               |
     |                Rational Function Optimizer                |
      ----------------------------------------------------------- 

          ...................................................
          :                      SETUP                      :
          :.................................................:
          :   optimization level            normal          :
          :   max. optcycles                   200          :
          :   ANC micro-cycles                  20          :
          :   degrees of freedom                96          :
          :.................................................:
          :   RF solver                   davidson          :
          :   write xtbopt.log                true          :
          :   linear?                        false          :
          :   energy convergence         0.5000000E-05 Eh   :
          :   grad. convergence          0.1000000E-02 Eh/α :
          :   maxmium RF displ.          1.0000000          :
          :   Hlow (freq-cutoff)         0.1000000E-01      :
          :   Hmax (freq-cutoff)         5.0000000          :
          :   S6 in model hess.         20.0000000          :
          ...................................................

generating ANC from exact Hessian ...
Using Lindh-Hessian (1995)
 Shifting diagonal of input Hessian by    9.7829132270564091E-003
 Lowest  eigenvalues of input Hessian
    0.000000    0.000000    0.000000    0.000000    0.000000    0.000000
    0.010000    0.010049    0.010169    0.011498    0.012224    0.012710
    0.014501    0.014953    0.016326    0.018271    0.019278    0.020346
 Highest eigenvalues
    2.049388    2.428146    2.486806    2.538410    2.794403    3.097561


........................................................................
.............................. CYCLE    1 ..............................
........................................................................

 iter      E             dE          RMSdq      gap      omega  full diag
   1    -56.7422568 -0.567423E+02  0.618E-05    1.12       0.0  T
   2    -56.7422568  0.764047E-10  0.637E-05    1.12     269.2  T
   3    -56.7422568 -0.117204E-09  0.361E-05    1.12     475.3  T
     SCC iter.                  ...        0 min,  0.028 sec
     gradient                   ...        0 min,  0.001 sec
 * total energy  :   -55.7816423 Eh     change       -0.3047731E-09 Eh
   gradient norm :     1.1317398 Eh/α   predicted     0.0000000E+00 (-100.00%)
   displ. norm   :     0.5522669 α      lambda       -0.5573546E+00
   maximum displ.:     0.1784159 α      in ANC's #91, #94, #80, ...

........................................................................
.............................. CYCLE    2 ..............................
........................................................................

 iter      E             dE          RMSdq      gap      omega  full diag
   1    -56.9033975 -0.569034E+02  0.104E+00    2.11       0.0  T
   2    -56.8945296  0.886792E-02  0.106E+00    2.04       1.0  T
   3    -56.9274178 -0.328882E-01  0.385E-01    1.94       1.0  T
   4    -56.9280216 -0.603831E-03  0.190E-01    1.90       1.0  T
   5    -56.9283132 -0.291615E-03  0.836E-02    1.88       1.0  T
   6    -56.9284883 -0.175108E-03  0.166E-02    1.89       1.0  T
   7    -56.9284932 -0.487967E-05  0.778E-03    1.89       2.2  T
   8    -56.9284938 -0.608356E-06  0.335E-03    1.89       5.1  T
   9    -56.9284940 -0.129261E-06  0.163E-03    1.89      10.5  T
  10    -56.9284940 -0.685216E-07  0.528E-04    1.89      32.5  T
  11    -56.9284940 -0.331394E-08  0.243E-04    1.89      70.7  T
     SCC iter.                  ...        0 min,  0.606 sec
     gradient                   ...        0 min,  0.011 sec
 * total energy  :   -56.1931792 Eh     change       -0.4115369E+00 Eh
   gradient norm :     0.5588735 Eh/α   predicted    -0.3636737E+00 ( -11.63%)
   displ. norm   :     0.6235062 α      lambda       -0.3062767E+00
   maximum displ.:     0.1820225 α      in ANC's #63, #80, #89, ...

........................................................................
.............................. CYCLE    3 ..............................
........................................................................

 iter      E             dE          RMSdq      gap      omega  full diag
   1    -57.1173756 -0.571174E+02  0.863E-01    3.19       0.0  T
   2    -57.1235041 -0.612847E-02  0.566E-01    3.12       1.0  T
   3    -57.1260343 -0.253017E-02  0.335E-01    3.11       1.0  T
   4    -57.1268304 -0.796113E-03  0.145E-01    3.10       1.0  T
   5    -57.1271837 -0.353352E-03  0.278E-02    3.09       1.0  T
   6    -57.1272024 -0.186896E-04  0.116E-02    3.09       1.5  T
   7    -57.1272045 -0.205011E-05  0.564E-03    3.09       3.0  T
   8    -57.1272048 -0.356524E-06  0.213E-03    3.09       8.1  T
   9    -57.1272049 -0.367531E-07  0.754E-04    3.09      22.7  T
  10    -57.1272049 -0.417442E-08  0.296E-04    3.09      57.9  T
     SCC iter.                  ...        0 min,  0.342 sec
     gradient                   ...        0 min,  0.001 sec
 * total energy  :   -56.4106061 Eh     change       -0.2174269E+00 Eh
   gradient norm :     0.2164211 Eh/α   predicted    -0.2126724E+00 (  -2.19%)
   displ. norm   :     0.5263351 α      lambda       -0.9096089E-01
   maximum displ.:     0.1889387 α      in ANC's #30, #51, #27, ...

........................................................................
.............................. CYCLE    4 ..............................
........................................................................

 iter      E             dE          RMSdq      gap      omega  full diag
   1    -57.2125979 -0.572126E+02  0.577E-01    3.68       0.0  T
   2    -57.2143383 -0.174039E-02  0.341E-01    3.66       1.0  T
   3    -57.2143881 -0.498294E-04  0.196E-01    3.64       1.0  T
   4    -57.2147776 -0.389494E-03  0.629E-02    3.64       1.0  T
   5    -57.2148783 -0.100690E-03  0.117E-02    3.63       1.5  T
   6    -57.2148800 -0.165079E-05  0.658E-03    3.63       2.6  T
   7    -57.2148802 -0.238953E-06  0.258E-03    3.64       6.6  T
   8    -57.2148803 -0.112901E-06  0.969E-04    3.64      17.7  T
   9    -57.2148803 -0.788535E-08  0.423E-04    3.64      40.5  T
     SCC iter.                  ...        0 min,  0.272 sec
     gradient                   ...        0 min,  0.032 sec
 * total energy  :   -56.4624536 Eh     change       -0.5184755E-01 Eh
   gradient norm :     0.0824572 Eh/α   predicted    -0.5808068E-01 (  12.02%)
   displ. norm   :     0.4749476 α      lambda       -0.2219303E-01
   maximum displ.:     0.1599569 α      in ANC's #30, #17, #27, ...

........................................................................
.............................. CYCLE    5 ..............................
........................................................................

 iter      E             dE          RMSdq      gap      omega  full diag
   1    -57.1981673 -0.571982E+02  0.368E-01    3.50       0.0  T
   2    -57.1985180 -0.350697E-03  0.216E-01    3.53       1.0  T
   3    -57.1984996  0.184751E-04  0.724E-02    3.52       1.0  T
   4    -57.1985588 -0.592158E-04  0.150E-02    3.53       1.1  T
   5    -57.1985626 -0.380267E-05  0.726E-03    3.53       2.4  T
   6    -57.1985632 -0.567909E-06  0.333E-03    3.53       5.1  T
   7    -57.1985632 -0.661748E-07  0.150E-03    3.53      11.4  T
   8    -57.1985633 -0.342413E-07  0.490E-04    3.53      35.0  T
   9    -57.1985633 -0.277440E-08  0.285E-04    3.53      60.2  T
     SCC iter.                  ...        0 min,  0.315 sec
     gradient                   ...        0 min,  0.002 sec
 * total energy  :   -56.4717972 Eh     change       -0.9343556E-02 Eh
   gradient norm :     0.0665191 Eh/α   predicted    -0.1360111E-01 (  45.57%)
   displ. norm   :     0.3512442 α      lambda       -0.1096839E-01
   maximum displ.:     0.1234610 α      in ANC's #25, #16, #21, ...

........................................................................
.............................. CYCLE    6 ..............................
........................................................................

 iter      E             dE          RMSdq      gap      omega  full diag
   1    -57.2174802 -0.572175E+02  0.240E-01    3.53       0.0  T
   2    -57.2175145 -0.343238E-04  0.141E-01    3.53       1.0  T
   3    -57.2175115  0.305398E-05  0.194E-02    3.53       1.0  T
   4    -57.2175203 -0.880425E-05  0.699E-03    3.53       2.5  T
   5    -57.2175210 -0.739548E-06  0.348E-03    3.53       4.9  T
   6    -57.2175211 -0.989121E-07  0.122E-03    3.53      14.1  T
   7    -57.2175211 -0.911776E-08  0.405E-04    3.53      42.3  T
   8    -57.2175211 -0.231429E-08  0.166E-04    3.53     103.6  T
     SCC iter.                  ...        0 min,  0.143 sec
     gradient                   ...        0 min,  0.020 sec
 * total energy  :   -56.4754519 Eh     change       -0.3654695E-02 Eh
   gradient norm :     0.0558094 Eh/α   predicted    -0.6161772E-02 (  68.60%)
   displ. norm   :     0.2148220 α      lambda       -0.5943216E-02
   maximum displ.:     0.0695706 α      in ANC's #9, #1, #42, ...

........................................................................
.............................. CYCLE    7 ..............................
........................................................................

 iter      E             dE          RMSdq      gap      omega  full diag
   1    -57.2344320 -0.572344E+02  0.145E-01    3.60       0.0  T
   2    -57.2344673 -0.353043E-04  0.843E-02    3.60       1.0  T
   3    -57.2344614  0.583400E-05  0.265E-02    3.60       1.0  T
   4    -57.2344713 -0.987191E-05  0.631E-03    3.60       2.7  T
   5    -57.2344722 -0.886059E-06  0.247E-03    3.60       6.9  T
   6    -57.2344722 -0.346026E-07  0.116E-03    3.60      14.8  T
   7    -57.2344723 -0.151351E-07  0.437E-04    3.60      39.2  T
   8    -57.2344723 -0.223716E-08  0.182E-04    3.60      94.0  T
     SCC iter.                  ...        0 min,  0.535 sec
     gradient                   ...        0 min,  0.004 sec
 * total energy  :   -56.4780460 Eh     change       -0.2594109E-02 Eh
   gradient norm :     0.0275176 Eh/α   predicted    -0.3108750E-02 (  19.84%)
   displ. norm   :     0.1498103 α      lambda       -0.1531588E-02
   maximum displ.:     0.0618572 α      in ANC's #15, #13, #9, ...

........................................................................
.............................. CYCLE    8 ..............................
........................................................................

 iter      E             dE          RMSdq      gap      omega  full diag
   1    -57.2341206 -0.572341E+02  0.839E-02    3.59       0.0  T
   2    -57.2341265 -0.592693E-05  0.498E-02    3.60       1.0  T
   3    -57.2341240  0.247970E-05  0.112E-02    3.59       1.5  T
   4    -57.2341276 -0.353806E-05  0.321E-03    3.60       5.3  T
   5    -57.2341278 -0.212721E-06  0.158E-03    3.60      10.9  T
   6    -57.2341278 -0.123553E-07  0.645E-04    3.60      26.6  T
   7    -57.2341278 -0.627724E-08  0.223E-04    3.60      76.8  T
     SCC iter.                  ...        0 min,  0.356 sec
     gradient                   ...        0 min,  0.030 sec
 * total energy  :   -56.4788651 Eh     change       -0.8191582E-03 Eh
   gradient norm :     0.0145556 Eh/α   predicted    -0.7829828E-03 (  -4.42%)
   displ. norm   :     0.1525196 α      lambda       -0.8005672E-03
   maximum displ.:     0.0795960 α      in ANC's #9, #6, #13, ...

........................................................................
.............................. CYCLE    9 ..............................
........................................................................

 iter      E             dE          RMSdq      gap      omega  full diag
   1    -57.2332846 -0.572333E+02  0.768E-02    3.57       0.0  T
   2    -57.2332933 -0.872950E-05  0.456E-02    3.57       1.0  T
   3    -57.2332910  0.237358E-05  0.148E-02    3.57       1.2  T
   4    -57.2332944 -0.343189E-05  0.396E-03    3.57       4.3  T
   5    -57.2332948 -0.380416E-06  0.153E-03    3.57      11.2  T
   6    -57.2332948 -0.263655E-07  0.727E-04    3.57      23.6  T
   7    -57.2332948 -0.355695E-08  0.216E-04    3.57      79.2  T
     SCC iter.                  ...        0 min,  0.167 sec
     gradient                   ...        0 min,  0.005 sec
 * total energy  :   -56.4792020 Eh     change       -0.3369044E-03 Eh
   gradient norm :     0.0135406 Eh/α   predicted    -0.4096008E-03 (  21.58%)
   displ. norm   :     0.1368832 α      lambda       -0.5875123E-03
   maximum displ.:     0.0639680 α      in ANC's #9, #6, #21, ...

........................................................................
.............................. CYCLE   10 ..............................
........................................................................

 iter      E             dE          RMSdq      gap      omega  full diag
   1    -57.2358794 -0.572359E+02  0.683E-02    3.57       0.0  T
   2    -57.2358844 -0.499779E-05  0.397E-02    3.56       1.0  T
   3    -57.2358826  0.179888E-05  0.120E-02    3.56       1.4  T
   4    -57.2358852 -0.255061E-05  0.350E-03    3.56       4.9  T
   5    -57.2358854 -0.290645E-06  0.137E-03    3.56      12.5  T
   6    -57.2358855 -0.543331E-08  0.584E-04    3.56      29.4  T
   7    -57.2358855 -0.469118E-08  0.209E-04    3.56      81.9  T
     SCC iter.                  ...        0 min,  0.043 sec
     gradient                   ...        0 min,  0.001 sec
 * total energy  :   -56.4793915 Eh     change       -0.1894553E-03 Eh
   gradient norm :     0.0105744 Eh/α   predicted    -0.2992624E-03 (  57.96%)
   displ. norm   :     0.0727979 α      lambda       -0.2590010E-03
   maximum displ.:     0.0324855 α      in ANC's #11, #8, #4, ...

........................................................................
.............................. CYCLE   11 ..............................
........................................................................

 iter      E             dE          RMSdq      gap      omega  full diag
   1    -57.2382085 -0.572382E+02  0.379E-02    3.59       0.0  T
   2    -57.2382100 -0.149046E-05  0.230E-02    3.59       1.0  T
   3    -57.2382085  0.142869E-05  0.823E-03    3.59       2.1  T
   4    -57.2382105 -0.190991E-05  0.163E-03    3.59      10.5  T
   5    -57.2382105 -0.482898E-07  0.724E-04    3.59      23.7  T
   6    -57.2382105 -0.236699E-08  0.345E-04    3.59      49.8  T
     SCC iter.                  ...        0 min,  0.015 sec
     gradient                   ...        0 min,  0.003 sec
 * total energy  :   -56.4795165 Eh     change       -0.1250264E-03 Eh
   gradient norm :     0.0065176 Eh/α   predicted    -0.1301870E-03 (   4.13%)
   displ. norm   :     0.0570147 α      lambda       -0.1178839E-03
   maximum displ.:     0.0272712 α      in ANC's #11, #9, #2, ...

........................................................................
.............................. CYCLE   12 ..............................
........................................................................

 iter      E             dE          RMSdq      gap      omega  full diag
   1    -57.2364632 -0.572365E+02  0.312E-02    3.59       0.0  T
   2    -57.2364639 -0.720214E-06  0.187E-02    3.59       1.0  T
   3    -57.2364621  0.184271E-05  0.883E-03    3.59       1.9  T
   4    -57.2364643 -0.225659E-05  0.138E-03    3.59      12.4  T
   5    -57.2364644 -0.423033E-07  0.473E-04    3.59      36.3  T
   6    -57.2364644 -0.789960E-09  0.252E-04    3.59      67.9  T
     SCC iter.                  ...        0 min,  0.032 sec
     gradient                   ...        0 min,  0.001 sec
 * total energy  :   -56.4795717 Eh     change       -0.5522036E-04 Eh
   gradient norm :     0.0038710 Eh/α   predicted    -0.5914005E-04 (   7.10%)
   displ. norm   :     0.0554636 α      lambda       -0.5288405E-04
   maximum displ.:     0.0285105 α      in ANC's #11, #3, #9, ...

........................................................................
.............................. CYCLE   13 ..............................
........................................................................

 iter      E             dE          RMSdq      gap      omega  full diag
   1    -57.2363528 -0.572364E+02  0.247E-02    3.58       0.0  T
   2    -57.2363530 -0.152593E-06  0.146E-02    3.58       1.2  T
   3    -57.2363528  0.224225E-06  0.268E-03    3.58       6.4  T
   4    -57.2363531 -0.282324E-06  0.725E-04    3.58      23.7  T
   5    -57.2363531 -0.769210E-08  0.357E-04    3.58      48.0  T
     SCC iter.                  ...        0 min,  0.169 sec
     gradient                   ...        0 min,  0.004 sec
 * total energy  :   -56.4796024 Eh     change       -0.3063777E-04 Eh
   gradient norm :     0.0024013 Eh/α   predicted    -0.2652584E-04 ( -13.42%)
   displ. norm   :     0.0572812 α      lambda       -0.2952433E-04
   maximum displ.:     0.0245605 α      in ANC's #11, #9, #3, ...

........................................................................
.............................. CYCLE   14 ..............................
........................................................................

 iter      E             dE          RMSdq      gap      omega  full diag
   1    -57.2365570 -0.572366E+02  0.249E-02    3.58       0.0  T
   2    -57.2365573 -0.337528E-06  0.146E-02    3.58       1.2  T
   3    -57.2365573  0.697652E-07  0.246E-03    3.58       7.0  T
   4    -57.2365574 -0.121544E-06  0.805E-04    3.58      21.3  T
   5    -57.2365574 -0.120472E-07  0.395E-04    3.58      43.4  T
     SCC iter.                  ...        0 min,  0.074 sec
     gradient                   ...        0 min,  0.003 sec
 * total energy  :   -56.4796151 Eh     change       -0.1272513E-04 Eh
   gradient norm :     0.0024206 Eh/α   predicted    -0.1481149E-04 (  16.40%)
   displ. norm   :     0.0231717 α      lambda       -0.1285267E-04
   maximum displ.:     0.0094682 α      in ANC's #3, #2, #11, ...

........................................................................
.............................. CYCLE   15 ..............................
........................................................................

 iter      E             dE          RMSdq      gap      omega  full diag
   1    -57.2369788 -0.572370E+02  0.113E-02    3.59       0.0  T
   2    -57.2369789 -0.504120E-07  0.662E-03    3.59       2.6  T
   3    -57.2369788  0.858519E-07  0.168E-03    3.59      10.2  T
   4    -57.2369789 -0.103596E-06  0.395E-04    3.59      43.5  T
   5    -57.2369789 -0.332972E-08  0.189E-04    3.59      90.6  T
     SCC iter.                  ...        0 min,  0.053 sec
     gradient                   ...        0 min,  0.002 sec
 * total energy  :   -56.4796227 Eh     change       -0.7612164E-05 Eh
   gradient norm :     0.0016139 Eh/α   predicted    -0.6434242E-05 ( -15.47%)
   displ. norm   :     0.0364264 α      lambda       -0.8537907E-05
   maximum displ.:     0.0186980 α      in ANC's #3, #2, #6, ...

........................................................................
.............................. CYCLE   16 ..............................
........................................................................

 iter      E             dE          RMSdq      gap      omega  full diag
   1    -57.2370813 -0.572371E+02  0.153E-02    3.59       0.0  T
   2    -57.2370814 -0.123138E-06  0.891E-03    3.59       1.9  T
   3    -57.2370814  0.323206E-07  0.158E-03    3.59      10.9  T
   4    -57.2370815 -0.588084E-07  0.369E-04    3.59      46.5  T
   5    -57.2370815 -0.776559E-09  0.209E-04    3.59      82.0  T
     SCC iter.                  ...        0 min,  0.214 sec
     gradient                   ...        0 min,  0.021 sec
 * total energy  :   -56.4796282 Eh     change       -0.5503860E-05 Eh
   gradient norm :     0.0017444 Eh/α   predicted    -0.4273356E-05 ( -22.36%)
   displ. norm   :     0.0294711 α      lambda       -0.5884305E-05
   maximum displ.:     0.0167779 α      in ANC's #3, #2, #4, ...

........................................................................
.............................. CYCLE   17 ..............................
........................................................................

 iter      E             dE          RMSdq      gap      omega  full diag
   1    -57.2367393 -0.572367E+02  0.133E-02    3.59       0.0  T
   2    -57.2367394 -0.149841E-06  0.790E-03    3.59       2.2  T
   3    -57.2367394  0.628091E-07  0.185E-03    3.59       9.3  T
   4    -57.2367394 -0.891854E-07  0.438E-04    3.59      39.1  T
   5    -57.2367395 -0.411630E-08  0.220E-04    3.59      78.0  T
     SCC iter.                  ...        0 min,  0.098 sec
     gradient                   ...        0 min,  0.002 sec
 * total energy  :   -56.4796303 Eh     change       -0.2073822E-05 Eh
   gradient norm :     0.0016786 Eh/α   predicted    -0.2946868E-05 (  42.10%)
   displ. norm   :     0.0172945 α      lambda       -0.5163340E-05
   maximum displ.:     0.0077615 α      in ANC's #3, #10, #4, ...

........................................................................
.............................. CYCLE   18 ..............................
........................................................................

 iter      E             dE          RMSdq      gap      omega  full diag
   1    -57.2365880 -0.572366E+02  0.971E-03    3.58       0.0  T
   2    -57.2365881 -0.521030E-07  0.572E-03    3.58       3.0  T
   3    -57.2365881  0.112754E-07  0.959E-04    3.58      17.9  T
   4    -57.2365881 -0.184740E-07  0.220E-04    3.58      78.1  T
     SCC iter.                  ...        0 min,  0.155 sec
     gradient                   ...        0 min,  0.001 sec
 * total energy  :   -56.4796335 Eh     change       -0.3157742E-05 Eh
   gradient norm :     0.0011716 Eh/α   predicted    -0.2584276E-05 ( -18.16%)
   displ. norm   :     0.0196914 α      lambda       -0.3811904E-05
   maximum displ.:     0.0088039 α      in ANC's #3, #4, #7, ...

........................................................................
.............................. CYCLE   19 ..............................
........................................................................

 iter      E             dE          RMSdq      gap      omega  full diag
   1    -57.2367448 -0.572367E+02  0.965E-03    3.58       0.0  T
   2    -57.2367449 -0.556470E-07  0.580E-03    3.58       3.0  T
   3    -57.2367448  0.115333E-06  0.190E-03    3.58       9.0  T
   4    -57.2367449 -0.138433E-06  0.404E-04    3.58      42.5  T
   5    -57.2367449 -0.367676E-08  0.172E-04    3.58      99.9  T
     SCC iter.                  ...        0 min,  0.162 sec
     gradient                   ...        0 min,  0.003 sec
 * total energy  :   -56.4796347 Eh     change       -0.1258083E-05 Eh
   gradient norm :     0.0013171 Eh/α   predicted    -0.1910381E-05 (  51.85%)
   displ. norm   :     0.0141202 α      lambda       -0.2517951E-05
   maximum displ.:     0.0094556 α      in ANC's #3, #2, #6, ...

........................................................................
.............................. CYCLE   20 ..............................
........................................................................

 iter      E             dE          RMSdq      gap      omega  full diag
   1    -57.2368753 -0.572369E+02  0.600E-03    3.59       0.0  T
   2    -57.2368753 -0.384931E-07  0.355E-03    3.59       4.8  T
   3    -57.2368753  0.106269E-07  0.835E-04    3.59      20.5  T
   4    -57.2368753 -0.142679E-07  0.231E-04    3.59      74.2  T
     SCC iter.                  ...        0 min,  0.045 sec
     gradient                   ...        0 min,  0.008 sec
 * total energy  :   -56.4796366 Eh     change       -0.1898034E-05 Eh
   gradient norm :     0.0007237 Eh/α   predicted    -0.1262601E-05 ( -33.48%)
   displ. norm   :     0.0178347 α      lambda       -0.1411159E-05
   maximum displ.:     0.0109649 α      in ANC's #3, #4, #2, ...

   *** GEOMETRY OPTIMIZATION CONVERGED AFTER 20 ITERATIONS ***

------------------------------------------------------------------------
 total energy gain   :        -0.6979943 Eh     -437.9980 kcal/mol
 total RMSD          :         0.3600025 a0        0.1905 Å
 total power (kW/mol):       -91.6291902 (step) -421.1277 (real)
------------------------------------------------------------------------

 ANCopt (total)                0 d,  0 h,  0 min,  4.352 sec
 optimizer setup                ...        0 min,  0.000 sec (  0.001%)
 model hessian                  ...        0 min,  0.007 sec (  0.169%)
 ANC generation                 ...        0 min,  0.006 sec (  0.133%)
 coordinate transformation      ...        0 min,  0.000 sec (  0.005%)
 single point calculation       ...        0 min,  4.280 sec ( 98.350%)
 optimization log               ...        0 min,  0.002 sec (  0.044%)
 hessian update                 ...        0 min,  0.037 sec (  0.845%)
 rational function              ...        0 min,  0.008 sec (  0.195%)

================
 final structure:
================
34
 xtb: 6.7.1-6.fc44.fc44
O           -4.72523583032676        0.57016436331764       -0.50219034041465
C           -4.60557696029000        1.63247662478845       -1.27366307190429
O           -5.37611446687018        2.55050084105427       -1.25432019161568
H           -3.96992542445458       -0.07137709261458       -0.62112434518174
C           -3.40071374998046        1.60058525576806       -2.24042133932218
H           -3.41515948973288        2.50605323890971       -2.84481588573045
H           -3.52568565807787        0.72460249338274       -2.89028874222658
N           -2.12653865418110        1.50728374314638       -1.55535840747419
H           -1.47697686439753        2.28213917633466       -1.58555380359127
C           -1.69306218319874        0.39894146918769       -0.94510225567587
O           -2.38404024401994       -0.60589744114060       -0.81157003104209
C           -0.25877705842771        0.48619818749006       -0.43728613663825
H            0.36903260692450       -0.00342163416045       -1.19279113702033
N            0.15551063851059        1.88101065371659       -0.36229863981869
H            1.16095110931154        1.93044657211271       -0.23835473573288
H           -0.26579613974794        2.31659152846019        0.45403831965156
C           -0.12145322826443       -0.28875416299321        0.89051886997993
H           -0.52991077928766       -1.28940333035347        0.74403086809582
H           -0.71540743873139        0.21561548895769        1.65729683622621
C            1.30652003638871       -0.36127976758377        1.31123109534924
C            1.92716827162128        0.38266239626873        2.27148008237979
H            1.51216998799773        1.11724160522797        2.93601866432207
N            3.25864869624316        0.06548300038700        2.32884542132131
H            3.92355423431179        0.45509593090071        2.97440174634200
C            3.52498500905278       -0.89699204354246        1.39818591687405
C            4.71433253466276       -1.53720624207681        1.07349097843402
H            5.63319568230648       -1.30441581817558        1.59182011555560
C            4.67655370533479       -2.47940177037888        0.06872287641047
H            5.58246090108408       -2.99732344084509       -0.20933005030133
C            3.48672978892415       -2.78475936289059       -0.59868569629963
H            3.50225936751687       -3.53353780071562       -1.37670408172837
C            2.30493865986699       -2.15479262941658       -0.28193963625993
H            1.38830972757772       -2.40247921268333       -0.79654881038311
C            2.31363737030636       -1.19226412415031        0.72785314015556

 Bond Distances (Angstroems)
 ---------------------------
O1-C2=1.3183         O1-H4=0.9981         C2-O1=1.3183         C2-O3=1.1987         C2-C5=1.5451         O3-C2=1.1987         
H4-O1=0.9981         C5-C2=1.5451         C5-H6=1.0887         C5-H7=1.0979         C5-N8=1.4497         H6-C5=1.0887         
H7-C5=1.0979         N8-C5=1.4497         N8-H9=1.0116         N8-C10=1.3374        H9-N8=1.0116         C10-N8=1.3374        
C10-O11=1.2268       C10-C12=1.5240       O11-C10=1.2268       C12-C10=1.5240       C12-H13=1.0976       C12-N14=1.4570       
C12-C17=1.5435       H13-C12=1.0976       N14-C12=1.4570       N14-H15=1.0143       N14-H16=1.0167       H15-N14=1.0143       
H16-N14=1.0167       C17-C12=1.5435       C17-H18=1.0907       C17-H19=1.0932       C17-C20=1.4904       H18-C17=1.0907       
H19-C17=1.0932       C20-C17=1.4904       C20-C21=1.3641       C20-C34=1.4301       C21-C20=1.3641       C21-H22=1.0740       
C21-N23=1.3699       H22-C21=1.0740       N23-C21=1.3699       N23-H24=1.0053       N23-C25=1.3651       H24-N23=1.0053       
C25-N23=1.3651       C25-C26=1.3892       C25-C34=1.4156       C26-C25=1.3892       C26-H27=1.0804       C26-C28=1.3779       
H27-C26=1.0804       C28-C26=1.3779       C28-H29=1.0799       C28-C30=1.3980       H29-C28=1.0799       C30-C28=1.3980       
C30-H31=1.0799       C30-C32=1.3762       H31-C30=1.0799       C32-C30=1.3762       C32-H33=1.0800       C32-C34=1.3951       
H33-C32=1.0800       C34-C20=1.4301       C34-C25=1.4156       C34-C32=1.3951       
 C  H  Rav=1.0862 sigma=0.0080  Rmin=1.0740  Rmax=1.0979    10
 C  C  Rav=1.4374 sigma=0.0659  Rmin=1.3641  Rmax=1.5451    12
 N  H  Rav=1.0119 sigma=0.0042  Rmin=1.0053  Rmax=1.0167     4
 N  C  Rav=1.3958 sigma=0.0483  Rmin=1.3374  Rmax=1.4570     5
 O  H  Rav=0.9981 sigma=0.0000  Rmin=0.9981  Rmax=0.9981     1
 O  C  Rav=1.2479 sigma=0.0511  Rmin=1.1987  Rmax=1.3183     3

 selected bond angles (degree)
 --------------------
H4-O1-C2=112.30                O3-C2-O1=123.32                C5-C2-O1=114.85                C5-C2-O3=121.81                
H6-C5-C2=108.65                H7-C5-C2=107.34                H7-C5-H6=109.48                N8-C5-C2=113.02                
N8-C5-H6=109.12                N8-C5-H7=109.17                H9-N8-C5=120.07                C10-N8-C5=123.63               
C10-N8-H9=116.12               O11-C10-N8=123.09              C12-C10-N8=114.18              C12-C10-O11=122.73             

 selected dihedral angles (degree)
 ---------------------------------
O3-C2-O1-H4=182.83            C5-C2-O1-H4=  4.01            H6-C5-C2-O1=178.37            H6-C5-C2-O3=359.54            
H7-C5-C2-O1= 60.07            H7-C5-C2-O3=241.24            N8-C5-C2-O1=299.64            N8-C5-C2-O3=120.80            
H9-N8-C5-C2=247.28            H9-N8-C5-H6=  8.28            H9-N8-C5-H7=127.89            C10-N8-C5-C2= 72.36           
C10-N8-C5-H6=193.36           C10-N8-C5-H7=312.98           O11-C10-N8-C5=353.58          O11-C10-N8-H9=178.48          
C12-C10-N8-C5=173.12          C12-C10-N8-H9=358.02          
           -------------------------------------------------
          |                Final Singlepoint                |
           -------------------------------------------------

          ...................................................
          :                      SETUP                      :
          :.................................................:
          :  # basis functions                  91          :
          :  # atomic orbitals                  91          :
          :  # shells                           53          :
          :  # electrons                       100          :
          :  max. iterations                   250          :
          :  Hamiltonian                  GFN2-xTB          :
          :  restarted?                      false          :
          :  GBSA solvation                  false          :
          :  PC potential                    false          :
          :  electronic temp.          300.0000000     K    :
          :  accuracy                    1.0000000          :
          :  -> integral cutoff          0.2500000E+02      :
          :  -> integral neglect         0.1000000E-07      :
          :  -> SCF convergence          0.1000000E-05 Eh   :
          :  -> wf. convergence          0.1000000E-03 e    :
          :  Broyden damping             0.4000000          :
          :  net charge                          0          :
          :  unpaired electrons                  0          :
          ...................................................

 iter      E             dE          RMSdq      gap      omega  full diag
   1    -57.2368753 -0.572369E+02  0.938E-05    3.59       0.0  T
   2    -57.2368753 -0.321947E-10  0.616E-05    3.59     278.4  T
   3    -57.2368753 -0.220552E-10  0.409E-05    3.59     419.0  T

   *** convergence criteria satisfied after 3 iterations ***

         #    Occupation            Energy/Eh            Energy/eV
      -------------------------------------------------------------
         1        2.0000           -0.7358394             -20.0232
       ...           ...                  ...                  ...
        44        2.0000           -0.4257113             -11.5842
        45        2.0000           -0.4246036             -11.5541
        46        2.0000           -0.4198255             -11.4240
        47        2.0000           -0.4034225             -10.9777
        48        2.0000           -0.3995198             -10.8715
        49        2.0000           -0.3892280             -10.5914
        50        2.0000           -0.3708271             -10.0907 (HOMO)
        51                         -0.2390508              -6.5049 (LUMO)
        52                         -0.2342041              -6.3730
        53                         -0.2311189              -6.2891
        54                         -0.2042009              -5.5566
        55                         -0.1669313              -4.5424
       ...                                ...                  ...
        91                          0.7114784              19.3603
      -------------------------------------------------------------
                  HL-Gap            0.1317763 Eh            3.5858 eV
             Fermi-level           -0.3049389 Eh           -8.2978 eV

 SCC (total)                   0 d,  0 h,  0 min,  0.143 sec
 SCC setup                      ...        0 min,  0.005 sec (  3.349%)
 Dispersion                     ...        0 min,  0.011 sec (  7.455%)
 classical contributions        ...        0 min,  0.006 sec (  3.850%)
 integral evaluation            ...        0 min,  0.012 sec (  8.550%)
 iterations                     ...        0 min,  0.108 sec ( 75.635%)
 molecular gradient             ...        0 min,  0.001 sec (  0.922%)
 printout                       ...        0 min,  0.000 sec (  0.229%)

         :::::::::::::::::::::::::::::::::::::::::::::::::::::
         ::                     SUMMARY                     ::
         :::::::::::::::::::::::::::::::::::::::::::::::::::::
         :: total energy             -56.479636616283 Eh    ::
         :: gradient norm              0.000724078193 Eh/a0 ::
         :: HOMO-LUMO gap              3.585816194177 eV    ::
         ::.................................................::
         :: SCC energy               -57.236850757175 Eh    ::
         :: -> isotropic ES            0.097965693755 Eh    ::
         :: -> anisotropic ES          0.003995045658 Eh    ::
         :: -> anisotropic XC          0.019254713293 Eh    ::
         :: -> dispersion             -0.033819709365 Eh    ::
         :: repulsion energy           0.757214140892 Eh    ::
         :: add. restraining           0.000000000000 Eh    ::
         :: total charge               0.000000000000 e     ::
         :::::::::::::::::::::::::::::::::::::::::::::::::::::

           -------------------------------------------------
          |                Property Printout                |
           -------------------------------------------------

    * Orbital Energies and Occupations

         #    Occupation            Energy/Eh            Energy/eV
      -------------------------------------------------------------
         1        2.0000           -0.7358394             -20.0232
       ...           ...                  ...                  ...
        38        2.0000           -0.4671364             -12.7114
        39        2.0000           -0.4645684             -12.6415
        40        2.0000           -0.4613623             -12.5543
        41        2.0000           -0.4557920             -12.4027
        42        2.0000           -0.4466196             -12.1531
        43        2.0000           -0.4329319             -11.7807
        44        2.0000           -0.4257113             -11.5842
        45        2.0000           -0.4246036             -11.5541
        46        2.0000           -0.4198255             -11.4240
        47        2.0000           -0.4034225             -10.9777
        48        2.0000           -0.3995198             -10.8715
        49        2.0000           -0.3892280             -10.5914
        50        2.0000           -0.3708271             -10.0907 (HOMO)
        51                         -0.2390508              -6.5049 (LUMO)
        52                         -0.2342041              -6.3730
        53                         -0.2311189              -6.2891
        54                         -0.2042009              -5.5566
        55                         -0.1669313              -4.5424
        56                         -0.0783637              -2.1324
        57                         -0.0213812              -0.5818
        58                          0.0111822               0.3043
        59                          0.0267592               0.7282
        60                          0.0636667               1.7325
        61                          0.0795293               2.1641
       ...                                ...                  ...
        91                          0.7114784              19.3603
      -------------------------------------------------------------
                  HL-Gap            0.1317763 Eh            3.5858 eV
             Fermi-level           -0.3049389 Eh           -8.2978 eV

     #   Z          covCN         q      C6AA      α(0)
     1   8 O        1.655    -0.375    20.372     6.093
     2   6 C        2.684     0.358    20.923     7.486
     3   8 O        0.856    -0.378    21.239     6.179
     4   1 H        0.800     0.365     0.555     1.171
     5   6 C        3.737    -0.040    21.366     6.596
     6   1 H        0.925     0.078     1.998     2.211
     7   1 H        0.924     0.076     2.021     2.223
     8   7 N        2.687    -0.165    24.562     7.361
     9   1 H        0.860     0.205     1.082     1.629
    10   6 C        2.755     0.262    22.590     7.783
    11   8 O        0.859    -0.458    22.878     6.413
    12   6 C        3.789     0.027    20.132     6.390
    13   1 H        0.924     0.062     2.177     2.307
    14   7 N        2.631    -0.356    29.177     8.022
    15   1 H        0.860     0.154     1.376     1.837
    16   1 H        0.860     0.147     1.418     1.866
    17   6 C        3.805    -0.064    21.733     6.637
    18   1 H        0.924     0.066     2.128     2.281
    19   1 H        0.924     0.035     2.522     2.484
    20   6 C        3.056    -0.032    28.746     8.793
    21   6 C        3.032    -0.010    28.231     8.715
    22   1 H        0.926     0.027     2.629     2.536
    23   7 N        2.777    -0.108    23.360     7.178
    24   1 H        0.860     0.157     1.352     1.822
    25   6 C        3.086     0.044    26.913     8.504
    26   6 C        2.908    -0.053    29.320     8.879
    27   1 H        0.926     0.023     2.685     2.562
    28   6 C        2.925    -0.035    28.882     8.813
    29   1 H        0.926     0.029     2.603     2.523
    30   6 C        2.920    -0.041    29.015     8.833
    31   1 H        0.926     0.028     2.616     2.529
    32   6 C        2.911    -0.037    28.921     8.818
    33   1 H        0.926     0.030     2.588     2.516
    34   6 C        3.118    -0.021    28.352     8.721

 Mol. C6AA /au·bohr⁶  :      13326.794142
 Mol. C8AA /au·bohr⁸  :     312370.287603
 Mol. α(0) /au        :        178.710925


Wiberg/Mayer (AO) data.
largest (>0.10) Wiberg bond orders for each atom

 ---------------------------------------------------------------------------
     #   Z sym  total        # sym  WBO       # sym  WBO       # sym  WBO
 ---------------------------------------------------------------------------
     1   8 O    2.233 --     2 C    1.200     4 H    0.771     3 O    0.183
     2   6 C    3.932 --     3 O    1.774     1 O    1.200     5 C    0.925
     3   8 O    2.066 --     2 C    1.774     1 O    0.183
     4   1 H    0.867 --     1 O    0.771
     5   6 C    3.963 --     8 N    0.990     6 H    0.974     7 H    0.952
                             2 C    0.925
     6   1 H    0.994 --     5 C    0.974
     7   1 H    0.994 --     5 C    0.952
     8   7 N    3.476 --    10 C    1.307     5 C    0.990     9 H    0.915
                            11 O    0.193
     9   1 H    0.958 --     8 N    0.915
    10   6 C    3.948 --    11 O    1.606     8 N    1.307    12 C    0.951
    11   8 O    2.009 --    10 C    1.606     8 N    0.193
    12   6 C    3.982 --    14 N    1.018    17 C    0.960    10 C    0.951
                            13 H    0.942
    13   1 H    0.996 --    12 C    0.942
    14   7 N    3.028 --    12 C    1.018    16 H    0.962    15 H    0.959
    15   1 H    0.976 --    14 N    0.959
    16   1 H    0.978 --    14 N    0.962
    17   6 C    3.993 --    20 C    1.019    19 H    0.974    18 H    0.962
                            12 C    0.960
    18   1 H    0.996 --    17 C    0.962
    19   1 H    0.998 --    17 C    0.974
    20   6 C    3.976 --    21 C    1.583    34 C    1.200    17 C    1.019
    21   6 C    3.947 --    20 C    1.583    23 N    1.190    22 H    0.970
    22   1 H    0.998 --    21 C    0.970
    23   7 N    3.538 --    21 C    1.190    25 C    1.176    24 H    0.948
    24   1 H    0.975 --    23 N    0.948
    25   6 C    3.959 --    26 C    1.337    34 C    1.251    23 N    1.176
    26   6 C    3.989 --    28 C    1.494    25 C    1.337    27 H    0.969
                            32 C    0.114
    27   1 H    0.999 --    26 C    0.969
    28   6 C    3.991 --    26 C    1.494    30 C    1.371    29 H    0.972
    29   1 H    0.999 --    28 C    0.972
    30   6 C    3.991 --    32 C    1.505    28 C    1.371    31 H    0.972
    31   1 H    0.999 --    30 C    0.972
    32   6 C    3.992 --    30 C    1.505    34 C    1.331    33 H    0.969
                            26 C    0.114
    33   1 H    0.999 --    32 C    0.969
    34   6 C    3.984 --    32 C    1.331    25 C    1.251    20 C    1.200
 ---------------------------------------------------------------------------

Topologies differ in total number of bonds
Writing topology from bond orders to xtbtopo.mol

molecular dipole:
                 x           y           z       tot (Debye)
 q only:        2.246       0.485       0.050
   full:        3.013       0.527       0.372       7.833
molecular quadrupole (traceless):
                xx          xy          yy          xz          yz          zz
 q only:      -22.792      14.151       4.077       6.403       0.219      18.715
  q+dip:      -26.139      17.808       2.468       9.655       6.811      23.671
   full:      -27.244      18.501       2.899       9.390       4.972      24.345

           -------------------------------------------------
          |                Geometry Summary                 |
           -------------------------------------------------

      molecular mass/u    :      261.2770023
   center of mass at/Å    :       -0.0085044       0.0082056      -0.0503055
  moments of inertia/u·Å² :        0.4611816E+03   0.3421452E+04   0.3602042E+04
rotational constants/cm⁻¹ :        0.3655313E-01   0.4927040E-02   0.4680021E-02

 * 32 selected distances

     #   Z          #   Z                                           value/Å
     1   8 O        2   6 C                                       1.3183308
     2   6 C        3   8 O                                       1.1986955
     1   8 O        4   1 H                                       0.9981056 (min)
     5   6 C        6   1 H                                       1.0887488
     5   6 C        7   1 H                                       1.0978578
     5   6 C        8   7 N                                       1.4496686
     8   7 N        9   1 H                                       1.0115549
     8   7 N       10   6 C                                       1.3374369
    10   6 C       11   8 O                                       1.2267775
    12   6 C       13   1 H                                       1.0975703
    12   6 C       14   7 N                                       1.4569693
    14   7 N       15   1 H                                       1.0142567
    14   7 N       16   1 H                                       1.0166791
    17   6 C       18   1 H                                       1.0906857
    17   6 C       19   1 H                                       1.0932150
    17   6 C       20   6 C                                       1.4904250 (max)
    20   6 C       21   6 C                                       1.3640867
    21   6 C       22   1 H                                       1.0739841
    21   6 C       23   7 N                                       1.3699394
    23   7 N       24   1 H                                       1.0053063
    23   7 N       25   6 C                                       1.3650717
    25   6 C       26   6 C                                       1.3891900
    26   6 C       27   1 H                                       1.0803547
    26   6 C       28   6 C                                       1.3779401
    28   6 C       29   1 H                                       1.0799187
    28   6 C       30   6 C                                       1.3979838
    30   6 C       31   1 H                                       1.0799181
    30   6 C       32   6 C                                       1.3761602
    32   6 C       33   1 H                                       1.0799908
    20   6 C       34   6 C                                       1.4300876
    25   6 C       34   6 C                                       1.4155900
    32   6 C       34   6 C                                       1.3950694

 * 6 distinct bonds (by element types)

   Z      Z             #   av. dist./Å        max./Å        min./Å
   1 H    6 C          10     1.0862244     1.0978578     1.0739841
   6 C    6 C           9     1.4040592     1.4904250     1.3640867
   1 H    7 N           4     1.0119493     1.0166791     1.0053063
   6 C    7 N           5     1.3958172     1.4569693     1.3374369
   1 H    8 O           1     0.9981056     0.9981056     0.9981056
   6 C    8 O           3     1.2479346     1.3183308     1.1986955


optimized geometry written to: xtbopt.xyz


           -------------------------------------------------
          | TOTAL ENERGY              -56.479636616283 Eh   |
          | GRADIENT NORM               0.000724078193 Eh/α |
          | HOMO-LUMO GAP               3.585816194177 eV   |
           -------------------------------------------------

------------------------------------------------------------------------
 * finished run on 2026/10/01 at 18:04:54.306     
------------------------------------------------------------------------
 total:
 * wall-time:     0 d,  0 h,  0 min,  4.805 sec
 *  cpu-time:     0 d,  0 h,  1 min,  5.490 sec
 * ratio c/w:    13.628 speedup
 SCF:
 * wall-time:     0 d,  0 h,  0 min,  0.281 sec
 *  cpu-time:     0 d,  0 h,  0 min,  3.939 sec
 * ratio c/w:    14.002 speedup
 ANC optimizer:
 * wall-time:     0 d,  0 h,  0 min,  4.496 sec
 *  cpu-time:     0 d,  0 h,  1 min,  1.162 sec
 * ratio c/w:    13.605 speedup


--- STDERR ---
normal termination of xtb
Note: The following floating-point exceptions are signalling: IEEE_UNDERFLOW_FLAG IEEE_DENORMAL
