34
 energy: -56.479636616283 gnorm: 0.000724078193 xtb: 6.7.1-6.fc44.fc44
O           -4.72523583032676        0.57016436331764       -0.50219034041465
C           -4.60557696029000        1.63247662478845       -1.27366307190429
O           -5.37611446687018        2.55050084105427       -1.25432019161568
H           -3.96992542445458       -0.07137709261458       -0.62112434518174
C           -3.40071374998046        1.60058525576806       -2.24042133932218
H           -3.41515948973288        2.50605323890971       -2.84481588573045
H           -3.52568565807787        0.72460249338274       -2.89028874222658
N           -2.12653865418110        1.50728374314638       -1.55535840747419
H           -1.47697686439753        2.28213917633466       -1.58555380359127
C           -1.69306218319874        0.39894146918769       -0.94510225567587
O           -2.38404024401994       -0.60589744114060       -0.81157003104209
C           -0.25877705842771        0.48619818749006       -0.43728613663825
H            0.36903260692450       -0.00342163416045       -1.19279113702033
N            0.15551063851059        1.88101065371659       -0.36229863981869
H            1.16095110931154        1.93044657211271       -0.23835473573288
H           -0.26579613974794        2.31659152846019        0.45403831965156
C           -0.12145322826443       -0.28875416299321        0.89051886997993
H           -0.52991077928766       -1.28940333035347        0.74403086809582
H           -0.71540743873139        0.21561548895769        1.65729683622621
C            1.30652003638871       -0.36127976758377        1.31123109534924
C            1.92716827162128        0.38266239626873        2.27148008237979
H            1.51216998799773        1.11724160522797        2.93601866432207
N            3.25864869624316        0.06548300038700        2.32884542132131
H            3.92355423431179        0.45509593090071        2.97440174634200
C            3.52498500905278       -0.89699204354246        1.39818591687405
C            4.71433253466276       -1.53720624207681        1.07349097843402
H            5.63319568230648       -1.30441581817558        1.59182011555560
C            4.67655370533479       -2.47940177037888        0.06872287641047
H            5.58246090108408       -2.99732344084509       -0.20933005030133
C            3.48672978892415       -2.78475936289059       -0.59868569629963
H            3.50225936751687       -3.53353780071562       -1.37670408172837
C            2.30493865986699       -2.15479262941658       -0.28193963625993
H            1.38830972757772       -2.40247921268333       -0.79654881038311
C            2.31363737030636       -1.19226412415031        0.72785314015556
