34
frame_0060
O      -2.105393299600000      2.737371597700000     -0.168944781600000
C      -2.656041151000000      2.514557846800000     -1.345631841400000
O      -2.574110301900000      3.276256496300000     -2.266737222600000
H      -2.249083610000000      1.979266504900000      0.463101902100000
C      -3.464251449100000      1.200575233400000     -1.448326609200000
H      -3.880593777700000      1.128960673800000     -2.452022638900000
H      -4.281805001900000      1.266652461300000     -0.717966106700000
N      -2.671237715500000      0.017736507000000     -1.176470926900000
H      -2.552575848600000     -0.674657184100000     -1.902618560100000
C      -2.244205979800000     -0.322229692900000      0.044009752600000
O      -2.382021998700000      0.402167743500000      1.024984668100000
C      -1.563672796400000     -1.682028664100000      0.093874462700000
H      -1.539341845900000     -2.009634301600000      1.145723545800000
N      -2.305766947200000     -2.581785003900000     -0.786775662600000
H      -3.230522227700000     -2.763923136400000     -0.410160601800000
H      -1.826905548700000     -3.472776307100000     -0.862545556800000
C      -0.121655460900000     -1.569351879200000     -0.425124215600000
H      -0.132247535500000     -1.070577722700000     -1.399831571000000
H       0.252711150700000     -2.584974268600000     -0.591683179600000
C       0.829079075500000     -0.866562703200000      0.491303139200000
C       0.577511937500000     -0.119171218800000      1.603997398700000
H      -0.357961501700000      0.136399066300000      2.060429225900000
N       1.752642244600000      0.330285422100000      2.142798698700000
H       1.827577355600000      0.918437647200000      2.954631118200000
C       2.793794839400000     -0.116252485700000      1.384715086200000
C       4.163276571700000      0.069442660500000      1.525186468200000
H       4.565238322000000      0.657518955800000      2.337218404300000
C       4.986397336800000     -0.522120293100000      0.591895760000000
H       6.056391025000000     -0.398582045800000      0.670268855100000
C       4.464500267300000     -1.281554785600000     -0.459136141200000
H       5.145529809100000     -1.727372543300000     -1.169278806900000
C       3.108567469300000     -1.468533400900000     -0.604363855700000
H       2.715762477400000     -2.054870697800000     -1.422082459700000
C       2.250512559200000     -0.882789263300000      0.326217584400000
