      -----------------------------------------------------------      
     |                   =====================                   |     
     |                           x T B                           |     
     |                   =====================                   |     
     |                         S. Grimme                         |     
     |          Mulliken Center for Theoretical Chemistry        |     
     |                    University of Bonn                     |     
      -----------------------------------------------------------      

   * xtb version 6.7.1-6.fc44.fc44 compiled by Fedora project on Sun Jan 18 23:32:34 UTC 2026

   xtb is free software: you can redistribute it and/or modify it under
   the terms of the GNU Lesser General Public License as published by
   the Free Software Foundation, either version 3 of the License, or
   (at your option) any later version.
   
   xtb is distributed in the hope that it will be useful,
   but WITHOUT ANY WARRANTY; without even the implied warranty of
   MERCHANTABILITY or FITNESS FOR A PARTICULAR PURPOSE.  See the
   GNU Lesser General Public License for more details.
   
   Cite this work as:
   * C. Bannwarth, E. Caldeweyher, S. Ehlert, A. Hansen, P. Pracht,
     J. Seibert, S. Spicher, S. Grimme, WIREs Comput. Mol. Sci., 2020, 11,
     e01493. DOI: 10.1002/wcms.1493
   
   for GFN2-xTB:
   * C. Bannwarth, S. Ehlert and S. Grimme., J. Chem. Theory Comput., 2019,
     15, 1652-1671. DOI: 10.1021/acs.jctc.8b01176
   for GFN1-xTB:
   * S. Grimme, C. Bannwarth, P. Shushkov, J. Chem. Theory Comput., 2017,
     13, 1989-2009. DOI: 10.1021/acs.jctc.7b00118
   for GFN0-xTB:
   * P. Pracht, E. Caldeweyher, S. Ehlert, S. Grimme, ChemRxiv, 2019, preprint.
     DOI: 10.26434/chemrxiv.8326202.v1
   for GFN-FF:
   * S. Spicher and S. Grimme, Angew. Chem. Int. Ed., 2020, 59, 15665-15673.
     DOI: 10.1002/anie.202004239
   
   for ALPB and GBSA implicit solvation:
   * S. Ehlert, M. Stahn, S. Spicher, S. Grimme, J. Chem. Theory Comput.,
     2021, 17, 4250-4261. DOI: 10.1021/acs.jctc.1c00471
   
   for ddCOSMO and CPCM-X implicit solvation:
   * M. Stahn, S. Ehlert, S. Grimme, J. Phys. Chem. A,
     2023, XX, XXXX-XXXX. DOI: 10.1021/acs.jpca.3c04382
   
   for DFT-D4:
   * E. Caldeweyher, C. Bannwarth and S. Grimme, J. Chem. Phys., 2017,
     147, 034112. DOI: 10.1063/1.4993215
   * E. Caldeweyher, S. Ehlert, A. Hansen, H. Neugebauer, S. Spicher,
     C. Bannwarth and S. Grimme, J. Chem. Phys., 2019, 150, 154122.
     DOI: 10.1063/1.5090222
   * E. Caldeweyher, J.-M. Mewes, S. Ehlert and S. Grimme, Phys. Chem. Chem. Phys.
     2020, 22, 8499-8512. DOI: 10.1039/D0CP00502A
   
   for sTDA-xTB:
   * S. Grimme and C. Bannwarth, J. Chem. Phys., 2016, 145, 054103.
     DOI: 10.1063/1.4959605
   
   in the mass-spec context:
   * V. Asgeirsson, C. Bauer and S. Grimme, Chem. Sci., 2017, 8, 4879.
     DOI: 10.1039/c7sc00601b
   * J. Koopman and S. Grimme, ACS Omega 2019, 4, 12, 15120-15133.
     DOI: 10.1021/acsomega.9b02011
   
   for metadynamics refer to:
   * S. Grimme, J. Chem. Theory Comput., 2019, 155, 2847-2862
     DOI: 10.1021/acs.jctc.9b00143
   
   for SPH calculations refer to:
   * S. Spicher and S. Grimme, J. Chem. Theory Comput., 2021, 17, 1701-1714
     DOI: 10.1021/acs.jctc.0c01306
   
   for ONIOM refer to:
   * C. Plett, A. Katbashev, S. Ehlert, S. Grimme, M. Bursch,
     Phys. Chem. Chem. Phys., 2023, 25, 17860-17868. DOI: 10.1039/D3CP02178E
   
   for DIPRO refer to:
   * J. Kohn, N. Gildemeister, S. Grimme, D. Fazzi, A. Hansen,
     J. Chem. Phys., 2023, just accepted.
   
   for PTB refer to:
   * S. Grimme, M. Mueller, A. Hansen, J. Chem. Phys., 2023, 158, 124111.
     DOI: 10.1063/5.0137838
   
   with help from (in alphabetical order)
   P. Atkinson, C. Bannwarth, F. Bohle, G. Brandenburg, E. Caldeweyher
   M. Checinski, S. Dohm, S. Ehlert, S. Ehrlich, I. Gerasimov, C. Hölzer
   A. Katbashev, J. Kohn, J. Koopman, C. Lavigne, S. Lehtola, F. März, M. Müller,
   F. Musil, H. Neugebauer, J. Pisarek, C. Plett, P. Pracht, F. Pultar,
   J. Seibert, P. Shushkov, S. Spicher, M. Stahn, M. Steiner, T. Strunk,
   J. Stückrath, T. Rose, and J. Unsleber
   
 * started run on 2026/10/01 at 18:03:47.060     
   ID    Z sym.   atoms
    1    8 O      1, 3, 11
    2    6 C      2, 5, 10, 12, 17, 20, 21, 25, 26, 28, 30, 32, 34
    3    1 H      4, 6, 7, 9, 13, 15, 16, 18, 19, 22, 24, 27, 29, 31, 33
    4    7 N      8, 14, 23

           -------------------------------------------------
          |                Calculation Setup                |
           -------------------------------------------------

          program call               : /usr/bin/xtb input.xyz --opt --gfn 2 --chrg 0 --uhf 0
          hostname                   : fedora
          coordinate file            : input.xyz
          omp threads                :                    16


           -------------------------------------------------
          |                 G F N 2 - x T B                 |
           -------------------------------------------------

        Reference                      10.1021/acs.jctc.8b01176
      * Hamiltonian:
        H0-scaling (s, p, d)           1.850000    2.230000    2.230000
        zeta-weighting                 0.500000
      * Dispersion:
        s8                             2.700000
        a1                             0.520000
        a2                             5.000000
        s9                             5.000000
      * Repulsion:
        kExp                           1.500000    1.000000
        rExp                           1.000000
      * Coulomb:
        alpha                          2.000000
        third order                    shell-resolved
        anisotropic                    true
        a3                             3.000000
        a5                             4.000000
        cn-shift                       1.200000
        cn-exp                         4.000000
        max-rad                        5.000000


          ...................................................
          :                      SETUP                      :
          :.................................................:
          :  # basis functions                  91          :
          :  # atomic orbitals                  91          :
          :  # shells                           53          :
          :  # electrons                       100          :
          :  max. iterations                   250          :
          :  Hamiltonian                  GFN2-xTB          :
          :  restarted?                      false          :
          :  GBSA solvation                  false          :
          :  PC potential                    false          :
          :  electronic temp.          300.0000000     K    :
          :  accuracy                    1.0000000          :
          :  -> integral cutoff          0.2500000E+02      :
          :  -> integral neglect         0.1000000E-07      :
          :  -> SCF convergence          0.1000000E-05 Eh   :
          :  -> wf. convergence          0.1000000E-03 e    :
          :  Broyden damping             0.4000000          :
          :  net charge                          0          :
          :  unpaired electrons                  0          :
          ...................................................

 iter      E             dE          RMSdq      gap      omega  full diag
   1    -57.0839946 -0.570840E+02  0.415E+00    3.23       0.0  T
   2    -57.2178489 -0.133854E+00  0.241E+00    3.58       1.0  T
   3    -57.2264224 -0.857349E-02  0.132E+00    3.61       1.0  T
   4    -57.2269182 -0.495801E-03  0.454E-01    3.27       1.0  T
   5    -57.2331269 -0.620871E-02  0.120E-01    3.29       1.0  T
   6    -57.2333282 -0.201294E-03  0.587E-02    3.29       1.0  T
   7    -57.2333673 -0.391485E-04  0.254E-02    3.29       1.0  T
   8    -57.2333679 -0.545817E-06  0.112E-02    3.29       1.5  T
   9    -57.2333699 -0.198359E-05  0.346E-03    3.29       5.0  T
  10    -57.2333699 -0.602995E-07  0.153E-03    3.29      11.2  T
  11    -57.2333699 -0.162509E-07  0.661E-04    3.29      26.0  T
  12    -57.2333699 -0.414295E-08  0.219E-04    3.29      78.2  T

   *** convergence criteria satisfied after 12 iterations ***

         #    Occupation            Energy/Eh            Energy/eV
      -------------------------------------------------------------
         1        2.0000           -0.7376732             -20.0731
       ...           ...                  ...                  ...
        44        2.0000           -0.4241508             -11.5417
        45        2.0000           -0.4151412             -11.2966
        46        2.0000           -0.4125867             -11.2271
        47        2.0000           -0.4062417             -11.0544
        48        2.0000           -0.4001388             -10.8883
        49        2.0000           -0.3800957             -10.3429
        50        2.0000           -0.3622992              -9.8587 (HOMO)
        51                         -0.2413308              -6.5669 (LUMO)
        52                         -0.2329692              -6.3394
        53                         -0.2288370              -6.2270
        54                         -0.1956053              -5.3227
        55                         -0.1554646              -4.2304
       ...                                ...                  ...
        91                          0.7195323              19.5795
      -------------------------------------------------------------
                  HL-Gap            0.1209683 Eh            3.2917 eV
             Fermi-level           -0.3018150 Eh           -8.2128 eV

 SCC (total)                   0 d,  0 h,  0 min,  0.394 sec
 SCC setup                      ...        0 min,  0.003 sec (  0.661%)
 Dispersion                     ...        0 min,  0.010 sec (  2.578%)
 classical contributions        ...        0 min,  0.004 sec (  0.935%)
 integral evaluation            ...        0 min,  0.002 sec (  0.607%)
 iterations                     ...        0 min,  0.343 sec ( 87.192%)
 molecular gradient             ...        0 min,  0.031 sec (  7.913%)
 printout                       ...        0 min,  0.000 sec (  0.104%)

         :::::::::::::::::::::::::::::::::::::::::::::::::::::
         ::                     SUMMARY                     ::
         :::::::::::::::::::::::::::::::::::::::::::::::::::::
         :: total energy             -56.475965874581 Eh    ::
         :: gradient norm              0.000233102904 Eh/a0 ::
         :: HOMO-LUMO gap              3.291716117594 eV    ::
         ::.................................................::
         :: SCC energy               -57.233078963791 Eh    ::
         :: -> isotropic ES            0.097911121039 Eh    ::
         :: -> anisotropic ES          0.003818284177 Eh    ::
         :: -> anisotropic XC          0.019424044870 Eh    ::
         :: -> dispersion             -0.034066573619 Eh    ::
         :: repulsion energy           0.757113089210 Eh    ::
         :: add. restraining           0.000000000000 Eh    ::
         :: total charge               0.000000000000 e     ::
         :::::::::::::::::::::::::::::::::::::::::::::::::::::

      ----------------------------------------------------------- 
     |                   =====================                   |
     |                        A N C O P T                        |
     |                   =====================                   |
     |               Approximate Normal Coordinate               |
     |                Rational Function Optimizer                |
      ----------------------------------------------------------- 
      ----------------------------------------------------------- 
     |                   =====================                   |
     |                        A N C O P T                        |
     |                   =====================                   |
     |               Approximate Normal Coordinate               |
     |                Rational Function Optimizer                |
      ----------------------------------------------------------- 

          ...................................................
          :                      SETUP                      :
          :.................................................:
          :   optimization level            normal          :
          :   max. optcycles                   200          :
          :   ANC micro-cycles                  20          :
          :   degrees of freedom                96          :
          :.................................................:
          :   RF solver                   davidson          :
          :   write xtbopt.log                true          :
          :   linear?                        false          :
          :   energy convergence         0.5000000E-05 Eh   :
          :   grad. convergence          0.1000000E-02 Eh/α :
          :   maxmium RF displ.          1.0000000          :
          :   Hlow (freq-cutoff)         0.1000000E-01      :
          :   Hmax (freq-cutoff)         5.0000000          :
          :   S6 in model hess.         20.0000000          :
          ...................................................

generating ANC from exact Hessian ...
Using Lindh-Hessian (1995)
 Shifting diagonal of input Hessian by    9.7028358364311222E-003
 Lowest  eigenvalues of input Hessian
    0.000000    0.000000    0.000000    0.000000    0.000000    0.000000
    0.010000    0.010253    0.010858    0.011622    0.012663    0.015031
    0.015906    0.017785    0.019145    0.019887    0.024094    0.026144
 Highest eigenvalues
    2.000981    2.013007    2.100671    2.210668    2.312332    2.369287


........................................................................
.............................. CYCLE    1 ..............................
........................................................................

 iter      E             dE          RMSdq      gap      omega  full diag
   1    -57.2333699 -0.572334E+02  0.102E-04    3.29       0.0  T
   2    -57.2333699 -0.533689E-10  0.584E-05    3.29     293.9  T
   3    -57.2333699 -0.795808E-11  0.373E-05    3.29     459.9  T
     SCC iter.                  ...        0 min,  0.096 sec
     gradient                   ...        0 min,  0.049 sec
 * total energy  :   -56.4759659 Eh     change       -0.5858425E-09 Eh
   gradient norm :     0.0002318 Eh/α   predicted     0.0000000E+00 (-100.00%)
   displ. norm   :     0.0003477 α      lambda        0.0000000E+00
   maximum displ.:     0.0001705 α      in ANC's #87, #95, #93, ...

   *** GEOMETRY OPTIMIZATION CONVERGED AFTER 1 ITERATIONS ***

------------------------------------------------------------------------
 total energy gain   :        -0.0000000 Eh       -0.0000 kcal/mol
 total RMSD          :         0.0000000 a0        0.0000 Å
 total power (kW/mol):        -0.0000015 (step)   -0.0000 (real)
------------------------------------------------------------------------

 ANCopt (total)                0 d,  0 h,  0 min,  0.179 sec
 optimizer setup                ...        0 min,  0.000 sec (  0.033%)
 model hessian                  ...        0 min,  0.007 sec (  3.696%)
 ANC generation                 ...        0 min,  0.026 sec ( 14.440%)
 coordinate transformation      ...        0 min,  0.000 sec (  0.010%)
 single point calculation       ...        0 min,  0.146 sec ( 81.625%)
 optimization log               ...        0 min,  0.000 sec (  0.049%)
 hessian update                 ...        0 min,  0.000 sec (  0.000%)
 rational function              ...        0 min,  0.000 sec (  0.026%)

================
 final structure:
================
34
 xtb: 6.7.1-6.fc44.fc44
O           -2.10539329960000        2.73737159770000       -0.16894478160000
C           -2.65604115100000        2.51455784680000       -1.34563184140000
O           -2.57411030190000        3.27625649630000       -2.26673722260000
H           -2.24908361000000        1.97926650490000        0.46310190210000
C           -3.46425144910000        1.20057523340000       -1.44832660920000
H           -3.88059377770000        1.12896067380000       -2.45202263890000
H           -4.28180500190000        1.26665246130000       -0.71796610670000
N           -2.67123771550000        0.01773650700000       -1.17647092690000
H           -2.55257584860000       -0.67465718410000       -1.90261856010000
C           -2.24420597980000       -0.32222969290000        0.04400975260000
O           -2.38202199870000        0.40216774350000        1.02498466810000
C           -1.56367279640000       -1.68202866410000        0.09387446270000
H           -1.53934184590000       -2.00963430160000        1.14572354580000
N           -2.30576694720000       -2.58178500390000       -0.78677566260000
H           -3.23052222770000       -2.76392313640000       -0.41016060180000
H           -1.82690554870000       -3.47277630710000       -0.86254555680000
C           -0.12165546090000       -1.56935187920000       -0.42512421560000
H           -0.13224753550000       -1.07057772270000       -1.39983157100000
H            0.25271115070000       -2.58497426860000       -0.59168317960000
C            0.82907907550000       -0.86656270320000        0.49130313920000
C            0.57751193750000       -0.11917121880000        1.60399739870000
H           -0.35796150170000        0.13639906630000        2.06042922590000
N            1.75264224460000        0.33028542210000        2.14279869870000
H            1.82757735560000        0.91843764720000        2.95463111820000
C            2.79379483940000       -0.11625248570000        1.38471508620000
C            4.16327657170000        0.06944266050000        1.52518646820000
H            4.56523832200000        0.65751895580000        2.33721840430000
C            4.98639733680000       -0.52212029310000        0.59189576000000
H            6.05639102500000       -0.39858204580000        0.67026885510000
C            4.46450026730000       -1.28155478560000       -0.45913614120000
H            5.14552980910000       -1.72737254330000       -1.16927880690000
C            3.10856746930000       -1.46853340090000       -0.60436385570000
H            2.71576247740000       -2.05487069780000       -1.42208245970000
C            2.25051255920000       -0.88278926330000        0.32621758440000

 Bond Distances (Angstroems)
 ---------------------------
O1-C2=1.3181         O1-H4=0.9974         C2-O1=1.3181         C2-O3=1.1981         C2-C5=1.5461         O3-C2=1.1981         
H4-O1=0.9974         C5-C2=1.5461         C5-H6=1.0890         C5-H7=1.0983         C5-N8=1.4498         H6-C5=1.0890         
H7-C5=1.0983         N8-C5=1.4498         N8-H9=1.0103         N8-C10=1.3370        H9-N8=1.0103         C10-N8=1.3370        
C10-O11=1.2272       C10-C12=1.5214       O11-C10=1.2272       C12-C10=1.5214       C12-H13=1.1020       C12-N14=1.4614       
C12-C17=1.5367       H13-C12=1.1020       N14-C12=1.4614       N14-H15=1.0150       N14-H16=1.0144       H15-N14=1.0150       
H16-N14=1.0144       C17-C12=1.5367       C17-H18=1.0950       C17-H19=1.0952       C17-C20=1.4959       H18-C17=1.0950       
H19-C17=1.0952       C20-C17=1.4959       C20-C21=1.3638       C20-C34=1.4311       C21-C20=1.3638       C21-H22=1.0718       
C21-N23=1.3687       H22-C21=1.0718       N23-C21=1.3687       N23-H24=1.0053       N23-C25=1.3631       H24-N23=1.0053       
C25-N23=1.3631       C25-C26=1.3891       C25-C34=1.4153       C26-C25=1.3891       C26-H27=1.0802       C26-C28=1.3779       
H27-C26=1.0802       C28-C26=1.3779       C28-H29=1.0799       C28-C30=1.3978       H29-C28=1.0799       C30-C28=1.3978       
C30-H31=1.0802       C30-C32=1.3764       H31-C30=1.0802       C32-C30=1.3764       C32-H33=1.0802       C32-C34=1.3948       
H33-C32=1.0802       C34-C20=1.4311       C34-C25=1.4153       C34-C32=1.3948       
 C  H  Rav=1.0872 sigma=0.0095  Rmin=1.0718  Rmax=1.1020    10
 C  C  Rav=1.4372 sigma=0.0652  Rmin=1.3638  Rmax=1.5461    12
 N  H  Rav=1.0112 sigma=0.0039  Rmin=1.0053  Rmax=1.0150     4
 N  C  Rav=1.3960 sigma=0.0500  Rmin=1.3370  Rmax=1.4614     5
 O  H  Rav=0.9974 sigma=0.0000  Rmin=0.9974  Rmax=0.9974     1
 O  C  Rav=1.2478 sigma=0.0511  Rmin=1.1981  Rmax=1.3181     3

 selected bond angles (degree)
 --------------------
H4-O1-C2=112.15                O3-C2-O1=123.39                C5-C2-O1=114.92                C5-C2-O3=121.67                
H6-C5-C2=108.48                H7-C5-C2=107.09                H7-C5-H6=109.41                N8-C5-C2=113.27                
N8-C5-H6=109.17                N8-C5-H7=109.36                H9-N8-C5=119.25                C10-N8-C5=123.60               
C10-N8-H9=116.38               O11-C10-N8=122.94              C12-C10-N8=113.58              C12-C10-O11=123.48             

 selected dihedral angles (degree)
 ---------------------------------
O3-C2-O1-H4=182.15            C5-C2-O1-H4=  3.89            H6-C5-C2-O1=179.26            H6-C5-C2-O3=  0.96            
H7-C5-C2-O1= 61.27            H7-C5-C2-O3=242.97            N8-C5-C2-O1=300.62            N8-C5-C2-O3=122.33            
H9-N8-C5-C2=242.04            H9-N8-C5-H6=  3.02            H9-N8-C5-H7=122.69            C10-N8-C5-C2= 72.50           
C10-N8-C5-H6=193.48           C10-N8-C5-H7=313.15           O11-C10-N8-C5=353.10          O11-C10-N8-H9=183.29          
C12-C10-N8-C5=173.61          C12-C10-N8-H9=  3.80          
           -------------------------------------------------
          |                Final Singlepoint                |
           -------------------------------------------------

          ...................................................
          :                      SETUP                      :
          :.................................................:
          :  # basis functions                  91          :
          :  # atomic orbitals                  91          :
          :  # shells                           53          :
          :  # electrons                       100          :
          :  max. iterations                   250          :
          :  Hamiltonian                  GFN2-xTB          :
          :  restarted?                      false          :
          :  GBSA solvation                  false          :
          :  PC potential                    false          :
          :  electronic temp.          300.0000000     K    :
          :  accuracy                    1.0000000          :
          :  -> integral cutoff          0.2500000E+02      :
          :  -> integral neglect         0.1000000E-07      :
          :  -> SCF convergence          0.1000000E-05 Eh   :
          :  -> wf. convergence          0.1000000E-03 e    :
          :  Broyden damping             0.4000000          :
          :  net charge                          0          :
          :  unpaired electrons                  0          :
          ...................................................

 iter      E             dE          RMSdq      gap      omega  full diag
   1    -57.2333699 -0.572334E+02  0.113E-05    3.29       0.0  T
   2    -57.2333699 -0.454747E-12  0.786E-06    3.29    2181.6  T
   3    -57.2333699 -0.110134E-11  0.493E-06    3.29    3479.4  T

   *** convergence criteria satisfied after 3 iterations ***

         #    Occupation            Energy/Eh            Energy/eV
      -------------------------------------------------------------
         1        2.0000           -0.7376751             -20.0732
       ...           ...                  ...                  ...
        44        2.0000           -0.4241513             -11.5417
        45        2.0000           -0.4151409             -11.2966
        46        2.0000           -0.4125862             -11.2270
        47        2.0000           -0.4062419             -11.0544
        48        2.0000           -0.4001390             -10.8883
        49        2.0000           -0.3800953             -10.3429
        50        2.0000           -0.3622987              -9.8586 (HOMO)
        51                         -0.2413309              -6.5669 (LUMO)
        52                         -0.2329706              -6.3395
        53                         -0.2288365              -6.2270
        54                         -0.1956050              -5.3227
        55                         -0.1554639              -4.2304
       ...                                ...                  ...
        91                          0.7195325              19.5795
      -------------------------------------------------------------
                  HL-Gap            0.1209678 Eh            3.2917 eV
             Fermi-level           -0.3018148 Eh           -8.2128 eV

 SCC (total)                   0 d,  0 h,  0 min,  0.100 sec
 SCC setup                      ...        0 min,  0.005 sec (  4.785%)
 Dispersion                     ...        0 min,  0.008 sec (  7.858%)
 classical contributions        ...        0 min,  0.005 sec (  4.960%)
 integral evaluation            ...        0 min,  0.012 sec ( 11.821%)
 iterations                     ...        0 min,  0.059 sec ( 58.977%)
 molecular gradient             ...        0 min,  0.011 sec ( 10.778%)
 printout                       ...        0 min,  0.000 sec (  0.374%)

         :::::::::::::::::::::::::::::::::::::::::::::::::::::
         ::                     SUMMARY                     ::
         :::::::::::::::::::::::::::::::::::::::::::::::::::::
         :: total energy             -56.475965875186 Eh    ::
         :: gradient norm              0.000232042067 Eh/a0 ::
         :: HOMO-LUMO gap              3.291700283138 eV    ::
         ::.................................................::
         :: SCC energy               -57.233078964397 Eh    ::
         :: -> isotropic ES            0.097910527377 Eh    ::
         :: -> anisotropic ES          0.003818376699 Eh    ::
         :: -> anisotropic XC          0.019423895179 Eh    ::
         :: -> dispersion             -0.034066588418 Eh    ::
         :: repulsion energy           0.757113089210 Eh    ::
         :: add. restraining           0.000000000000 Eh    ::
         :: total charge              -0.000000000000 e     ::
         :::::::::::::::::::::::::::::::::::::::::::::::::::::

           -------------------------------------------------
          |                Property Printout                |
           -------------------------------------------------

    * Orbital Energies and Occupations

         #    Occupation            Energy/Eh            Energy/eV
      -------------------------------------------------------------
         1        2.0000           -0.7376751             -20.0732
       ...           ...                  ...                  ...
        38        2.0000           -0.4664477             -12.6927
        39        2.0000           -0.4641589             -12.6304
        40        2.0000           -0.4528749             -12.3234
        41        2.0000           -0.4515255             -12.2866
        42        2.0000           -0.4469154             -12.1612
        43        2.0000           -0.4271224             -11.6226
        44        2.0000           -0.4241513             -11.5417
        45        2.0000           -0.4151409             -11.2966
        46        2.0000           -0.4125862             -11.2270
        47        2.0000           -0.4062419             -11.0544
        48        2.0000           -0.4001390             -10.8883
        49        2.0000           -0.3800953             -10.3429
        50        2.0000           -0.3622987              -9.8586 (HOMO)
        51                         -0.2413309              -6.5669 (LUMO)
        52                         -0.2329706              -6.3395
        53                         -0.2288365              -6.2270
        54                         -0.1956050              -5.3227
        55                         -0.1554639              -4.2304
        56                         -0.0693377              -1.8868
        57                         -0.0247144              -0.6725
        58                          0.0119430               0.3250
        59                          0.0288194               0.7842
        60                          0.0502264               1.3667
        61                          0.0735487               2.0014
       ...                                ...                  ...
        91                          0.7195325              19.5795
      -------------------------------------------------------------
                  HL-Gap            0.1209678 Eh            3.2917 eV
             Fermi-level           -0.3018148 Eh           -8.2128 eV

     #   Z          covCN         q      C6AA      α(0)
     1   8 O        1.655    -0.375    20.371     6.093
     2   6 C        2.684     0.359    20.907     7.483
     3   8 O        0.856    -0.375    21.191     6.172
     4   1 H        0.800     0.364     0.557     1.173
     5   6 C        3.737    -0.040    21.373     6.597
     6   1 H        0.925     0.079     1.992     2.207
     7   1 H        0.923     0.075     2.036     2.231
     8   7 N        2.688    -0.158    24.420     7.339
     9   1 H        0.860     0.204     1.085     1.632
    10   6 C        2.758     0.267    22.488     7.766
    11   8 O        0.859    -0.461    22.934     6.421
    12   6 C        3.788     0.030    20.086     6.383
    13   1 H        0.923     0.036     2.496     2.471
    14   7 N        2.636    -0.355    29.143     8.018
    15   1 H        0.860     0.143     1.453     1.888
    16   1 H        0.860     0.151     1.391     1.848
    17   6 C        3.808    -0.061    21.674     6.627
    18   1 H        0.924     0.047     2.357     2.401
    19   1 H        0.924     0.052     2.299     2.371
    20   6 C        3.054    -0.036    28.852     8.809
    21   6 C        3.030    -0.011    28.269     8.721
    22   1 H        0.926     0.052     2.293     2.368
    23   7 N        2.782    -0.102    23.240     7.160
    24   1 H        0.860     0.160     1.333     1.808
    25   6 C        3.083     0.045    26.897     8.502
    26   6 C        2.909    -0.053    29.304     8.876
    27   1 H        0.926     0.024     2.677     2.558
    28   6 C        2.924    -0.036    28.907     8.817
    29   1 H        0.926     0.028     2.621     2.532
    30   6 C        2.920    -0.042    29.035     8.836
    31   1 H        0.926     0.025     2.651     2.546
    32   6 C        2.912    -0.038    28.943     8.822
    33   1 H        0.926     0.023     2.686     2.563
    34   6 C        3.120    -0.021    28.347     8.720

 Mol. C6AA /au·bohr⁶  :      13333.272197
 Mol. C8AA /au·bohr⁸  :     312423.695372
 Mol. α(0) /au        :        178.759407


Wiberg/Mayer (AO) data.
largest (>0.10) Wiberg bond orders for each atom

 ---------------------------------------------------------------------------
     #   Z sym  total        # sym  WBO       # sym  WBO       # sym  WBO
 ---------------------------------------------------------------------------
     1   8 O    2.232 --     2 C    1.199     4 H    0.771     3 O    0.183
     2   6 C    3.932 --     3 O    1.776     1 O    1.199     5 C    0.925
     3   8 O    2.069 --     2 C    1.776     1 O    0.183
     4   1 H    0.867 --     1 O    0.771
     5   6 C    3.963 --     8 N    0.991     6 H    0.974     7 H    0.952
                             2 C    0.925
     6   1 H    0.994 --     5 C    0.974
     7   1 H    0.994 --     5 C    0.952
     8   7 N    3.482 --    10 C    1.311     5 C    0.991     9 H    0.922
                            11 O    0.193
     9   1 H    0.958 --     8 N    0.922
    10   6 C    3.946 --    11 O    1.602     8 N    1.311    12 C    0.953
    11   8 O    2.009 --    10 C    1.602     8 N    0.193
    12   6 C    3.982 --    14 N    1.009    17 C    0.972    13 H    0.957
                            10 C    0.953
    13   1 H    0.998 --    12 C    0.957
    14   7 N    3.009 --    12 C    1.009    15 H    0.966    16 H    0.960
    15   1 H    0.979 --    14 N    0.966
    16   1 H    0.977 --    14 N    0.960
    17   6 C    3.992 --    20 C    1.014    12 C    0.972    18 H    0.962
                            19 H    0.960
    18   1 H    0.998 --    17 C    0.962
    19   1 H    0.997 --    17 C    0.960
    20   6 C    3.973 --    21 C    1.588    34 C    1.201    17 C    1.014
    21   6 C    3.951 --    20 C    1.588    23 N    1.195    22 H    0.964
    22   1 H    0.997 --    21 C    0.964
    23   7 N    3.545 --    21 C    1.195    25 C    1.180    24 H    0.947
    24   1 H    0.974 --    23 N    0.947
    25   6 C    3.960 --    26 C    1.338    34 C    1.247    23 N    1.180
    26   6 C    3.989 --    28 C    1.494    25 C    1.338    27 H    0.969
                            32 C    0.113
    27   1 H    0.999 --    26 C    0.969
    28   6 C    3.991 --    26 C    1.494    30 C    1.372    29 H    0.972
    29   1 H    0.999 --    28 C    0.972
    30   6 C    3.991 --    32 C    1.504    28 C    1.372    31 H    0.972
    31   1 H    0.999 --    30 C    0.972
    32   6 C    3.992 --    30 C    1.504    34 C    1.332    33 H    0.969
                            26 C    0.113
    33   1 H    0.999 --    32 C    0.969
    34   6 C    3.984 --    32 C    1.332    25 C    1.247    20 C    1.201
 ---------------------------------------------------------------------------

Topologies differ in total number of bonds
Writing topology from bond orders to xtbtopo.mol

molecular dipole:
                 x           y           z       tot (Debye)
 q only:       -0.396      -1.738       0.274
   full:       -0.574      -2.339       0.700       6.376
molecular quadrupole (traceless):
                xx          xy          yy          xz          yz          zz
 q only:        6.757      12.816      -9.736       5.796      12.521       2.980
  q+dip:       10.196      17.940     -13.016       4.017      17.240       2.820
   full:       10.013      17.858     -11.728       4.155      15.528       1.715

           -------------------------------------------------
          |                Geometry Summary                 |
           -------------------------------------------------

      molecular mass/u    :      261.2770023
   center of mass at/Å    :       -0.0000000      -0.0000000       0.0000000
  moments of inertia/u·Å² :        0.7937887E+03   0.2495496E+04   0.2768461E+04
rotational constants/cm⁻¹ :        0.2123693E-01   0.6755222E-02   0.6089171E-02

 * 32 selected distances

     #   Z          #   Z                                           value/Å
     1   8 O        2   6 C                                       1.3181243
     2   6 C        3   8 O                                       1.1980538
     1   8 O        4   1 H                                       0.9974234 (min)
     5   6 C        6   1 H                                       1.0889791
     5   6 C        7   1 H                                       1.0982653
     5   6 C        8   7 N                                       1.4497876
     8   7 N        9   1 H                                       1.0103367
     8   7 N       10   6 C                                       1.3369766
    10   6 C       11   8 O                                       1.2272151
    12   6 C       13   1 H                                       1.1019547
    12   6 C       14   7 N                                       1.4614412
    14   7 N       15   1 H                                       1.0149807
    14   7 N       16   1 H                                       1.0143545
    12   6 C       17   6 C                                       1.5367076 (max)
    17   6 C       18   1 H                                       1.0949623
    17   6 C       19   1 H                                       1.0951627
    20   6 C       21   6 C                                       1.3638068
    21   6 C       22   1 H                                       1.0718008
    21   6 C       23   7 N                                       1.3686671
    23   7 N       24   1 H                                       1.0052912
    23   7 N       25   6 C                                       1.3631163
    25   6 C       26   6 C                                       1.3891348
    26   6 C       27   1 H                                       1.0801866
    26   6 C       28   6 C                                       1.3778630
    28   6 C       29   1 H                                       1.0799494
    28   6 C       30   6 C                                       1.3977789
    30   6 C       31   1 H                                       1.0802118
    30   6 C       32   6 C                                       1.3764469
    32   6 C       33   1 H                                       1.0801625
    20   6 C       34   6 C                                       1.4310800
    25   6 C       34   6 C                                       1.4153274
    32   6 C       34   6 C                                       1.3947532

 * 6 distinct bonds (by element types)

   Z      Z             #   av. dist./Å        max./Å        min./Å
   1 H    6 C          10     1.0871635     1.1019547     1.0718008
   6 C    6 C           9     1.4092110     1.5367076     1.3638068
   1 H    7 N           4     1.0112408     1.0149807     1.0052912
   6 C    7 N           5     1.3959978     1.4614412     1.3369766
   1 H    8 O           1     0.9974234     0.9974234     0.9974234
   6 C    8 O           3     1.2477978     1.3181243     1.1980538


optimized geometry written to: xtbopt.xyz


           -------------------------------------------------
          | TOTAL ENERGY              -56.475965875186 Eh   |
          | GRADIENT NORM               0.000232042067 Eh/α |
          | HOMO-LUMO GAP               3.291700283138 eV   |
           -------------------------------------------------

------------------------------------------------------------------------
 * finished run on 2026/10/01 at 18:03:47.758     
------------------------------------------------------------------------
 total:
 * wall-time:     0 d,  0 h,  0 min,  0.698 sec
 *  cpu-time:     0 d,  0 h,  0 min,  9.589 sec
 * ratio c/w:    13.745 speedup
 SCF:
 * wall-time:     0 d,  0 h,  0 min,  0.394 sec
 *  cpu-time:     0 d,  0 h,  0 min,  5.450 sec
 * ratio c/w:    13.835 speedup
 ANC optimizer:
 * wall-time:     0 d,  0 h,  0 min,  0.279 sec
 *  cpu-time:     0 d,  0 h,  0 min,  3.810 sec
 * ratio c/w:    13.632 speedup


--- STDERR ---
normal termination of xtb
Note: The following floating-point exceptions are signalling: IEEE_UNDERFLOW_FLAG IEEE_DENORMAL
