68
frame_0009
O       2.299872359985522     -1.648599052397780      1.287680193730909
O      -1.075276222117968     -4.064804852384190      1.486265858275392
O      -0.608599074371080     -0.018615178697269     -0.857959137917196
O      -0.997435458891494      3.043299989500673     -2.645536075634556
O      -2.084577538399810      1.398422781195768      1.887569785484687
O       1.966239470821841      2.815072512329943      0.107379262277867
N       0.383700322467058     -3.381787120856311      0.171988171390051
N      -2.035248064296002     -1.252041510625092      0.287320872595820
N      -2.474666799804063      1.449995529960285     -2.071473135332571
N      -0.767236894855967      2.851927177036462      0.399595225185093
N       1.341730212741762      1.205597879082025      1.723833057647666
N       2.385594496169950     -0.304828165613208     -0.570666552081953
C       1.970829157124130     -1.427086912785864      0.112158607557970
C       1.236756918727454     -2.506177829351780     -0.451087748249799
C       2.102098094692508     -3.330623369319488     -1.441687120958017
C       1.339273336079612     -4.954663058610735     -1.604479987036719
C       0.913297475664641     -4.641318843063509     -0.080394030513479
C      -0.442360008433018     -3.287733553564640      0.967085424756461
C      -0.960083538788822     -1.778229572267280      1.268209203223884
C      -1.331689359076748     -1.549306746410384      2.884378058070315
C      -1.732716214795099     -0.479111654996955     -0.174161400045596
C      -2.981459776179674      0.235386302950733     -1.042317428530581
C      -3.816514479906719     -0.833865914469783     -1.888429290352436
C      -1.782512872007728      2.535008304281068     -1.779038440733222
C      -1.940299194738127      3.282429888014025     -0.413607098217214
C      -1.970311211211909      4.591165917023358     -0.622273540400584
C      -0.931321141085206      1.968826295618089      1.441235476133734
C       0.111147289088502      1.939283921301629      2.554437546389910
C       0.449244496849788      3.011525502222447      3.161171249330975
C       1.963807771542734      1.594753005468431      0.713287704511863
C       3.235349101747064      0.817409405825309      0.021448178657586
C       3.621177738478474      1.539516644412849     -1.183888599334703
C       2.663736324849501      1.239991569729237     -2.364741127424832
C       2.196940033645653      0.190980650782590     -2.140057465596153
H       0.381683549896381     -1.837618789739869     -1.425779214463982
H       2.252270047834269     -2.938433056006485     -2.426417229564203
H       2.925279858605537     -3.656988639527297     -0.872485079672157
H       0.618806939701044     -4.703543760797815     -1.953187425783787
H       1.945749190839883     -5.535067916033833     -1.688769078240117
H       0.046009102159864     -5.469216011090335      0.051769802823181
H       1.828361802284133     -5.138182020516782      0.843731861725857
H      -3.011503348997887     -1.543665999954930      0.765198512003292
H      -0.201660478113361     -1.034330039947466      1.276410009523242
H      -2.470012956487368     -2.547025313628051      3.075205171606898
H      -1.914848910873178     -0.712633729697645      2.971334890158126
H      -0.777014539366598     -1.871412517576280      3.436949237944197
H      -2.301199858217196      1.018955030405443     -2.841452491404650
H      -3.541031019465831      0.930642317436665     -0.386959422593353
H      -4.287834568032653     -1.434943684364054     -1.161415445535815
H      -3.401022455178145     -0.963164593023461     -2.491600667250625
H      -4.502704457379722     -0.130456114221628     -2.374270795957385
H      -0.077514520822712      3.026108351513082      0.208245351002071
H      -3.067025377421881      2.763076857467261     -0.047490769034850
H      -1.968723473219067      5.199147552597037      0.281751721602059
H      -2.762546434447526      4.944118129669817     -1.232338691181844
H      -1.206940460494629      4.909425204670960     -1.041260883576221
H       1.519255879914202     -0.024363931746019      1.828021759622890
H      -0.258545722107062      1.117387594084155      3.197634311383031
H       1.113229632672679      2.836203949103454      3.811583796366476
H      -0.430046511425705      3.455678943048605      3.415087131089024
H       0.725164627384841      3.733937254492639      2.261457698608910
H       3.706067570690746      0.304278293661465      0.912937763250356
H       4.773170229249370      0.767924082096391     -1.424458998157726
H       3.975030393134853      2.519015986523503     -0.707063779134371
H       3.256841201836633      1.524139719046364     -3.117031840334099
H       1.810672908298661      1.966529534591786     -2.159932230849729
H       0.989555396254483     -0.167050654700297     -2.115507094653282
H       2.636214616025105     -0.859032312366847     -2.589057530577426
