      -----------------------------------------------------------      
     |                   =====================                   |     
     |                           x T B                           |     
     |                   =====================                   |     
     |                         S. Grimme                         |     
     |          Mulliken Center for Theoretical Chemistry        |     
     |                    University of Bonn                     |     
      -----------------------------------------------------------      

   * xtb version 6.7.1-6.fc44.fc44 compiled by Fedora project on Sun Jan 18 23:32:34 UTC 2026

   xtb is free software: you can redistribute it and/or modify it under
   the terms of the GNU Lesser General Public License as published by
   the Free Software Foundation, either version 3 of the License, or
   (at your option) any later version.
   
   xtb is distributed in the hope that it will be useful,
   but WITHOUT ANY WARRANTY; without even the implied warranty of
   MERCHANTABILITY or FITNESS FOR A PARTICULAR PURPOSE.  See the
   GNU Lesser General Public License for more details.
   
   Cite this work as:
   * C. Bannwarth, E. Caldeweyher, S. Ehlert, A. Hansen, P. Pracht,
     J. Seibert, S. Spicher, S. Grimme, WIREs Comput. Mol. Sci., 2020, 11,
     e01493. DOI: 10.1002/wcms.1493
   
   for GFN2-xTB:
   * C. Bannwarth, S. Ehlert and S. Grimme., J. Chem. Theory Comput., 2019,
     15, 1652-1671. DOI: 10.1021/acs.jctc.8b01176
   for GFN1-xTB:
   * S. Grimme, C. Bannwarth, P. Shushkov, J. Chem. Theory Comput., 2017,
     13, 1989-2009. DOI: 10.1021/acs.jctc.7b00118
   for GFN0-xTB:
   * P. Pracht, E. Caldeweyher, S. Ehlert, S. Grimme, ChemRxiv, 2019, preprint.
     DOI: 10.26434/chemrxiv.8326202.v1
   for GFN-FF:
   * S. Spicher and S. Grimme, Angew. Chem. Int. Ed., 2020, 59, 15665-15673.
     DOI: 10.1002/anie.202004239
   
   for ALPB and GBSA implicit solvation:
   * S. Ehlert, M. Stahn, S. Spicher, S. Grimme, J. Chem. Theory Comput.,
     2021, 17, 4250-4261. DOI: 10.1021/acs.jctc.1c00471
   
   for ddCOSMO and CPCM-X implicit solvation:
   * M. Stahn, S. Ehlert, S. Grimme, J. Phys. Chem. A,
     2023, XX, XXXX-XXXX. DOI: 10.1021/acs.jpca.3c04382
   
   for DFT-D4:
   * E. Caldeweyher, C. Bannwarth and S. Grimme, J. Chem. Phys., 2017,
     147, 034112. DOI: 10.1063/1.4993215
   * E. Caldeweyher, S. Ehlert, A. Hansen, H. Neugebauer, S. Spicher,
     C. Bannwarth and S. Grimme, J. Chem. Phys., 2019, 150, 154122.
     DOI: 10.1063/1.5090222
   * E. Caldeweyher, J.-M. Mewes, S. Ehlert and S. Grimme, Phys. Chem. Chem. Phys.
     2020, 22, 8499-8512. DOI: 10.1039/D0CP00502A
   
   for sTDA-xTB:
   * S. Grimme and C. Bannwarth, J. Chem. Phys., 2016, 145, 054103.
     DOI: 10.1063/1.4959605
   
   in the mass-spec context:
   * V. Asgeirsson, C. Bauer and S. Grimme, Chem. Sci., 2017, 8, 4879.
     DOI: 10.1039/c7sc00601b
   * J. Koopman and S. Grimme, ACS Omega 2019, 4, 12, 15120-15133.
     DOI: 10.1021/acsomega.9b02011
   
   for metadynamics refer to:
   * S. Grimme, J. Chem. Theory Comput., 2019, 155, 2847-2862
     DOI: 10.1021/acs.jctc.9b00143
   
   for SPH calculations refer to:
   * S. Spicher and S. Grimme, J. Chem. Theory Comput., 2021, 17, 1701-1714
     DOI: 10.1021/acs.jctc.0c01306
   
   for ONIOM refer to:
   * C. Plett, A. Katbashev, S. Ehlert, S. Grimme, M. Bursch,
     Phys. Chem. Chem. Phys., 2023, 25, 17860-17868. DOI: 10.1039/D3CP02178E
   
   for DIPRO refer to:
   * J. Kohn, N. Gildemeister, S. Grimme, D. Fazzi, A. Hansen,
     J. Chem. Phys., 2023, just accepted.
   
   for PTB refer to:
   * S. Grimme, M. Mueller, A. Hansen, J. Chem. Phys., 2023, 158, 124111.
     DOI: 10.1063/5.0137838
   
   with help from (in alphabetical order)
   P. Atkinson, C. Bannwarth, F. Bohle, G. Brandenburg, E. Caldeweyher
   M. Checinski, S. Dohm, S. Ehlert, S. Ehrlich, I. Gerasimov, C. Hölzer
   A. Katbashev, J. Kohn, J. Koopman, C. Lavigne, S. Lehtola, F. März, M. Müller,
   F. Musil, H. Neugebauer, J. Pisarek, C. Plett, P. Pracht, F. Pultar,
   J. Seibert, P. Shushkov, S. Spicher, M. Stahn, M. Steiner, T. Strunk,
   J. Stückrath, T. Rose, and J. Unsleber
   
 * started run on 2026/10/01 at 17:52:52.889     
   ID    Z sym.   atoms
    1    8 O      1-6
    2    7 N      7-12
    3    6 C      13-34
    4    1 H      35-68

           -------------------------------------------------
          |                Calculation Setup                |
           -------------------------------------------------

          program call               : /usr/bin/xtb input.xyz --opt --gfn 2 --chrg 0 --uhf 0
          hostname                   : fedora
          coordinate file            : input.xyz
          omp threads                :                    16


molecular fragmentation (1/2 indicates fragments):
11111111111111111111111111111111112111111112111111111111111111111111
# atoms in fragment 1/2:    66     2
 fragment masses (1/2) :      476.53        2.02
CMA distance (Bohr)    :   4.949
constraining FC (au)   :  0.0500

           -------------------------------------------------
          |                 G F N 2 - x T B                 |
           -------------------------------------------------

        Reference                      10.1021/acs.jctc.8b01176
      * Hamiltonian:
        H0-scaling (s, p, d)           1.850000    2.230000    2.230000
        zeta-weighting                 0.500000
      * Dispersion:
        s8                             2.700000
        a1                             0.520000
        a2                             5.000000
        s9                             5.000000
      * Repulsion:
        kExp                           1.500000    1.000000
        rExp                           1.000000
      * Coulomb:
        alpha                          2.000000
        third order                    shell-resolved
        anisotropic                    true
        a3                             3.000000
        a5                             4.000000
        cn-shift                       1.200000
        cn-exp                         4.000000
        max-rad                        5.000000


          ...................................................
          :                      SETUP                      :
          :.................................................:
          :  # basis functions                 170          :
          :  # atomic orbitals                 170          :
          :  # shells                          102          :
          :  # electrons                       188          :
          :  max. iterations                   250          :
          :  Hamiltonian                  GFN2-xTB          :
          :  restarted?                      false          :
          :  GBSA solvation                  false          :
          :  PC potential                    false          :
          :  electronic temp.          300.0000000     K    :
          :  accuracy                    1.0000000          :
          :  -> integral cutoff          0.2500000E+02      :
          :  -> integral neglect         0.1000000E-07      :
          :  -> SCF convergence          0.1000000E-05 Eh   :
          :  -> wf. convergence          0.1000000E-03 e    :
          :  Broyden damping             0.4000000          :
          :  net charge                          0          :
          :  unpaired electrons                  0          :
          ...................................................

 iter      E             dE          RMSdq      gap      omega  full diag
   1   -106.6893095 -0.106689E+03  0.445E+00    3.44       0.0  T
   2   -107.2041963 -0.514887E+00  0.241E+00    2.70       1.0  T
   3   -107.2379063 -0.337100E-01  0.139E+00    2.56       1.0  T
   4   -107.2356450  0.226132E-02  0.430E-01    2.34       1.0  T
   5   -107.2448723 -0.922731E-02  0.129E-01    2.48       1.0  T
   6   -107.2454307 -0.558379E-03  0.568E-02    2.45       1.0  T
   7   -107.2454491 -0.184377E-04  0.277E-02    2.48       1.0  T
   8   -107.2454683 -0.192108E-04  0.886E-03    2.47       1.4  T
   9   -107.2454691 -0.764766E-06  0.375E-03    2.47       3.2  T
  10   -107.2454694 -0.261942E-06  0.161E-03    2.47       7.5  T
  11   -107.2454694 -0.404936E-07  0.668E-04    2.47      18.2  T
  12   -107.2454694 -0.914196E-08  0.220E-04    2.47      55.2  T

   *** convergence criteria satisfied after 12 iterations ***

         #    Occupation            Energy/Eh            Energy/eV
      -------------------------------------------------------------
         1        2.0000           -0.7636342             -20.7795
       ...           ...                  ...                  ...
        88        2.0000           -0.3963114             -10.7842
        89        2.0000           -0.3854927             -10.4898
        90        2.0000           -0.3839292             -10.4472
        91        2.0000           -0.3782250             -10.2920
        92        2.0000           -0.3749080             -10.2018
        93        2.0000           -0.3598089              -9.7909
        94        2.0000           -0.3547148              -9.6523 (HOMO)
        95                         -0.2640338              -7.1847 (LUMO)
        96                         -0.2356124              -6.4113
        97                         -0.2273825              -6.1874
        98                         -0.2120330              -5.7697
        99                         -0.1974203              -5.3721
       ...                                ...                  ...
       170                          2.8057411              76.3481
      -------------------------------------------------------------
                  HL-Gap            0.0906810 Eh            2.4676 eV
             Fermi-level           -0.3093743 Eh           -8.4185 eV

 SCC (total)                   0 d,  0 h,  0 min,  0.107 sec
 SCC setup                      ...        0 min,  0.000 sec (  0.210%)
 Dispersion                     ...        0 min,  0.001 sec (  0.512%)
 classical contributions        ...        0 min,  0.000 sec (  0.074%)
 integral evaluation            ...        0 min,  0.001 sec (  1.343%)
 iterations                     ...        0 min,  0.098 sec ( 90.876%)
 molecular gradient             ...        0 min,  0.007 sec (  6.433%)
 printout                       ...        0 min,  0.001 sec (  0.538%)

         :::::::::::::::::::::::::::::::::::::::::::::::::::::
         ::                     SUMMARY                     ::
         :::::::::::::::::::::::::::::::::::::::::::::::::::::
         :: total energy            -104.850804187650 Eh    ::
         :: gradient norm              2.780319893092 Eh/a0 ::
         :: HOMO-LUMO gap              2.467556645784 eV    ::
         ::.................................................::
         :: SCC energy              -107.240485533215 Eh    ::
         :: -> isotropic ES            0.300459779596 Eh    ::
         :: -> anisotropic ES         -0.008838641176 Eh    ::
         :: -> anisotropic XC          0.028500512691 Eh    ::
         :: -> dispersion             -0.088436190163 Eh    ::
         :: repulsion energy           2.389681345565 Eh    ::
         :: add. restraining           0.000000000000 Eh    ::
         :: total charge               0.000000000000 e     ::
         :::::::::::::::::::::::::::::::::::::::::::::::::::::

      ----------------------------------------------------------- 
     |                   =====================                   |
     |                        A N C O P T                        |
     |                   =====================                   |
     |               Approximate Normal Coordinate               |
     |                Rational Function Optimizer                |
      ----------------------------------------------------------- 
      ----------------------------------------------------------- 
     |                   =====================                   |
     |                        A N C O P T                        |
     |                   =====================                   |
     |               Approximate Normal Coordinate               |
     |                Rational Function Optimizer                |
      ----------------------------------------------------------- 

          ...................................................
          :                      SETUP                      :
          :.................................................:
          :   optimization level            normal          :
          :   max. optcycles                   204          :
          :   ANC micro-cycles                  20          :
          :   degrees of freedom               198          :
          :.................................................:
          :   RF solver                   davidson          :
          :   write xtbopt.log                true          :
          :   linear?                        false          :
          :   energy convergence         0.5000000E-05 Eh   :
          :   grad. convergence          0.1000000E-02 Eh/α :
          :   maxmium RF displ.          1.0000000          :
          :   Hlow (freq-cutoff)         0.1000000E-01      :
          :   Hmax (freq-cutoff)         5.0000000          :
          :   S6 in model hess.         20.0000000          :
          ...................................................

generating ANC from exact Hessian ...
Using Lindh-Hessian (1995)
 Shifting diagonal of input Hessian by    9.7620363116749393E-003
 Lowest  eigenvalues of input Hessian
    0.000000    0.000000    0.000000    0.000000    0.000000    0.000000
    0.010000    0.010194    0.010526    0.010602    0.010770    0.010860
    0.011267    0.011572    0.012130    0.012464    0.012751    0.012924
 Highest eigenvalues
    2.477692    2.535168    2.634272    2.822388    3.315879    3.803809


........................................................................
.............................. CYCLE    1 ..............................
........................................................................

 iter      E             dE          RMSdq      gap      omega  full diag
   1   -107.2454694 -0.107245E+03  0.874E-05    2.47       0.0  T
   2   -107.2454694 -0.126590E-09  0.528E-05    2.47     229.5  T
   3   -107.2454694 -0.748486E-10  0.322E-05    2.47     376.7  T
     SCC iter.                  ...        0 min,  0.021 sec
     gradient                   ...        0 min,  0.007 sec
 * total energy  :  -104.8508042 Eh     change       -0.1185342E-08 Eh
   gradient norm :     2.7803184 Eh/α   predicted     0.0000000E+00 (-100.00%)
   displ. norm   :     0.6605932 α      lambda       -0.1765713E+01
   maximum displ.:     0.3424055 α      in ANC's #198, #193, #194, ...

........................................................................
.............................. CYCLE    2 ..............................
........................................................................

 iter      E             dE          RMSdq      gap      omega  full diag
   1   -107.3392298 -0.107339E+03  0.892E-01    3.08       0.0  T
   2   -107.3720451 -0.328153E-01  0.493E-01    3.26       1.0  T
   3   -107.3791092 -0.706410E-02  0.232E-01    3.20       1.0  T
   4   -107.3790906  0.186378E-04  0.101E-01    3.21       1.0  T
   5   -107.3792682 -0.177572E-03  0.209E-02    3.21       1.0  T
   6   -107.3792801 -0.119074E-04  0.978E-03    3.20       1.2  T
   7   -107.3792808 -0.757804E-06  0.371E-03    3.20       3.3  T
   8   -107.3792811 -0.248529E-06  0.129E-03    3.20       9.4  T
   9   -107.3792811 -0.193093E-07  0.627E-04    3.20      19.3  T
  10   -107.3792811 -0.548050E-08  0.206E-04    3.20      58.7  T
     SCC iter.                  ...        0 min,  0.077 sec
     gradient                   ...        0 min,  0.006 sec
 * total energy  :  -105.8838166 Eh     change       -0.1033012E+01 Eh
   gradient norm :     0.9179922 Eh/α   predicted    -0.1268123E+01 (  22.76%)
   displ. norm   :     0.6106475 α      lambda       -0.4913989E+00
   maximum displ.:     0.1622594 α      in ANC's #117, #140, #183, ...

........................................................................
.............................. CYCLE    3 ..............................
........................................................................

 iter      E             dE          RMSdq      gap      omega  full diag
   1   -107.5633366 -0.107563E+03  0.532E-01    3.73       0.0  T
   2   -107.5701021 -0.676557E-02  0.303E-01    3.86       1.0  T
   3   -107.5707281 -0.625973E-03  0.166E-01    3.85       1.0  T
   4   -107.5708015 -0.733990E-04  0.398E-02    3.87       1.0  T
   5   -107.5708435 -0.419859E-04  0.132E-02    3.86       1.0  T
   6   -107.5708465 -0.295768E-05  0.460E-03    3.86       2.6  T
   7   -107.5708468 -0.288337E-06  0.178E-03    3.86       6.8  T
   8   -107.5708468 -0.389262E-07  0.581E-04    3.86      20.9  T
   9   -107.5708468 -0.261910E-08  0.249E-04    3.86      48.7  T
     SCC iter.                  ...        0 min,  0.045 sec
     gradient                   ...        0 min,  0.005 sec
 * total energy  :  -106.2716430 Eh     change       -0.3878264E+00 Eh
   gradient norm :     0.5133275 Eh/α   predicted    -0.3373186E+00 ( -13.02%)
   displ. norm   :     0.6716751 α      lambda       -0.3036947E+00
   maximum displ.:     0.2183635 α      in ANC's #117, #140, #183, ...

........................................................................
.............................. CYCLE    4 ..............................
........................................................................

 iter      E             dE          RMSdq      gap      omega  full diag
   1   -107.7215297 -0.107722E+03  0.528E-01    4.06       0.0  T
   2   -107.7259418 -0.441208E-02  0.299E-01    4.15       1.0  T
   3   -107.7262072 -0.265413E-03  0.153E-01    4.14       1.0  T
   4   -107.7263191 -0.111880E-03  0.300E-02    4.13       1.0  T
   5   -107.7263419 -0.228830E-04  0.112E-02    4.14       1.1  T
   6   -107.7263437 -0.175577E-05  0.352E-03    4.15       3.4  T
   7   -107.7263439 -0.153305E-06  0.135E-03    4.15       9.0  T
   8   -107.7263439 -0.177861E-07  0.397E-04    4.15      30.6  T
   9   -107.7263439 -0.150762E-08  0.173E-04    4.15      70.1  T
     SCC iter.                  ...        0 min,  0.049 sec
     gradient                   ...        0 min,  0.008 sec
 * total energy  :  -106.4867260 Eh     change       -0.2150830E+00 Eh
   gradient norm :     0.2015190 Eh/α   predicted    -0.2203534E+00 (   2.45%)
   displ. norm   :     0.5643414 α      lambda       -0.9098358E-01
   maximum displ.:     0.1447629 α      in ANC's #70, #59, #65, ...

........................................................................
.............................. CYCLE    5 ..............................
........................................................................

 iter      E             dE          RMSdq      gap      omega  full diag
   1   -107.7795025 -0.107780E+03  0.369E-01    4.11       0.0  T
   2   -107.7802912 -0.788678E-03  0.222E-01    4.08       1.0  T
   3   -107.7802735  0.176932E-04  0.768E-02    4.05       1.0  T
   4   -107.7803872 -0.113673E-03  0.128E-02    4.05       1.0  T
   5   -107.7803893 -0.212220E-05  0.586E-03    4.06       2.1  T
   6   -107.7803895 -0.240586E-06  0.197E-03    4.06       6.1  T
   7   -107.7803896 -0.381636E-07  0.654E-04    4.06      18.5  T
   8   -107.7803896 -0.626926E-08  0.211E-04    4.06      57.3  T
     SCC iter.                  ...        0 min,  0.031 sec
     gradient                   ...        0 min,  0.004 sec
 * total energy  :  -106.5414092 Eh     change       -0.5468325E-01 Eh
   gradient norm :     0.0934541 Eh/α   predicted    -0.5998008E-01 (   9.69%)
   displ. norm   :     0.4996952 α      lambda       -0.2936404E-01
   maximum displ.:     0.1308185 α      in ANC's #58, #67, #73, ...

........................................................................
.............................. CYCLE    6 ..............................
........................................................................

 iter      E             dE          RMSdq      gap      omega  full diag
   1   -107.7652984 -0.107765E+03  0.287E-01    4.13       0.0  T
   2   -107.7656112 -0.312825E-03  0.169E-01    4.10       1.0  T
   3   -107.7655996  0.116561E-04  0.472E-02    4.10       1.0  T
   4   -107.7656456 -0.460726E-04  0.806E-03    4.09       1.5  T
   5   -107.7656465 -0.900549E-06  0.398E-03    4.09       3.0  T
   6   -107.7656466 -0.893919E-07  0.110E-03    4.09      11.1  T
   7   -107.7656466 -0.178577E-07  0.422E-04    4.09      28.7  T
   8   -107.7656466 -0.199474E-08  0.127E-04    4.09      95.2  T
     SCC iter.                  ...        0 min,  0.030 sec
     gradient                   ...        0 min,  0.005 sec
 * total energy  :  -106.5541267 Eh     change       -0.1271743E-01 Eh
   gradient norm :     0.0714599 Eh/α   predicted    -0.1834813E-01 (  44.28%)
   displ. norm   :     0.4004023 α      lambda       -0.1436784E-01
   maximum displ.:     0.1186486 α      in ANC's #58, #42, #31, ...

........................................................................
.............................. CYCLE    7 ..............................
........................................................................

 iter      E             dE          RMSdq      gap      omega  full diag
   1   -107.7838227 -0.107784E+03  0.208E-01    4.13       0.0  T
   2   -107.7839886 -0.165871E-03  0.119E-01    4.13       1.0  T
   3   -107.7839826  0.603123E-05  0.363E-02    4.14       1.0  T
   4   -107.7840082 -0.255788E-04  0.721E-03    4.14       1.7  T
   5   -107.7840090 -0.871825E-06  0.365E-03    4.14       3.3  T
   6   -107.7840091 -0.436877E-07  0.910E-04    4.14      13.3  T
   7   -107.7840091 -0.175330E-07  0.302E-04    4.14      40.2  T
     SCC iter.                  ...        0 min,  0.061 sec
     gradient                   ...        0 min,  0.004 sec
 * total energy  :  -106.5595228 Eh     change       -0.5396148E-02 Eh
   gradient norm :     0.0563465 Eh/α   predicted    -0.8335677E-02 (  54.47%)
   displ. norm   :     0.2844979 α      lambda       -0.7081866E-02
   maximum displ.:     0.0722302 α      in ANC's #14, #42, #18, ...

........................................................................
.............................. CYCLE    8 ..............................
........................................................................

 iter      E             dE          RMSdq      gap      omega  full diag
   1   -107.7932977 -0.107793E+03  0.160E-01    4.13       0.0  T
   2   -107.7933568 -0.591105E-04  0.927E-02    4.14       1.0  T
   3   -107.7933557  0.116565E-05  0.203E-02    4.14       1.0  T
   4   -107.7933642 -0.856046E-05  0.452E-03    4.14       2.7  T
   5   -107.7933644 -0.185865E-06  0.228E-03    4.14       5.3  T
   6   -107.7933644 -0.341022E-07  0.555E-04    4.14      21.8  T
   7   -107.7933644 -0.620769E-08  0.202E-04    4.14      59.9  T
     SCC iter.                  ...        0 min,  0.035 sec
     gradient                   ...        0 min,  0.005 sec
 * total energy  :  -106.5614675 Eh     change       -0.1944654E-02 Eh
   gradient norm :     0.0398601 Eh/α   predicted    -0.3827547E-02 (  96.82%)
   displ. norm   :     0.2363425 α      lambda       -0.4170685E-02
   maximum displ.:     0.0898786 α      in ANC's #27, #12, #37, ...

........................................................................
.............................. CYCLE    9 ..............................
........................................................................

 iter      E             dE          RMSdq      gap      omega  full diag
   1   -107.7957313 -0.107796E+03  0.140E-01    4.13       0.0  T
   2   -107.7957432 -0.119311E-04  0.816E-02    4.13       1.0  T
   3   -107.7957423  0.866802E-06  0.890E-03    4.13       1.4  T
   4   -107.7957457 -0.338198E-05  0.227E-03    4.13       5.4  T
   5   -107.7957457 -0.427761E-07  0.116E-03    4.13      10.4  T
   6   -107.7957458 -0.121984E-07  0.251E-04    4.13      48.3  T
   7   -107.7957458 -0.106320E-08  0.993E-05    4.13     122.1  T
     SCC iter.                  ...        0 min,  0.025 sec
     gradient                   ...        0 min,  0.004 sec
 * total energy  :  -106.5629196 Eh     change       -0.1452129E-02 Eh
   gradient norm :     0.0298562 Eh/α   predicted    -0.2201833E-02 (  51.63%)
   displ. norm   :     0.1911073 α      lambda       -0.2257873E-02
   maximum displ.:     0.0683120 α      in ANC's #27, #19, #14, ...

........................................................................
.............................. CYCLE   10 ..............................
........................................................................

 iter      E             dE          RMSdq      gap      omega  full diag
   1   -107.7957916 -0.107796E+03  0.919E-02    4.15       0.0  T
   2   -107.7958089 -0.172373E-04  0.538E-02    4.14       1.0  T
   3   -107.7958058  0.305035E-05  0.126E-02    4.15       1.0  T
   4   -107.7958118 -0.601876E-05  0.227E-03    4.14       5.3  T
   5   -107.7958119 -0.428519E-07  0.113E-03    4.14      10.8  T
   6   -107.7958119 -0.781094E-08  0.276E-04    4.14      43.9  T
   7   -107.7958119 -0.128561E-08  0.112E-04    4.14     108.0  T
     SCC iter.                  ...        0 min,  0.048 sec
     gradient                   ...        0 min,  0.004 sec
 * total energy  :  -106.5637082 Eh     change       -0.7885958E-03 Eh
   gradient norm :     0.0222737 Eh/α   predicted    -0.1170171E-02 (  48.39%)
   displ. norm   :     0.1776329 α      lambda       -0.1334446E-02
   maximum displ.:     0.0630466 α      in ANC's #16, #11, #23, ...

........................................................................
.............................. CYCLE   11 ..............................
........................................................................

 iter      E             dE          RMSdq      gap      omega  full diag
   1   -107.7988991 -0.107799E+03  0.833E-02    4.15       0.0  T
   2   -107.7989064 -0.733080E-05  0.488E-02    4.15       1.0  T
   3   -107.7989053  0.112583E-05  0.721E-03    4.15       1.7  T
   4   -107.7989077 -0.242743E-05  0.149E-03    4.15       8.1  T
   5   -107.7989077 -0.269545E-07  0.736E-04    4.15      16.5  T
   6   -107.7989077 -0.423283E-08  0.214E-04    4.15      56.6  T
     SCC iter.                  ...        0 min,  0.022 sec
     gradient                   ...        0 min,  0.004 sec
 * total energy  :  -106.5641678 Eh     change       -0.4595852E-03 Eh
   gradient norm :     0.0180206 Eh/α   predicted    -0.6882779E-03 (  49.76%)
   displ. norm   :     0.1693287 α      lambda       -0.1012057E-02
   maximum displ.:     0.0692723 α      in ANC's #18, #15, #17, ...

........................................................................
.............................. CYCLE   12 ..............................
........................................................................

 iter      E             dE          RMSdq      gap      omega  full diag
   1   -107.8020899 -0.107802E+03  0.706E-02    4.16       0.0  T
   2   -107.8021017 -0.117859E-04  0.413E-02    4.16       1.0  T
   3   -107.8021010  0.766291E-06  0.944E-03    4.16       1.3  T
   4   -107.8021031 -0.214440E-05  0.157E-03    4.16       7.7  T
   5   -107.8021031 -0.452117E-07  0.783E-04    4.16      15.5  T
   6   -107.8021032 -0.517078E-08  0.206E-04    4.16      59.0  T
     SCC iter.                  ...        0 min,  0.040 sec
     gradient                   ...        0 min,  0.005 sec
 * total energy  :  -106.5644995 Eh     change       -0.3317106E-03 Eh
   gradient norm :     0.0161593 Eh/α   predicted    -0.5205471E-03 (  56.93%)
   displ. norm   :     0.0979490 α      lambda       -0.5175589E-03
   maximum displ.:     0.0313009 α      in ANC's #16, #43, #26, ...

........................................................................
.............................. CYCLE   13 ..............................
........................................................................

 iter      E             dE          RMSdq      gap      omega  full diag
   1   -107.8028889 -0.107803E+03  0.427E-02    4.16       0.0  T
   2   -107.8028932 -0.432162E-05  0.251E-02    4.16       1.0  T
   3   -107.8028925  0.768647E-06  0.641E-03    4.16       1.9  T
   4   -107.8028939 -0.147703E-05  0.944E-04    4.16      12.8  T
   5   -107.8028939 -0.115258E-07  0.449E-04    4.16      27.0  T
   6   -107.8028939 -0.209397E-08  0.140E-04    4.16      86.7  T
     SCC iter.                  ...        0 min,  0.024 sec
     gradient                   ...        0 min,  0.005 sec
 * total energy  :  -106.5647607 Eh     change       -0.2612563E-03 Eh
   gradient norm :     0.0104801 Eh/α   predicted    -0.2612593E-03 (   0.00%)
   displ. norm   :     0.0821064 α      lambda       -0.2327590E-03
   maximum displ.:     0.0286742 α      in ANC's #16, #9, #5, ...

........................................................................
.............................. CYCLE   14 ..............................
........................................................................

 iter      E             dE          RMSdq      gap      omega  full diag
   1   -107.8012361 -0.107801E+03  0.279E-02    4.16       0.0  T
   2   -107.8012381 -0.196608E-05  0.163E-02    4.16       1.0  T
   3   -107.8012380  0.147714E-06  0.408E-03    4.16       3.0  T
   4   -107.8012384 -0.410391E-06  0.723E-04    4.16      16.8  T
   5   -107.8012384 -0.752519E-08  0.356E-04    4.16      34.1  T
     SCC iter.                  ...        0 min,  0.020 sec
     gradient                   ...        0 min,  0.006 sec
 * total energy  :  -106.5648804 Eh     change       -0.1197017E-03 Eh
   gradient norm :     0.0079814 Eh/α   predicted    -0.1171653E-03 (  -2.12%)
   displ. norm   :     0.0895003 α      lambda       -0.1558722E-03
   maximum displ.:     0.0353732 α      in ANC's #16, #11, #9, ...

........................................................................
.............................. CYCLE   15 ..............................
........................................................................

 iter      E             dE          RMSdq      gap      omega  full diag
   1   -107.8022098 -0.107802E+03  0.203E-02    4.17       0.0  T
   2   -107.8022107 -0.880876E-06  0.118E-02    4.17       1.0  T
   3   -107.8022107  0.294102E-07  0.248E-03    4.17       4.9  T
   4   -107.8022108 -0.152711E-06  0.562E-04    4.17      21.6  T
   5   -107.8022108 -0.272441E-08  0.263E-04    4.17      46.1  T
     SCC iter.                  ...        0 min,  0.077 sec
     gradient                   ...        0 min,  0.007 sec
 * total energy  :  -106.5649708 Eh     change       -0.9035243E-04 Eh
   gradient norm :     0.0071684 Eh/α   predicted    -0.7856633E-04 ( -13.04%)
   displ. norm   :     0.1013508 α      lambda       -0.1401831E-03
   maximum displ.:     0.0345525 α      in ANC's #23, #5, #13, ...

........................................................................
.............................. CYCLE   16 ..............................
........................................................................

 iter      E             dE          RMSdq      gap      omega  full diag
   1   -107.8032420 -0.107803E+03  0.268E-02    4.17       0.0  T
   2   -107.8032432 -0.118411E-05  0.157E-02    4.17       1.0  T
   3   -107.8032431  0.891734E-07  0.293E-03    4.17       4.1  T
   4   -107.8032434 -0.249065E-06  0.590E-04    4.17      20.6  T
   5   -107.8032434 -0.474748E-08  0.314E-04    4.17      38.6  T
     SCC iter.                  ...        0 min,  0.024 sec
     gradient                   ...        0 min,  0.005 sec
 * total energy  :  -106.5650325 Eh     change       -0.6170902E-04 Eh
   gradient norm :     0.0060922 Eh/α   predicted    -0.7081317E-04 (  14.75%)
   displ. norm   :     0.0650741 α      lambda       -0.9778623E-04
   maximum displ.:     0.0206334 α      in ANC's #19, #10, #39, ...

........................................................................
.............................. CYCLE   17 ..............................
........................................................................

 iter      E             dE          RMSdq      gap      omega  full diag
   1   -107.8028750 -0.107803E+03  0.213E-02    4.17       0.0  T
   2   -107.8028757 -0.713850E-06  0.126E-02    4.17       1.0  T
   3   -107.8028756  0.847807E-07  0.229E-03    4.17       5.3  T
   4   -107.8028758 -0.188862E-06  0.470E-04    4.17      25.8  T
   5   -107.8028758 -0.321425E-08  0.236E-04    4.17      51.3  T
     SCC iter.                  ...        0 min,  0.025 sec
     gradient                   ...        0 min,  0.005 sec
 * total energy  :  -106.5650807 Eh     change       -0.4822522E-04 Eh
   gradient norm :     0.0056177 Eh/α   predicted    -0.4910120E-04 (   1.82%)
   displ. norm   :     0.0552296 α      lambda       -0.6914395E-04
   maximum displ.:     0.0235615 α      in ANC's #19, #10, #23, ...

........................................................................
.............................. CYCLE   18 ..............................
........................................................................

 iter      E             dE          RMSdq      gap      omega  full diag
   1   -107.8028586 -0.107803E+03  0.136E-02    4.17       0.0  T
   2   -107.8028600 -0.138131E-05  0.802E-03    4.17       1.5  T
   3   -107.8028600 -0.237166E-07  0.330E-03    4.17       3.7  T
   4   -107.8028601 -0.131099E-06  0.470E-04    4.17      25.8  T
   5   -107.8028601 -0.608492E-08  0.209E-04    4.17      58.0  T
     SCC iter.                  ...        0 min,  0.020 sec
     gradient                   ...        0 min,  0.005 sec
 * total energy  :  -106.5651226 Eh     change       -0.4186434E-04 Eh
   gradient norm :     0.0045243 Eh/α   predicted    -0.3467681E-04 ( -17.17%)
   displ. norm   :     0.0879659 α      lambda       -0.7145730E-04
   maximum displ.:     0.0343759 α      in ANC's #19, #23, #14, ...

........................................................................
.............................. CYCLE   19 ..............................
........................................................................

 iter      E             dE          RMSdq      gap      omega  full diag
   1   -107.8021165 -0.107802E+03  0.163E-02    4.17       0.0  T
   2   -107.8021174 -0.864755E-06  0.963E-03    4.17       1.3  T
   3   -107.8021173  0.865188E-07  0.276E-03    4.17       4.4  T
   4   -107.8021175 -0.200098E-06  0.423E-04    4.17      28.6  T
   5   -107.8021175 -0.338341E-08  0.213E-04    4.17      56.9  T
     SCC iter.                  ...        0 min,  0.019 sec
     gradient                   ...        0 min,  0.005 sec
 * total energy  :  -106.5651611 Eh     change       -0.3854689E-04 Eh
   gradient norm :     0.0039919 Eh/α   predicted    -0.3600601E-04 (  -6.59%)
   displ. norm   :     0.0758950 α      lambda       -0.4394722E-04
   maximum displ.:     0.0304605 α      in ANC's #19, #23, #7, ...

........................................................................
.............................. CYCLE   20 ..............................
........................................................................

 iter      E             dE          RMSdq      gap      omega  full diag
   1   -107.8027408 -0.107803E+03  0.139E-02    4.17       0.0  T
   2   -107.8027412 -0.320163E-06  0.819E-03    4.17       1.5  T
   3   -107.8027411  0.838098E-07  0.180E-03    4.17       6.7  T
   4   -107.8027412 -0.138970E-06  0.309E-04    4.17      39.3  T
   5   -107.8027412 -0.100303E-08  0.158E-04    4.17      76.8  T
     SCC iter.                  ...        0 min,  0.021 sec
     gradient                   ...        0 min,  0.004 sec
 * total energy  :  -106.5651863 Eh     change       -0.2516448E-04 Eh
   gradient norm :     0.0039417 Eh/α   predicted    -0.2210116E-04 ( -12.17%)
   displ. norm   :     0.0895535 α      lambda       -0.4701734E-04
   maximum displ.:     0.0321022 α      in ANC's #23, #19, #2, ...
 * RMSD in coord.:     0.3349981 α      energy gain  -0.1714382E+01 Eh

generating ANC from exact Hessian ...
Using Lindh-Hessian (1995)
 Shifting diagonal of input Hessian by    9.6668861614758895E-003
 Lowest  eigenvalues of input Hessian
    0.000000    0.000000    0.000000    0.000000    0.000000    0.000000
    0.010000    0.010250    0.010509    0.010746    0.010849    0.011631
    0.012311    0.012580    0.012866    0.012926    0.013233    0.013879
 Highest eigenvalues
    2.289421    2.300167    2.303396    2.322092    2.326425    2.337367


........................................................................
.............................. CYCLE   21 ..............................
........................................................................

 iter      E             dE          RMSdq      gap      omega  full diag
   1   -107.8030097 -0.107803E+03  0.162E-02    4.17       0.0  T
   2   -107.8030104 -0.698204E-06  0.947E-03    4.17       1.3  T
   3   -107.8030104  0.528536E-07  0.237E-03    4.17       5.1  T
   4   -107.8030105 -0.132802E-06  0.413E-04    4.17      29.4  T
   5   -107.8030105 -0.365866E-08  0.207E-04    4.17      58.7  T
     SCC iter.                  ...        0 min,  0.023 sec
     gradient                   ...        0 min,  0.004 sec
 * total energy  :  -106.5652113 Eh     change       -0.2499708E-04 Eh
   gradient norm :     0.0035910 Eh/α   predicted     0.0000000E+00 (-100.00%)
   displ. norm   :     0.0289993 α      lambda       -0.4359780E-04
   maximum displ.:     0.0095534 α      in ANC's #14, #3, #16, ...

........................................................................
.............................. CYCLE   22 ..............................
........................................................................

 iter      E             dE          RMSdq      gap      omega  full diag
   1   -107.8030913 -0.107803E+03  0.102E-02    4.17       0.0  T
   2   -107.8030915 -0.213149E-06  0.596E-03    4.17       2.0  T
   3   -107.8030915  0.338980E-07  0.140E-03    4.17       8.7  T
   4   -107.8030916 -0.688502E-07  0.238E-04    4.17      51.0  T
   5   -107.8030916 -0.699870E-09  0.121E-04    4.17      99.9  T
     SCC iter.                  ...        0 min,  0.017 sec
     gradient                   ...        0 min,  0.006 sec
 * total energy  :  -106.5652413 Eh     change       -0.3003439E-04 Eh
   gradient norm :     0.0013723 Eh/α   predicted    -0.2184161E-04 ( -27.28%)
   displ. norm   :     0.0588190 α      lambda       -0.1930770E-04
   maximum displ.:     0.0234767 α      in ANC's #3, #16, #14, ...

........................................................................
.............................. CYCLE   23 ..............................
........................................................................

 iter      E             dE          RMSdq      gap      omega  full diag
   1   -107.8030604 -0.107803E+03  0.116E-02    4.17       0.0  T
   2   -107.8030608 -0.318458E-06  0.675E-03    4.17       1.8  T
   3   -107.8030607  0.517120E-07  0.180E-03    4.17       6.7  T
   4   -107.8030608 -0.105332E-06  0.297E-04    4.17      40.9  T
   5   -107.8030608 -0.110833E-08  0.151E-04    4.17      80.4  T
     SCC iter.                  ...        0 min,  0.019 sec
     gradient                   ...        0 min,  0.008 sec
 * total energy  :  -106.5652562 Eh     change       -0.1485148E-04 Eh
   gradient norm :     0.0013368 Eh/α   predicted    -0.9669009E-05 ( -34.90%)
   displ. norm   :     0.0405734 α      lambda       -0.7569322E-05
   maximum displ.:     0.0181121 α      in ANC's #3, #16, #2, ...

........................................................................
.............................. CYCLE   24 ..............................
........................................................................

 iter      E             dE          RMSdq      gap      omega  full diag
   1   -107.8030855 -0.107803E+03  0.568E-03    4.17       0.0  T
   2   -107.8030856 -0.288504E-07  0.333E-03    4.17       3.6  T
   3   -107.8030856  0.320027E-08  0.480E-04    4.17      25.3  T
   4   -107.8030856 -0.887034E-08  0.132E-04    4.17      91.7  T
     SCC iter.                  ...        0 min,  0.016 sec
     gradient                   ...        0 min,  0.005 sec
 * total energy  :  -106.5652661 Eh     change       -0.9895384E-05 Eh
   gradient norm :     0.0010853 Eh/α   predicted    -0.3837106E-05 ( -61.22%)
   displ. norm   :     0.1330123 α      lambda       -0.1950341E-04
   maximum displ.:     0.0605353 α      in ANC's #3, #16, #2, ...

........................................................................
.............................. CYCLE   25 ..............................
........................................................................

 iter      E             dE          RMSdq      gap      omega  full diag
   1   -107.8030193 -0.107803E+03  0.173E-02    4.17       0.0  T
   2   -107.8030195 -0.159093E-06  0.102E-02    4.17       1.2  T
   3   -107.8030195  0.605624E-09  0.102E-03    4.17      11.9  T
   4   -107.8030195 -0.375165E-07  0.362E-04    4.17      33.5  T
   5   -107.8030195 -0.421295E-09  0.141E-04    4.17      86.0  T
     SCC iter.                  ...        0 min,  0.024 sec
     gradient                   ...        0 min,  0.005 sec
 * total energy  :  -106.5652833 Eh     change       -0.1725285E-04 Eh
   gradient norm :     0.0009318 Eh/α   predicted    -0.9829009E-05 ( -43.03%)
   displ. norm   :     0.0470657 α      lambda       -0.3883073E-05
   maximum displ.:     0.0258143 α      in ANC's #3, #2, #16, ...

........................................................................
.............................. CYCLE   26 ..............................
........................................................................

 iter      E             dE          RMSdq      gap      omega  full diag
   1   -107.8031993 -0.107803E+03  0.565E-03    4.17       0.0  T
   2   -107.8031993 -0.191635E-07  0.334E-03    4.17       3.6  T
   3   -107.8031993  0.608054E-09  0.337E-04    4.17      36.0  T
   4   -107.8031993 -0.439562E-08  0.121E-04    4.17     100.5  T
     SCC iter.                  ...        0 min,  0.018 sec
     gradient                   ...        0 min,  0.005 sec
 * total energy  :  -106.5652875 Eh     change       -0.4204213E-05 Eh
   gradient norm :     0.0005486 Eh/α   predicted    -0.1946332E-05 ( -53.71%)
   displ. norm   :     0.0472880 α      lambda       -0.3222754E-05
   maximum displ.:     0.0288820 α      in ANC's #3, #2, #16, ...

   *** GEOMETRY OPTIMIZATION CONVERGED AFTER 26 ITERATIONS ***

------------------------------------------------------------------------
 total energy gain   :        -1.7144834 Eh    -1075.8545 kcal/mol
 total RMSD          :         0.3352069 a0        0.1774 Å
 total power (kW/mol):      -173.1298239 (step)-3851.9022 (real)
------------------------------------------------------------------------

 ANCopt (total)                0 d,  0 h,  0 min,  1.169 sec
 optimizer setup                ...        0 min,  0.000 sec (  0.019%)
 model hessian                  ...        0 min,  0.065 sec (  5.551%)
 ANC generation                 ...        0 min,  0.041 sec (  3.547%)
 coordinate transformation      ...        0 min,  0.001 sec (  0.050%)
 single point calculation       ...        0 min,  1.050 sec ( 89.813%)
 optimization log               ...        0 min,  0.003 sec (  0.285%)
 hessian update                 ...        0 min,  0.002 sec (  0.140%)
 rational function              ...        0 min,  0.005 sec (  0.388%)

================
 final structure:
================
68
 xtb: 6.7.1-6.fc44.fc44
O            2.12242707130205       -1.51295450665093        1.32370605885764
O           -1.20564581642491       -4.15575010454264        1.53933159020185
O           -0.62146263653746        0.04924176870827       -0.71188541671211
O           -1.05508396441620        2.95508617208680       -2.63611336393835
O           -2.13895553846634        1.38777682725267        1.77379811947179
O            1.82290590030228        2.85644359207219        0.29231759197070
N            0.44538351249014       -3.42828180141486        0.21679987219614
N           -2.02379295803808       -1.28837456146623        0.43226911557120
N           -2.48677610253855        1.34043593031468       -2.05500702204944
N           -0.92162095415765        2.78457608140723        0.48522438478948
N            1.28104467696206        1.15125951719681        1.68807931986208
N            2.32076383453132       -0.35261761326062       -0.58319191182138
C            1.90399885063048       -1.41032564682421        0.11892207210465
C            1.13809667012330       -2.48800251499268       -0.65209506469010
C            2.09454775298230       -3.37116391889481       -1.47589825142487
C            1.44711308912740       -4.75200035567160       -1.43558852633091
C            0.88776502218634       -4.79496500912984       -0.02314668397299
C           -0.60412283398297       -3.22318080247952        1.03680006584809
C           -1.00350500801191       -1.77188456528153        1.34875248385667
C           -1.52186889610068       -1.69069252188777        2.77973254676944
C           -1.75533052259710       -0.30215025142725       -0.43201635402805
C           -2.96980850786342        0.36286221164936       -1.10533578771299
C           -3.85756185973841       -0.64465728278332       -1.83049586916608
C           -1.76924077301344        2.46405291098063       -1.78811987806446
C           -1.98865560710504        3.14172960306359       -0.42614635038146
C           -2.00078731108976        4.65596083644176       -0.61897399329169
C           -1.08225259478298        1.94071314765491        1.50503165630358
C            0.16001381871165        1.75197692123311        2.39852610675813
C            0.54658760239319        3.07822283360918        3.05684398360672
C            1.97399126406047        1.71350472535732        0.69182142434722
C            3.01191375898569        0.75972231170563        0.06507113722671
C            3.74284152682321        1.44024229724167       -1.08467750837720
C            2.74143604475339        1.28984044689776       -2.22752368548356
C            2.14945792075763       -0.10233089608121       -2.00398300778362
H            0.41075145618858       -1.98540904190709       -1.29914374296857
H            2.22199165985279       -3.00472879366309       -2.49182119783854
H            3.06957324177061       -3.40479964892835       -0.98649022563610
H            0.63786092924230       -4.81136497311696       -2.16484530131017
H            2.15610002735054       -5.55308713074471       -1.63076015091884
H            0.04407599797974       -5.47375802871911        0.10518750378560
H            1.66450074704492       -5.05747269906538        0.70293910284157
H           -2.97687510505584       -1.46337344160859        0.71010077508981
H           -0.14602129307068       -1.11465211521379        1.21645261167903
H           -2.28209136859188       -2.45257097702166        2.93724714507165
H           -1.94362897992273       -0.70420568974162        2.95805229057399
H           -0.70657409936043       -1.87272201382083        3.47473655148510
H           -2.23469572252714        0.94162127575510       -2.95315555433760
H           -3.53885518398828        0.86302328013020       -0.31484132405092
H           -4.30036881690046       -1.34995598737306       -1.13311365377403
H           -3.27859123646176       -1.20199796755345       -2.56503361690997
H           -4.65902380750067       -0.11994137919303       -2.34551473707216
H            0.01377339919122        3.12026236566593        0.26046289185064
H           -2.92582678419977        2.80633323205327        0.02683539239177
H           -2.07151722977499        5.15412677140581        0.34450846694850
H           -2.84772751757920        4.94639053071872       -1.23480200969111
H           -1.08687225704104        4.96341296788138       -1.12060246230473
H            1.52230036420969        0.19391214205143        1.92592739188086
H           -0.13016116657903        1.03843608341963        3.17547038890917
H            1.34208014677667        2.91041169676699        3.77953864140811
H           -0.31524573474490        3.49456325049464        3.57210848955519
H            0.89568046768906        3.78905506835662        2.31406627588585
H            3.66962454959405        0.37318728219996        0.85016309952256
H            4.67488661017534        0.91845929357936       -1.30463398240273
H            3.95209492935775        2.48252421646717       -0.85708778189264
H            3.20310134363895        1.38379657162650       -3.20800918412333
H            1.96314442116892        2.04547924379830       -2.13221366852582
H            1.09261678052020       -0.13347977578553       -2.27117029247454
H            2.69777740574023       -0.85455173420889       -2.57930093955514

 Bond Distances (Angstroems)
 ---------------------------
O1-C13=1.2287        O2-C18=1.2182        O3-C21=1.2196        O4-C24=1.2125        O5-C27=1.2225        O6-C30=1.2201        
N7-C14=1.4557        N7-C17=1.4564        N7-C18=1.3476        N8-C19=1.4542        N8-C21=1.3385        N8-H42=1.0081        
N9-C22=1.4460        N9-C24=1.3596        N9-H47=1.0145        N10-C25=1.4480       N10-C27=1.3334       N10-H52=1.0189       
N11-C28=1.4568       N11-C30=1.3375       N11-H57=1.0155       N12-C13=1.3362       N12-C31=1.4612       N12-C34=1.4528       
C13-O1=1.2287        C13-N12=1.3362       C13-C14=1.5305       C14-N7=1.4557        C14-C13=1.5305       C14-C15=1.5406       
C14-H35=1.0956       C15-C14=1.5406       C15-C16=1.5256       C15-H36=1.0875       C15-H37=1.0915       C16-C15=1.5256       
C16-C17=1.5198       C16-H38=1.0910       C16-H39=1.0874       C17-N7=1.4564        C17-C16=1.5198       C17-H40=1.0904       
C17-H41=1.0952       C18-O2=1.2182        C18-N7=1.3476        C18-C19=1.5372       C19-N8=1.4542        C19-C18=1.5372       
C19-C20=1.5241       C19-H43=1.0885       C20-C19=1.5241       C20-H44=1.0878       C20-H45=1.0876       C20-H46=1.0867       
C21-O3=1.2196        C21-N8=1.3385        C21-C22=1.5397       C22-N9=1.4460        C22-C21=1.5397       C22-C23=1.5261       
C22-H48=1.0949       C23-C22=1.5261       C23-H49=1.0862       C23-H50=1.0888       C23-H51=1.0876       C24-O4=1.2125        
C24-N9=1.3596        C24-C25=1.5370       C25-N10=1.4480       C25-C24=1.5370       C25-C26=1.5265       C25-H53=1.0936       
C26-C25=1.5265       C26-H54=1.0870       C26-H55=1.0867       C26-H56=1.0869       C27-O5=1.2225        C27-N10=1.3334       
C27-C28=1.5418       C28-N11=1.4568       C28-C27=1.5418       C28-C29=1.5303       C28-H58=1.0941       C29-C28=1.5303       
C29-H59=1.0878       C29-H60=1.0870       C29-H61=1.0858       C30-O6=1.2201        C30-N11=1.3375       C30-C31=1.5427       
C31-N12=1.4612       C31-C30=1.5427       C31-C32=1.5229       C31-H62=1.0947       C32-C31=1.5229       C32-C33=1.5269       
C32-H63=1.0906       C32-H64=1.0872       C33-C32=1.5269       C33-C34=1.5292       C33-H65=1.0878       C33-H66=1.0889       
C34-N12=1.4528       C34-C33=1.5292       C34-H67=1.0905       C34-H68=1.0943       H35-C14=1.0956       H36-C15=1.0875       
H37-C15=1.0915       H38-C16=1.0910       H39-C16=1.0874       H40-C17=1.0904       H41-C17=1.0952       H42-N8=1.0081        
H43-C19=1.0885       H44-C20=1.0878       H45-C20=1.0876       H46-C20=1.0867       H47-N9=1.0145        H48-C22=1.0949       
H49-C23=1.0862       H50-C23=1.0888       H51-C23=1.0876       H52-N10=1.0189       H53-C25=1.0936       H54-C26=1.0870       
H55-C26=1.0867       H56-C26=1.0869       H57-N11=1.0155       H58-C28=1.0941       H59-C29=1.0878       H60-C29=1.0870       
H61-C29=1.0858       H62-C31=1.0947       H63-C32=1.0906       H64-C32=1.0872       H65-C33=1.0878       H66-C33=1.0889       
H67-C34=1.0905       H68-C34=1.0943       
 C  H  Rav=1.0896 sigma=0.0031  Rmin=1.0858  Rmax=1.0956    30
 C  C  Rav=1.5313 sigma=0.0072  Rmin=1.5198  Rmax=1.5427    16
 N  H  Rav=1.0143 sigma=0.0039  Rmin=1.0081  Rmax=1.0189     4
 N  C  Rav=1.4060 sigma=0.0557  Rmin=1.3334  Rmax=1.4612    14
 O  C  Rav=1.2203 sigma=0.0048  Rmin=1.2125  Rmax=1.2287     6

 selected bond angles (degree)
 --------------------
C17-N7-C14=111.30              C18-N7-C14=129.46              C18-N7-C17=118.66              C21-N8-C19=120.74              
H42-N8-C19=115.59              H42-N8-C21=119.70              C24-N9-C22=127.31              H47-N9-C22=113.49              
H47-N9-C24=111.56              C27-N10-C25=123.28             H52-N10-C25=117.16             H52-N10-C27=119.20             

 selected dihedral angles (degree)
 ---------------------------------


 CMA Distance (Angstroems)
 ---------------------------
R(CMA):  2.5674
           -------------------------------------------------
          |                Final Singlepoint                |
           -------------------------------------------------

          ...................................................
          :                      SETUP                      :
          :.................................................:
          :  # basis functions                 170          :
          :  # atomic orbitals                 170          :
          :  # shells                          102          :
          :  # electrons                       188          :
          :  max. iterations                   250          :
          :  Hamiltonian                  GFN2-xTB          :
          :  restarted?                      false          :
          :  GBSA solvation                  false          :
          :  PC potential                    false          :
          :  electronic temp.          300.0000000     K    :
          :  accuracy                    1.0000000          :
          :  -> integral cutoff          0.2500000E+02      :
          :  -> integral neglect         0.1000000E-07      :
          :  -> SCF convergence          0.1000000E-05 Eh   :
          :  -> wf. convergence          0.1000000E-03 e    :
          :  Broyden damping             0.4000000          :
          :  net charge                          0          :
          :  unpaired electrons                  0          :
          ...................................................

 iter      E             dE          RMSdq      gap      omega  full diag
   1   -107.8031993 -0.107803E+03  0.550E-05    4.17       0.0  T
   2   -107.8031993 -0.160867E-10  0.315E-05    4.17     385.5  T
   3   -107.8031993 -0.611067E-12  0.142E-05    4.17     852.4  T

   *** convergence criteria satisfied after 3 iterations ***

         #    Occupation            Energy/Eh            Energy/eV
      -------------------------------------------------------------
         1        2.0000           -0.7150317             -19.4570
       ...           ...                  ...                  ...
        88        2.0000           -0.4115070             -11.1977
        89        2.0000           -0.3981907             -10.8353
        90        2.0000           -0.3880201             -10.5586
        91        2.0000           -0.3872125             -10.5366
        92        2.0000           -0.3858888             -10.5006
        93        2.0000           -0.3846148             -10.4659
        94        2.0000           -0.3817445             -10.3878 (HOMO)
        95                         -0.2285923              -6.2203 (LUMO)
        96                         -0.2231468              -6.0721
        97                         -0.2210808              -6.0159
        98                         -0.2147663              -5.8441
        99                         -0.2110264              -5.7423
       ...                                ...                  ...
       170                          0.6332089              17.2305
      -------------------------------------------------------------
                  HL-Gap            0.1531522 Eh            4.1675 eV
             Fermi-level           -0.3051684 Eh           -8.3041 eV

 SCC (total)                   0 d,  0 h,  0 min,  0.022 sec
 SCC setup                      ...        0 min,  0.000 sec (  1.138%)
 Dispersion                     ...        0 min,  0.000 sec (  1.506%)
 classical contributions        ...        0 min,  0.000 sec (  0.147%)
 integral evaluation            ...        0 min,  0.001 sec (  5.590%)
 iterations                     ...        0 min,  0.014 sec ( 65.083%)
 molecular gradient             ...        0 min,  0.005 sec ( 24.429%)
 printout                       ...        0 min,  0.000 sec (  2.056%)

         :::::::::::::::::::::::::::::::::::::::::::::::::::::
         ::                     SUMMARY                     ::
         :::::::::::::::::::::::::::::::::::::::::::::::::::::
         :: total energy            -106.565287538460 Eh    ::
         :: gradient norm              0.000548901107 Eh/a0 ::
         :: HOMO-LUMO gap              4.167483612115 eV    ::
         ::.................................................::
         :: SCC energy              -107.798443010605 Eh    ::
         :: -> isotropic ES            0.231306029430 Eh    ::
         :: -> anisotropic ES         -0.002157150557 Eh    ::
         :: -> anisotropic XC          0.028318750596 Eh    ::
         :: -> dispersion             -0.085996900579 Eh    ::
         :: repulsion energy           1.233155472145 Eh    ::
         :: add. restraining           0.000000000000 Eh    ::
         :: total charge               0.000000000000 e     ::
         :::::::::::::::::::::::::::::::::::::::::::::::::::::

           -------------------------------------------------
          |                Property Printout                |
           -------------------------------------------------

    * Orbital Energies and Occupations

         #    Occupation            Energy/Eh            Energy/eV
      -------------------------------------------------------------
         1        2.0000           -0.7150317             -19.4570
       ...           ...                  ...                  ...
        82        2.0000           -0.4422862             -12.0352
        83        2.0000           -0.4280911             -11.6490
        84        2.0000           -0.4264239             -11.6036
        85        2.0000           -0.4228577             -11.5065
        86        2.0000           -0.4183485             -11.3838
        87        2.0000           -0.4164468             -11.3321
        88        2.0000           -0.4115070             -11.1977
        89        2.0000           -0.3981907             -10.8353
        90        2.0000           -0.3880201             -10.5586
        91        2.0000           -0.3872125             -10.5366
        92        2.0000           -0.3858888             -10.5006
        93        2.0000           -0.3846148             -10.4659
        94        2.0000           -0.3817445             -10.3878 (HOMO)
        95                         -0.2285923              -6.2203 (LUMO)
        96                         -0.2231468              -6.0721
        97                         -0.2210808              -6.0159
        98                         -0.2147663              -5.8441
        99                         -0.2110264              -5.7423
       100                         -0.2056763              -5.5967
       101                         -0.0351669              -0.9569
       102                         -0.0133211              -0.3625
       103                         -0.0061797              -0.1682
       104                          0.0018570               0.0505
       105                          0.0092471               0.2516
       ...                                ...                  ...
       170                          0.6332089              17.2305
      -------------------------------------------------------------
                  HL-Gap            0.1531522 Eh            4.1675 eV
             Fermi-level           -0.3051684 Eh           -8.3041 eV

     #   Z          covCN         q      C6AA      α(0)
     1   8 O        0.859    -0.475    23.242     6.464
     2   8 O        0.859    -0.438    22.463     6.354
     3   8 O        0.859    -0.473    23.196     6.457
     4   8 O        0.860    -0.421    22.105     6.304
     5   8 O        0.858    -0.477    23.286     6.470
     6   8 O        0.858    -0.442    22.542     6.366
     7   7 N        2.755    -0.087    22.927     7.112
     8   7 N        2.689    -0.173    24.737     7.387
     9   7 N        2.691    -0.185    25.004     7.427
    10   7 N        2.691    -0.175    24.781     7.393
    11   7 N        2.688    -0.184    24.993     7.425
    12   7 N        2.758    -0.082    22.829     7.096
    13   6 C        2.757     0.259    22.644     7.792
    14   6 C        3.814     0.019    20.242     6.404
    15   6 C        3.836    -0.058    21.592     6.611
    16   6 C        3.827    -0.062    21.672     6.624
    17   6 C        3.787     0.001    20.583     6.462
    18   6 C        2.762     0.258    22.649     7.794
    19   6 C        3.795     0.028    20.102     6.385
    20   6 C        3.757    -0.118    22.816     6.810
    21   6 C        2.757     0.274    22.375     7.746
    22   6 C        3.787     0.020    20.250     6.409
    23   6 C        3.756    -0.118    22.824     6.812
    24   6 C        2.750     0.275    22.344     7.740
    25   6 C        3.791     0.029    20.094     6.384
    26   6 C        3.758    -0.116    22.766     6.803
    27   6 C        2.752     0.271    22.419     7.753
    28   6 C        3.788     0.025    20.173     6.397
    29   6 C        3.754    -0.118    22.811     6.810
    30   6 C        2.749     0.275    22.351     7.741
    31   6 C        3.837     0.019    20.233     6.399
    32   6 C        3.833    -0.061    21.638     6.618
    33   6 C        3.835    -0.064    21.704     6.628
    34   6 C        3.767    -0.004    20.682     6.482
    35   1 H        0.924     0.058     2.224     2.332
    36   1 H        0.925     0.043     2.404     2.425
    37   1 H        0.924     0.050     2.326     2.385
    38   1 H        0.924     0.046     2.375     2.410
    39   1 H        0.925     0.050     2.316     2.380
    40   1 H        0.924     0.076     2.018     2.222
    41   1 H        0.924     0.057     2.240     2.341
    42   1 H        0.860     0.189     1.162     1.689
    43   1 H        0.925     0.065     2.136     2.286
    44   1 H        0.925     0.065     2.145     2.291
    45   1 H        0.925     0.066     2.126     2.280
    46   1 H        0.925     0.053     2.280     2.361
    47   1 H        0.860     0.189     1.162     1.689
    48   1 H        0.924     0.076     2.023     2.224
    49   1 H        0.925     0.054     2.267     2.355
    50   1 H        0.925     0.048     2.339     2.392
    51   1 H        0.925     0.063     2.165     2.301
    52   1 H        0.860     0.229     0.967     1.541
    53   1 H        0.924     0.061     2.190     2.314
    54   1 H        0.925     0.050     2.323     2.384
    55   1 H        0.925     0.050     2.321     2.382
    56   1 H        0.925     0.072     2.067     2.248
    57   1 H        0.860     0.213     1.044     1.601
    58   1 H        0.924     0.066     2.135     2.285
    59   1 H        0.925     0.051     2.303     2.373
    60   1 H        0.925     0.051     2.312     2.378
    61   1 H        0.925     0.070     2.085     2.258
    62   1 H        0.924     0.063     2.162     2.300
    63   1 H        0.924     0.042     2.420     2.433
    64   1 H        0.925     0.071     2.071     2.250
    65   1 H        0.925     0.048     2.339     2.392
    66   1 H        0.925     0.078     2.000     2.211
    67   1 H        0.924     0.072     2.063     2.246
    68   1 H        0.924     0.041     2.432     2.439

 Mol. C6AA /au·bohr⁶  :      43567.908731
 Mol. C8AA /au·bohr⁸  :     969649.320509
 Mol. α(0) /au        :        310.253515


Wiberg/Mayer (AO) data.
largest (>0.10) Wiberg bond orders for each atom

 ---------------------------------------------------------------------------
     #   Z sym  total        # sym  WBO       # sym  WBO       # sym  WBO
 ---------------------------------------------------------------------------
     1   8 O    1.967 --    13 C    1.591    12 N    0.195
     2   8 O    1.997 --    18 C    1.668     7 N    0.201
     3   8 O    1.976 --    21 C    1.643     8 N    0.191
     4   8 O    2.016 --    24 C    1.710     9 N    0.187
     5   8 O    1.965 --    27 C    1.630    10 N    0.202
     6   8 O    2.016 --    30 C    1.636    11 N    0.199
     7   7 N    3.506 --    18 C    1.268    14 C    0.982    17 C    0.975
                             2 O    0.201
     8   7 N    3.458 --    21 C    1.292    19 C    0.965    42 H    0.931
                             3 O    0.191
     9   7 N    3.408 --    24 C    1.229    22 C    0.996    47 H    0.929
                             4 O    0.187
    10   7 N    3.485 --    27 C    1.321    25 C    0.979    52 H    0.877
                             5 O    0.202
    11   7 N    3.476 --    30 C    1.311    28 C    0.973    57 H    0.896
                             6 O    0.199
    12   7 N    3.534 --    13 C    1.310    34 C    0.977    31 C    0.959
                             1 O    0.195
    13   6 C    3.956 --     1 O    1.591    12 N    1.310    14 C    0.941
    14   6 C    3.975 --     7 N    0.982    15 C    0.976    35 H    0.945
                            13 C    0.941
    15   6 C    3.993 --    16 C    1.003    37 H    0.978    14 C    0.976
                            36 H    0.976
    16   6 C    3.995 --    17 C    1.007    15 C    1.003    38 H    0.979
                            39 H    0.977
    17   6 C    3.967 --    16 C    1.007     7 N    0.975    41 H    0.966
                            40 H    0.966
    18   6 C    3.954 --     2 O    1.668     7 N    1.268    19 C    0.928
    19   6 C    3.958 --    20 C    1.000     8 N    0.965    43 H    0.947
                            18 C    0.928
    20   6 C    3.988 --    19 C    1.000    46 H    0.982    44 H    0.981
                            45 H    0.977
    21   6 C    3.949 --     3 O    1.643     8 N    1.292    22 C    0.924
    22   6 C    3.973 --    23 C    0.998     9 N    0.996    48 H    0.940
                            21 C    0.924
    23   6 C    3.991 --    22 C    0.998    50 H    0.985    51 H    0.982
                            49 H    0.981
    24   6 C    3.946 --     4 O    1.710     9 N    1.229    25 C    0.929
    25   6 C    3.971 --    26 C    0.997    10 N    0.979    53 H    0.954
                            24 C    0.929
    26   6 C    3.990 --    25 C    0.997    54 H    0.985    55 H    0.984
                            56 H    0.981
    27   6 C    3.954 --     5 O    1.630    10 N    1.321    28 C    0.924
    28   6 C    3.963 --    29 C    0.992    11 N    0.973    58 H    0.965
                            27 C    0.924
    29   6 C    3.989 --    28 C    0.992    59 H    0.984    60 H    0.984
                            61 H    0.980
    30   6 C    3.952 --     6 O    1.636    11 N    1.311    31 C    0.922
    31   6 C    3.965 --    32 C    0.998    12 N    0.959    62 H    0.952
                            30 C    0.922
    32   6 C    3.992 --    33 C    1.004    31 C    0.998    63 H    0.978
                            64 H    0.971
    33   6 C    3.990 --    32 C    1.004    34 C    1.003    65 H    0.978
                            66 H    0.975
    34   6 C    3.966 --    33 C    1.003    12 N    0.977    68 H    0.966
                            67 H    0.959
    35   1 H    0.997 --    14 C    0.945
    36   1 H    0.998 --    15 C    0.976
    37   1 H    0.997 --    15 C    0.978
    38   1 H    0.998 --    16 C    0.979
    39   1 H    0.997 --    16 C    0.977
    40   1 H    0.994 --    17 C    0.966
    41   1 H    0.997 --    17 C    0.966
    42   1 H    0.964 --     8 N    0.931
    43   1 H    0.996 --    19 C    0.947
    44   1 H    0.996 --    20 C    0.981
    45   1 H    0.995 --    20 C    0.977
    46   1 H    0.997 --    20 C    0.982
    47   1 H    0.964 --     9 N    0.929
    48   1 H    0.994 --    22 C    0.940
    49   1 H    0.996 --    23 C    0.981
    50   1 H    0.998 --    23 C    0.985
    51   1 H    0.996 --    23 C    0.982
    52   1 H    0.947 --    10 N    0.877
    53   1 H    0.996 --    25 C    0.954
    54   1 H    0.997 --    26 C    0.985
    55   1 H    0.997 --    26 C    0.984
    56   1 H    0.995 --    26 C    0.981
    57   1 H    0.955 --    11 N    0.896
    58   1 H    0.995 --    28 C    0.965
    59   1 H    0.997 --    29 C    0.984
    60   1 H    0.997 --    29 C    0.984
    61   1 H    0.995 --    29 C    0.980
    62   1 H    0.996 --    31 C    0.952
    63   1 H    0.998 --    32 C    0.978
    64   1 H    0.994 --    32 C    0.971
    65   1 H    0.997 --    33 C    0.978
    66   1 H    0.994 --    33 C    0.975
    67   1 H    0.995 --    34 C    0.959
    68   1 H    0.998 --    34 C    0.966
 ---------------------------------------------------------------------------

Topologies differ in total number of bonds
Writing topology from bond orders to xtbtopo.mol

molecular dipole:
                 x           y           z       tot (Debye)
 q only:        0.193      -0.380      -1.184
   full:        0.188      -0.674      -1.198       3.526
molecular quadrupole (traceless):
                xx          xy          yy          xz          yz          zz
 q only:       14.253      -6.817     -10.574       1.206      25.067      -3.679
  q+dip:       20.879     -10.147     -18.000       2.822      30.038      -2.880
   full:       20.062     -10.305     -17.691       3.596      31.065      -2.371

           -------------------------------------------------
          |                Geometry Summary                 |
           -------------------------------------------------

      molecular mass/u    :      478.5428241
   center of mass at/Å    :        0.0044822       0.0116990      -0.0034433
  moments of inertia/u·Å² :        0.2874688E+04   0.4182519E+04   0.4829857E+04
rotational constants/cm⁻¹ :        0.5864161E-02   0.4030498E-02   0.3490296E-02

 * 64 selected distances

     #   Z          #   Z                                           value/Å
     1   8 O       13   6 C                                       1.2287182
    12   7 N       13   6 C                                       1.3361900
     7   7 N       14   6 C                                       1.4556632
    14   6 C       15   6 C                                       1.5405924 (max)
    15   6 C       16   6 C                                       1.5256167
     7   7 N       17   6 C                                       1.4563994
    16   6 C       17   6 C                                       1.5197726
     2   8 O       18   6 C                                       1.2182174
     7   7 N       18   6 C                                       1.3475647
     8   7 N       19   6 C                                       1.4542048
    19   6 C       20   6 C                                       1.5241383
     3   8 O       21   6 C                                       1.2196146
     8   7 N       21   6 C                                       1.3385441
     9   7 N       22   6 C                                       1.4459760
    22   6 C       23   6 C                                       1.5261255
     4   8 O       24   6 C                                       1.2125291
     9   7 N       24   6 C                                       1.3596327
    10   7 N       25   6 C                                       1.4480050
    25   6 C       26   6 C                                       1.5265079
     5   8 O       27   6 C                                       1.2225365
    10   7 N       27   6 C                                       1.3333846
    11   7 N       28   6 C                                       1.4568139
    28   6 C       29   6 C                                       1.5302779
     6   8 O       30   6 C                                       1.2201392
    11   7 N       30   6 C                                       1.3374695
    12   7 N       31   6 C                                       1.4612439
    31   6 C       32   6 C                                       1.5229200
    32   6 C       33   6 C                                       1.5269353
    12   7 N       34   6 C                                       1.4528031
    33   6 C       34   6 C                                       1.5292318
    14   6 C       35   1 H                                       1.0955836
    15   6 C       36   1 H                                       1.0874816
    15   6 C       37   1 H                                       1.0914790
    16   6 C       38   1 H                                       1.0909761
    16   6 C       39   1 H                                       1.0874257
    17   6 C       40   1 H                                       1.0904316
    17   6 C       41   1 H                                       1.0951847
     8   7 N       42   1 H                                       1.0080579 (min)
    19   6 C       43   1 H                                       1.0884559
    20   6 C       44   1 H                                       1.0877537
    20   6 C       45   1 H                                       1.0875826
    20   6 C       46   1 H                                       1.0866789
     9   7 N       47   1 H                                       1.0145288
    22   6 C       48   1 H                                       1.0949233
    23   6 C       49   1 H                                       1.0862166
    23   6 C       50   1 H                                       1.0887523
    23   6 C       51   1 H                                       1.0876179
    10   7 N       52   1 H                                       1.0189042
    25   6 C       53   1 H                                       1.0936056
    26   6 C       54   1 H                                       1.0869548
    26   6 C       55   1 H                                       1.0866929
    26   6 C       56   1 H                                       1.0869217
    11   7 N       57   1 H                                       1.0155246
    28   6 C       58   1 H                                       1.0940680
    29   6 C       59   1 H                                       1.0877761
    29   6 C       60   1 H                                       1.0870114
    29   6 C       61   1 H                                       1.0857565
    31   6 C       62   1 H                                       1.0946974
    32   6 C       63   1 H                                       1.0905717
    32   6 C       64   1 H                                       1.0871687
    33   6 C       65   1 H                                       1.0878027
    33   6 C       66   1 H                                       1.0889500
    34   6 C       67   1 H                                       1.0905378
    34   6 C       68   1 H                                       1.0942949

 * 5 distinct bonds (by element types)

   Z      Z             #   av. dist./Å        max./Å        min./Å
   1 H    6 C          30     1.0896451     1.0955836     1.0857565
   6 C    6 C          10     1.5272118     1.5405924     1.5197726
   1 H    7 N           4     1.0142539     1.0189042     1.0080579
   6 C    7 N          14     1.4059925     1.4612439     1.3333846
   6 C    8 O           6     1.2202925     1.2287182     1.2125291


optimized geometry written to: xtbopt.xyz


           -------------------------------------------------
          | TOTAL ENERGY             -106.565287538460 Eh   |
          | GRADIENT NORM               0.000548901107 Eh/α |
          | HOMO-LUMO GAP               4.167483612115 eV   |
           -------------------------------------------------

------------------------------------------------------------------------
 * finished run on 2026/10/01 at 17:52:54.200     
------------------------------------------------------------------------
 total:
 * wall-time:     0 d,  0 h,  0 min,  1.311 sec
 *  cpu-time:     0 d,  0 h,  0 min, 19.286 sec
 * ratio c/w:    14.714 speedup
 SCF:
 * wall-time:     0 d,  0 h,  0 min,  0.108 sec
 *  cpu-time:     0 d,  0 h,  0 min,  1.626 sec
 * ratio c/w:    15.053 speedup
 ANC optimizer:
 * wall-time:     0 d,  0 h,  0 min,  1.191 sec
 *  cpu-time:     0 d,  0 h,  0 min, 17.507 sec
 * ratio c/w:    14.695 speedup


--- STDERR ---
normal termination of xtb
Note: The following floating-point exceptions are signalling: IEEE_UNDERFLOW_FLAG IEEE_DENORMAL
