68
 energy: -106.573596811432 gnorm: 0.000934618640 xtb: 6.7.1-6.fc44.fc44
O            1.26154273068185       -0.30059714168229        1.68009334421418
O            1.02730654243247       -0.93703491779596       -1.58113374672487
O           -3.42454105623636       -2.62764577116406       -0.19634214487968
O           -3.13181052911536        3.07764421665511        0.36353751330202
O           -1.27152510612312        1.62031693672628       -1.40995253225297
O            2.41682844494993        2.96311601959668        1.16812639865686
N            0.32472036887302       -2.40203631089110       -0.05743857620714
N           -2.18460355275746       -0.91143442869240       -0.98299267418133
N           -3.83131121890921        0.96155431579779        0.21229548633801
N           -0.53740521587357        2.04449875021950        0.67701588625919
N            1.96519953895943        1.72932941565143       -0.66759978740102
N            3.17066742593303       -0.45863813496490        0.51781100671629
C            2.00005474424143       -0.94873020627594        0.95611747699783
C            1.64133451121358       -2.38638298349479        0.57794914889516
C            1.46999576055803       -3.25583872608506        1.82663965883692
C            0.30545969117075       -4.17097922427443        1.45885326051152
C           -0.60699127433728       -3.22675979152142        0.68530751239666
C            0.12178541369455       -1.63686279769650       -1.13662219919518
C           -1.26680709236190       -1.69365275107883       -1.78652021665444
C           -1.21331028651110       -1.13472655109827       -3.20327810131923
C           -3.17574005635587       -1.43583591433368       -0.25990152773459
C           -3.97389592641788       -0.42429346456656        0.59688412092616
C           -5.45148869806453       -0.80880996758880        0.56709545987728
C           -2.93976687206556        1.90460192220706        0.59781718954076
C           -1.67762069411112        1.43933469896435        1.34279394684058
C           -1.72409922842071        1.90993222097783        2.79061255583353
C           -0.41924450443090        2.06076271809996       -0.65128956717341
C            0.91934033084836        2.61342638651804       -1.15214977274820
C            0.95643611637279        2.67773919639376       -2.67079288544152
C            2.57530351766238        1.95283565863563        0.50805938597789
C            3.57100975705726        0.87234541933238        0.94460906595436
C            4.94605832153396        1.07518060363082        0.30441092276435
C            4.86785468468350        0.22089510526891       -0.95807465881512
C            4.04274966229113       -0.98829324229858       -0.51549753554269
H            2.37319427130565       -2.81301101573555       -0.11349712282296
H            2.38151235750101       -3.79571589351088        2.07499374641672
H            1.19155678547369       -2.61809101518953        2.66717871995970
H            0.64717244236292       -4.97958688374096        0.81121185086629
H           -0.18602831317575       -4.59973671857739        2.32864440319249
H           -1.30956711796355       -3.74196879199765        0.03226520023278
H           -1.18185738140013       -2.60314478150379        1.37957625249383
H           -2.06401470329736        0.10164147359402       -1.07135868256169
H           -1.62840529477829       -2.72773554555033       -1.79204274868958
H           -0.45121504042947       -1.65011158395880       -3.78166133973287
H           -0.97176628195921       -0.07587554900772       -3.16177759787178
H           -2.17812996171364       -1.26035802408187       -3.68734183680458
H           -4.59528571956447        1.33731770969205       -0.33453946179766
H           -3.60277170495533       -0.55317783882107        1.62284717864192
H           -6.01618679777946       -0.22206265676278        1.28718321487645
H           -5.54931939591597       -1.86437120540543        0.80480489727996
H           -5.86087517174453       -0.64377504865716       -0.42753256811269
H            0.20655922984956        2.40781868481498        1.25625711171610
H           -1.56818307870628        0.34884351282358        1.30147712054820
H           -2.55789323976397        1.44636943211641        3.31294797138509
H           -1.85011878857924        2.98963809917381        2.81887296326882
H           -0.79822724860428        1.63817151566404        3.29199707965589
H            1.94485901806896        0.79684743993588       -1.06781393207348
H            1.09219179289739        3.59881843936253       -0.70555993387399
H            1.89027631629682        3.11922708296435       -3.00885198231328
H            0.12462019579814        3.27564530094500       -3.03117942276414
H            0.86464909722811        1.67417996068864       -3.07944492574687
H            3.60939630776968        0.91880193008930        2.03835962672965
H            5.72412817447368        0.70061208824541        0.97068190250795
H            5.14173868060774        2.12482774482919        0.09596690781766
H            5.84897951324737       -0.06775788923381       -1.32909923685095
H            4.34225197971975        0.76293322001897       -1.74393938856371
H            3.45701248873355       -1.39806014000415       -1.33997265363405
H            4.68788412783062       -1.77147860422164       -0.09907499415482
