      -----------------------------------------------------------      
     |                   =====================                   |     
     |                           x T B                           |     
     |                   =====================                   |     
     |                         S. Grimme                         |     
     |          Mulliken Center for Theoretical Chemistry        |     
     |                    University of Bonn                     |     
      -----------------------------------------------------------      

   * xtb version 6.7.1-6.fc44.fc44 compiled by Fedora project on Sun Jan 18 23:32:34 UTC 2026

   xtb is free software: you can redistribute it and/or modify it under
   the terms of the GNU Lesser General Public License as published by
   the Free Software Foundation, either version 3 of the License, or
   (at your option) any later version.
   
   xtb is distributed in the hope that it will be useful,
   but WITHOUT ANY WARRANTY; without even the implied warranty of
   MERCHANTABILITY or FITNESS FOR A PARTICULAR PURPOSE.  See the
   GNU Lesser General Public License for more details.
   
   Cite this work as:
   * C. Bannwarth, E. Caldeweyher, S. Ehlert, A. Hansen, P. Pracht,
     J. Seibert, S. Spicher, S. Grimme, WIREs Comput. Mol. Sci., 2020, 11,
     e01493. DOI: 10.1002/wcms.1493
   
   for GFN2-xTB:
   * C. Bannwarth, S. Ehlert and S. Grimme., J. Chem. Theory Comput., 2019,
     15, 1652-1671. DOI: 10.1021/acs.jctc.8b01176
   for GFN1-xTB:
   * S. Grimme, C. Bannwarth, P. Shushkov, J. Chem. Theory Comput., 2017,
     13, 1989-2009. DOI: 10.1021/acs.jctc.7b00118
   for GFN0-xTB:
   * P. Pracht, E. Caldeweyher, S. Ehlert, S. Grimme, ChemRxiv, 2019, preprint.
     DOI: 10.26434/chemrxiv.8326202.v1
   for GFN-FF:
   * S. Spicher and S. Grimme, Angew. Chem. Int. Ed., 2020, 59, 15665-15673.
     DOI: 10.1002/anie.202004239
   
   for ALPB and GBSA implicit solvation:
   * S. Ehlert, M. Stahn, S. Spicher, S. Grimme, J. Chem. Theory Comput.,
     2021, 17, 4250-4261. DOI: 10.1021/acs.jctc.1c00471
   
   for ddCOSMO and CPCM-X implicit solvation:
   * M. Stahn, S. Ehlert, S. Grimme, J. Phys. Chem. A,
     2023, XX, XXXX-XXXX. DOI: 10.1021/acs.jpca.3c04382
   
   for DFT-D4:
   * E. Caldeweyher, C. Bannwarth and S. Grimme, J. Chem. Phys., 2017,
     147, 034112. DOI: 10.1063/1.4993215
   * E. Caldeweyher, S. Ehlert, A. Hansen, H. Neugebauer, S. Spicher,
     C. Bannwarth and S. Grimme, J. Chem. Phys., 2019, 150, 154122.
     DOI: 10.1063/1.5090222
   * E. Caldeweyher, J.-M. Mewes, S. Ehlert and S. Grimme, Phys. Chem. Chem. Phys.
     2020, 22, 8499-8512. DOI: 10.1039/D0CP00502A
   
   for sTDA-xTB:
   * S. Grimme and C. Bannwarth, J. Chem. Phys., 2016, 145, 054103.
     DOI: 10.1063/1.4959605
   
   in the mass-spec context:
   * V. Asgeirsson, C. Bauer and S. Grimme, Chem. Sci., 2017, 8, 4879.
     DOI: 10.1039/c7sc00601b
   * J. Koopman and S. Grimme, ACS Omega 2019, 4, 12, 15120-15133.
     DOI: 10.1021/acsomega.9b02011
   
   for metadynamics refer to:
   * S. Grimme, J. Chem. Theory Comput., 2019, 155, 2847-2862
     DOI: 10.1021/acs.jctc.9b00143
   
   for SPH calculations refer to:
   * S. Spicher and S. Grimme, J. Chem. Theory Comput., 2021, 17, 1701-1714
     DOI: 10.1021/acs.jctc.0c01306
   
   for ONIOM refer to:
   * C. Plett, A. Katbashev, S. Ehlert, S. Grimme, M. Bursch,
     Phys. Chem. Chem. Phys., 2023, 25, 17860-17868. DOI: 10.1039/D3CP02178E
   
   for DIPRO refer to:
   * J. Kohn, N. Gildemeister, S. Grimme, D. Fazzi, A. Hansen,
     J. Chem. Phys., 2023, just accepted.
   
   for PTB refer to:
   * S. Grimme, M. Mueller, A. Hansen, J. Chem. Phys., 2023, 158, 124111.
     DOI: 10.1063/5.0137838
   
   with help from (in alphabetical order)
   P. Atkinson, C. Bannwarth, F. Bohle, G. Brandenburg, E. Caldeweyher
   M. Checinski, S. Dohm, S. Ehlert, S. Ehrlich, I. Gerasimov, C. Hölzer
   A. Katbashev, J. Kohn, J. Koopman, C. Lavigne, S. Lehtola, F. März, M. Müller,
   F. Musil, H. Neugebauer, J. Pisarek, C. Plett, P. Pracht, F. Pultar,
   J. Seibert, P. Shushkov, S. Spicher, M. Stahn, M. Steiner, T. Strunk,
   J. Stückrath, T. Rose, and J. Unsleber
   
 * started run on 2026/10/01 at 17:51:26.552     
   ID    Z sym.   atoms
    1    8 O      1-6
    2    7 N      7-12
    3    6 C      13-34
    4    1 H      35-68

           -------------------------------------------------
          |                Calculation Setup                |
           -------------------------------------------------

          program call               : /usr/bin/xtb input.xyz --opt --gfn 2 --chrg 0 --uhf 0
          hostname                   : fedora
          coordinate file            : input.xyz
          omp threads                :                    16


           -------------------------------------------------
          |                 G F N 2 - x T B                 |
           -------------------------------------------------

        Reference                      10.1021/acs.jctc.8b01176
      * Hamiltonian:
        H0-scaling (s, p, d)           1.850000    2.230000    2.230000
        zeta-weighting                 0.500000
      * Dispersion:
        s8                             2.700000
        a1                             0.520000
        a2                             5.000000
        s9                             5.000000
      * Repulsion:
        kExp                           1.500000    1.000000
        rExp                           1.000000
      * Coulomb:
        alpha                          2.000000
        third order                    shell-resolved
        anisotropic                    true
        a3                             3.000000
        a5                             4.000000
        cn-shift                       1.200000
        cn-exp                         4.000000
        max-rad                        5.000000


          ...................................................
          :                      SETUP                      :
          :.................................................:
          :  # basis functions                 170          :
          :  # atomic orbitals                 170          :
          :  # shells                          102          :
          :  # electrons                       188          :
          :  max. iterations                   250          :
          :  Hamiltonian                  GFN2-xTB          :
          :  restarted?                      false          :
          :  GBSA solvation                  false          :
          :  PC potential                    false          :
          :  electronic temp.          300.0000000     K    :
          :  accuracy                    1.0000000          :
          :  -> integral cutoff          0.2500000E+02      :
          :  -> integral neglect         0.1000000E-07      :
          :  -> SCF convergence          0.1000000E-05 Eh   :
          :  -> wf. convergence          0.1000000E-03 e    :
          :  Broyden damping             0.4000000          :
          :  net charge                          0          :
          :  unpaired electrons                  0          :
          ...................................................

 iter      E             dE          RMSdq      gap      omega  full diag
   1   -106.9276667 -0.106928E+03  0.442E+00    3.29       0.0  T
   2   -107.3574569 -0.429790E+00  0.242E+00    1.73       1.0  T
   3   -107.3728825 -0.154256E-01  0.132E+00    2.17       1.0  T
   4   -107.3722476  0.634957E-03  0.372E-01    1.77       1.0  T
   5   -107.3802550 -0.800744E-02  0.125E-01    2.03       1.0  T
   6   -107.3808054 -0.550416E-03  0.592E-02    1.96       1.0  T
   7   -107.3808540 -0.486052E-04  0.275E-02    1.96       1.0  T
   8   -107.3808659 -0.118768E-04  0.910E-03    1.96       1.3  T
   9   -107.3808673 -0.135854E-05  0.403E-03    1.96       3.0  T
  10   -107.3808675 -0.226057E-06  0.150E-03    1.96       8.1  T
  11   -107.3808675 -0.278690E-07  0.570E-04    1.96      21.3  T
  12   -107.3808675 -0.417981E-08  0.180E-04    1.96      67.2  T

   *** convergence criteria satisfied after 12 iterations ***

         #    Occupation            Energy/Eh            Energy/eV
      -------------------------------------------------------------
         1        2.0000           -0.7805252             -21.2392
       ...           ...                  ...                  ...
        88        2.0000           -0.3764401             -10.2435
        89        2.0000           -0.3676377             -10.0039
        90        2.0000           -0.3661850              -9.9644
        91        2.0000           -0.3601811              -9.8010
        92        2.0000           -0.3582175              -9.7476
        93        2.0000           -0.3505990              -9.5403
        94        2.0000           -0.3322966              -9.0422 (HOMO)
        95                         -0.2603288              -7.0839 (LUMO)
        96                         -0.2129998              -5.7960
        97                         -0.1936521              -5.2695
        98                         -0.1877941              -5.1101
        99                         -0.1805613              -4.9133
       ...                                ...                  ...
       170                          2.7820777              75.7042
      -------------------------------------------------------------
                  HL-Gap            0.0719678 Eh            1.9583 eV
             Fermi-level           -0.2963127 Eh           -8.0631 eV

 SCC (total)                   0 d,  0 h,  0 min,  0.088 sec
 SCC setup                      ...        0 min,  0.005 sec (  5.894%)
 Dispersion                     ...        0 min,  0.003 sec (  3.115%)
 classical contributions        ...        0 min,  0.001 sec (  1.002%)
 integral evaluation            ...        0 min,  0.017 sec ( 19.689%)
 iterations                     ...        0 min,  0.057 sec ( 64.510%)
 molecular gradient             ...        0 min,  0.005 sec (  5.296%)
 printout                       ...        0 min,  0.000 sec (  0.477%)

         :::::::::::::::::::::::::::::::::::::::::::::::::::::
         ::                     SUMMARY                     ::
         :::::::::::::::::::::::::::::::::::::::::::::::::::::
         :: total energy            -105.358274184637 Eh    ::
         :: gradient norm              2.344857094611 Eh/a0 ::
         :: HOMO-LUMO gap              1.958343111799 eV    ::
         ::.................................................::
         :: SCC energy              -107.376439693932 Eh    ::
         :: -> isotropic ES            0.296036273476 Eh    ::
         :: -> anisotropic ES         -0.006400950979 Eh    ::
         :: -> anisotropic XC          0.032353643524 Eh    ::
         :: -> dispersion             -0.084579150431 Eh    ::
         :: repulsion energy           2.018165509294 Eh    ::
         :: add. restraining           0.000000000000 Eh    ::
         :: total charge              -0.000000000000 e     ::
         :::::::::::::::::::::::::::::::::::::::::::::::::::::

      ----------------------------------------------------------- 
     |                   =====================                   |
     |                        A N C O P T                        |
     |                   =====================                   |
     |               Approximate Normal Coordinate               |
     |                Rational Function Optimizer                |
      ----------------------------------------------------------- 
      ----------------------------------------------------------- 
     |                   =====================                   |
     |                        A N C O P T                        |
     |                   =====================                   |
     |               Approximate Normal Coordinate               |
     |                Rational Function Optimizer                |
      ----------------------------------------------------------- 

          ...................................................
          :                      SETUP                      :
          :.................................................:
          :   optimization level            normal          :
          :   max. optcycles                   204          :
          :   ANC micro-cycles                  20          :
          :   degrees of freedom               198          :
          :.................................................:
          :   RF solver                   davidson          :
          :   write xtbopt.log                true          :
          :   linear?                        false          :
          :   energy convergence         0.5000000E-05 Eh   :
          :   grad. convergence          0.1000000E-02 Eh/α :
          :   maxmium RF displ.          1.0000000          :
          :   Hlow (freq-cutoff)         0.1000000E-01      :
          :   Hmax (freq-cutoff)         5.0000000          :
          :   S6 in model hess.         20.0000000          :
          ...................................................

generating ANC from exact Hessian ...
Using Lindh-Hessian (1995)
 Shifting diagonal of input Hessian by    9.7821338738565827E-003
 Lowest  eigenvalues of input Hessian
    0.000000    0.000000    0.000000    0.000000    0.000000    0.000000
    0.010000    0.010357    0.010604    0.010826    0.011052    0.011569
    0.011663    0.011908    0.012512    0.013135    0.013523    0.013891
 Highest eigenvalues
    2.610946    2.763824    2.837253    2.953413    3.163571    3.904421


........................................................................
.............................. CYCLE    1 ..............................
........................................................................

 iter      E             dE          RMSdq      gap      omega  full diag
   1   -107.3808675 -0.107381E+03  0.743E-05    1.96       0.0  T
   2   -107.3808675 -0.609219E-10  0.443E-05    1.96     273.4  T
   3   -107.3808675 -0.831335E-11  0.260E-05    1.96     467.1  T
     SCC iter.                  ...        0 min,  0.010 sec
     gradient                   ...        0 min,  0.005 sec
 * total energy  :  -105.3582742 Eh     change       -0.4638707E-09 Eh
   gradient norm :     2.3448554 Eh/α   predicted     0.0000000E+00 (-100.00%)
   displ. norm   :     0.5997217 α      lambda       -0.1326563E+01
   maximum displ.:     0.3250703 α      in ANC's #198, #197, #190, ...

........................................................................
.............................. CYCLE    2 ..............................
........................................................................

 iter      E             dE          RMSdq      gap      omega  full diag
   1   -107.3660015 -0.107366E+03  0.124E+00    2.56       0.0  T
   2   -107.4396711 -0.736695E-01  0.854E-01    3.29       1.0  T
   3   -107.4688034 -0.291323E-01  0.314E-01    3.01       1.0  T
   4   -107.4692197 -0.416345E-03  0.143E-01    2.90       1.0  T
   5   -107.4694853 -0.265601E-03  0.397E-02    2.88       1.0  T
   6   -107.4695427 -0.574168E-04  0.121E-02    2.90       1.0  T
   7   -107.4695454 -0.271295E-05  0.586E-03    2.90       2.1  T
   8   -107.4695461 -0.642592E-06  0.239E-03    2.90       5.1  T
   9   -107.4695462 -0.116413E-06  0.916E-04    2.90      13.2  T
  10   -107.4695462 -0.952700E-08  0.305E-04    2.90      39.7  T
     SCC iter.                  ...        0 min,  0.032 sec
     gradient                   ...        0 min,  0.006 sec
 * total energy  :  -106.1115078 Eh     change       -0.7532337E+00 Eh
   gradient norm :     0.7202231 Eh/α   predicted    -0.9018455E+00 (  19.73%)
   displ. norm   :     0.5983103 α      lambda       -0.3720379E+00
   maximum displ.:     0.1466021 α      in ANC's #139, #127, #138, ...

........................................................................
.............................. CYCLE    3 ..............................
........................................................................

 iter      E             dE          RMSdq      gap      omega  full diag
   1   -107.6307774 -0.107631E+03  0.644E-01    3.40       0.0  T
   2   -107.6464558 -0.156785E-01  0.367E-01    3.59       1.0  T
   3   -107.6480539 -0.159804E-02  0.194E-01    3.57       1.0  T
   4   -107.6480588 -0.491258E-05  0.358E-02    3.57       1.0  T
   5   -107.6480919 -0.331157E-04  0.130E-02    3.57       1.0  T
   6   -107.6480950 -0.310425E-05  0.533E-03    3.57       2.3  T
   7   -107.6480952 -0.205496E-06  0.190E-03    3.57       6.4  T
   8   -107.6480952 -0.291956E-07  0.682E-04    3.57      17.8  T
   9   -107.6480953 -0.734214E-08  0.298E-04    3.57      40.8  T
     SCC iter.                  ...        0 min,  0.030 sec
     gradient                   ...        0 min,  0.005 sec
 * total energy  :  -106.3981209 Eh     change       -0.2866130E+00 Eh
   gradient norm :     0.3736751 Eh/α   predicted    -0.2526095E+00 ( -11.86%)
   displ. norm   :     0.6017204 α      lambda       -0.1921055E+00
   maximum displ.:     0.1479544 α      in ANC's #139, #127, #144, ...

........................................................................
.............................. CYCLE    4 ..............................
........................................................................

 iter      E             dE          RMSdq      gap      omega  full diag
   1   -107.7583940 -0.107758E+03  0.586E-01    3.88       0.0  T
   2   -107.7684091 -0.100151E-01  0.323E-01    4.01       1.0  T
   3   -107.7692010 -0.791969E-03  0.174E-01    4.02       1.0  T
   4   -107.7692147 -0.136241E-04  0.318E-02    4.01       1.0  T
   5   -107.7692468 -0.321898E-04  0.109E-02    4.02       1.1  T
   6   -107.7692478 -0.986104E-06  0.389E-03    4.02       3.1  T
   7   -107.7692479 -0.102048E-06  0.159E-03    4.02       7.6  T
   8   -107.7692480 -0.233240E-07  0.502E-04    4.02      24.2  T
   9   -107.7692480 -0.313888E-08  0.219E-04    4.02      55.3  T
     SCC iter.                  ...        0 min,  0.033 sec
     gradient                   ...        0 min,  0.005 sec
 * total energy  :  -106.5260455 Eh     change       -0.1279246E+00 Eh
   gradient norm :     0.1439898 Eh/α   predicted    -0.1308305E+00 (   2.27%)
   displ. norm   :     0.5414979 α      lambda       -0.5504404E-01
   maximum displ.:     0.1379031 α      in ANC's #54, #67, #37, ...

........................................................................
.............................. CYCLE    5 ..............................
........................................................................

 iter      E             dE          RMSdq      gap      omega  full diag
   1   -107.7808052 -0.107781E+03  0.359E-01    3.79       0.0  T
   2   -107.7817046 -0.899352E-03  0.211E-01    3.90       1.0  T
   3   -107.7817040  0.592766E-06  0.861E-02    3.90       1.0  T
   4   -107.7818295 -0.125529E-03  0.128E-02    3.92       1.0  T
   5   -107.7818326 -0.309219E-05  0.522E-03    3.91       2.3  T
   6   -107.7818330 -0.408191E-06  0.209E-03    3.91       5.8  T
   7   -107.7818331 -0.227461E-07  0.796E-04    3.91      15.2  T
   8   -107.7818331 -0.108803E-07  0.220E-04    3.91      55.2  T
     SCC iter.                  ...        0 min,  0.025 sec
     gradient                   ...        0 min,  0.005 sec
 * total energy  :  -106.5597767 Eh     change       -0.3373116E-01 Eh
   gradient norm :     0.0825150 Eh/α   predicted    -0.3559223E-01 (   5.52%)
   displ. norm   :     0.4752934 α      lambda       -0.2070733E-01
   maximum displ.:     0.1267997 α      in ANC's #50, #57, #60, ...

........................................................................
.............................. CYCLE    6 ..............................
........................................................................

 iter      E             dE          RMSdq      gap      omega  full diag
   1   -107.8011418 -0.107801E+03  0.285E-01    4.02       0.0  T
   2   -107.8024779 -0.133607E-02  0.171E-01    4.04       1.0  T
   3   -107.8025719 -0.940101E-04  0.845E-02    4.04       1.0  T
   4   -107.8026041 -0.322114E-04  0.114E-02    4.03       1.1  T
   5   -107.8026078 -0.367044E-05  0.447E-03    4.03       2.7  T
   6   -107.8026080 -0.251741E-06  0.175E-03    4.03       6.9  T
   7   -107.8026080 -0.918125E-08  0.712E-04    4.03      17.0  T
   8   -107.8026080 -0.724603E-08  0.206E-04    4.03      58.8  T
     SCC iter.                  ...        0 min,  0.025 sec
     gradient                   ...        0 min,  0.005 sec
 * total energy  :  -106.5669354 Eh     change       -0.7158711E-02 Eh
   gradient norm :     0.0909786 Eh/α   predicted    -0.1269271E-01 (  77.30%)
   displ. norm   :     0.2923044 α      lambda       -0.9845282E-02
   maximum displ.:     0.1085264 α      in ANC's #31, #37, #26, ...

........................................................................
.............................. CYCLE    7 ..............................
........................................................................

 iter      E             dE          RMSdq      gap      omega  full diag
   1   -107.7981591 -0.107798E+03  0.146E-01    3.92       0.0  T
   2   -107.7988548 -0.695648E-03  0.934E-02    3.98       1.0  T
   3   -107.7989337 -0.789875E-04  0.514E-02    3.97       1.0  T
   4   -107.7989349 -0.119059E-05  0.983E-03    3.98       1.2  T
   5   -107.7989372 -0.224067E-05  0.350E-03    3.98       3.5  T
   6   -107.7989374 -0.222172E-06  0.124E-03    3.98       9.8  T
   7   -107.7989374 -0.620155E-08  0.612E-04    3.98      19.8  T
   8   -107.7989374 -0.431038E-08  0.147E-04    3.98      82.4  T
     SCC iter.                  ...        0 min,  0.028 sec
     gradient                   ...        0 min,  0.005 sec
 * total energy  :  -106.5718499 Eh     change       -0.4914490E-02 Eh
   gradient norm :     0.0297098 Eh/α   predicted    -0.5343251E-02 (   8.72%)
   displ. norm   :     0.1560662 α      lambda       -0.1582925E-02
   maximum displ.:     0.0524886 α      in ANC's #14, #22, #9, ...

........................................................................
.............................. CYCLE    8 ..............................
........................................................................

 iter      E             dE          RMSdq      gap      omega  full diag
   1   -107.8083482 -0.107808E+03  0.540E-02    4.03       0.0  T
   2   -107.8083691 -0.208553E-04  0.326E-02    4.01       1.0  T
   3   -107.8083688  0.220375E-06  0.132E-02    4.01       1.0  T
   4   -107.8083722 -0.333644E-05  0.182E-03    4.01       6.7  T
   5   -107.8083723 -0.757472E-07  0.889E-04    4.01      13.6  T
   6   -107.8083723 -0.651899E-08  0.314E-04    4.01      38.6  T
     SCC iter.                  ...        0 min,  0.029 sec
     gradient                   ...        0 min,  0.006 sec
 * total energy  :  -106.5728672 Eh     change       -0.1017333E-02 Eh
   gradient norm :     0.0157510 Eh/α   predicted    -0.8107628E-03 ( -20.31%)
   displ. norm   :     0.1537042 α      lambda       -0.7416909E-03
   maximum displ.:     0.0721373 α      in ANC's #14, #9, #8, ...

........................................................................
.............................. CYCLE    9 ..............................
........................................................................

 iter      E             dE          RMSdq      gap      omega  full diag
   1   -107.8130750 -0.107813E+03  0.514E-02    4.03       0.0  T
   2   -107.8131048 -0.297924E-04  0.298E-02    4.03       1.0  T
   3   -107.8131070 -0.221347E-05  0.140E-02    4.03       1.0  T
   4   -107.8131086 -0.165901E-05  0.174E-03    4.03       7.0  T
   5   -107.8131087 -0.604737E-07  0.697E-04    4.03      17.4  T
   6   -107.8131087 -0.494020E-08  0.292E-04    4.03      41.6  T
     SCC iter.                  ...        0 min,  0.019 sec
     gradient                   ...        0 min,  0.005 sec
 * total energy  :  -106.5732377 Eh     change       -0.3705556E-03 Eh
   gradient norm :     0.0097937 Eh/α   predicted    -0.3796134E-03 (   2.44%)
   displ. norm   :     0.0643314 α      lambda       -0.1635084E-03
   maximum displ.:     0.0207562 α      in ANC's #14, #9, #5, ...

........................................................................
.............................. CYCLE   10 ..............................
........................................................................

 iter      E             dE          RMSdq      gap      omega  full diag
   1   -107.8131785 -0.107813E+03  0.201E-02    4.04       0.0  T
   2   -107.8131858 -0.726564E-05  0.122E-02    4.04       1.0  T
   3   -107.8131865 -0.730711E-06  0.630E-03    4.04       1.9  T
   4   -107.8131867 -0.134542E-06  0.753E-04    4.04      16.1  T
   5   -107.8131867 -0.172598E-07  0.335E-04    4.04      36.2  T
     SCC iter.                  ...        0 min,  0.021 sec
     gradient                   ...        0 min,  0.005 sec
 * total energy  :  -106.5733385 Eh     change       -0.1007431E-03 Eh
   gradient norm :     0.0065907 Eh/α   predicted    -0.8209985E-04 ( -18.51%)
   displ. norm   :     0.0789198 α      lambda       -0.1089014E-03
   maximum displ.:     0.0224701 α      in ANC's #21, #14, #8, ...

........................................................................
.............................. CYCLE   11 ..............................
........................................................................

 iter      E             dE          RMSdq      gap      omega  full diag
   1   -107.8123013 -0.107812E+03  0.173E-02    4.03       0.0  T
   2   -107.8123030 -0.170389E-05  0.103E-02    4.03       1.2  T
   3   -107.8123030  0.380766E-07  0.389E-03    4.03       3.1  T
   4   -107.8123033 -0.319534E-06  0.576E-04    4.03      21.0  T
   5   -107.8123033 -0.555677E-08  0.301E-04    4.03      40.3  T
     SCC iter.                  ...        0 min,  0.017 sec
     gradient                   ...        0 min,  0.005 sec
 * total energy  :  -106.5734154 Eh     change       -0.7696257E-04 Eh
   gradient norm :     0.0050888 Eh/α   predicted    -0.5479262E-04 ( -28.81%)
   displ. norm   :     0.1053132 α      lambda       -0.8813808E-04
   maximum displ.:     0.0333141 α      in ANC's #8, #14, #10, ...

........................................................................
.............................. CYCLE   12 ..............................
........................................................................

 iter      E             dE          RMSdq      gap      omega  full diag
   1   -107.8119459 -0.107812E+03  0.206E-02    4.03       0.0  T
   2   -107.8119477 -0.176817E-05  0.121E-02    4.03       1.0  T
   3   -107.8119476  0.101155E-06  0.387E-03    4.03       3.1  T
   4   -107.8119480 -0.348906E-06  0.612E-04    4.03      19.8  T
   5   -107.8119480 -0.672540E-08  0.321E-04    4.03      37.8  T
     SCC iter.                  ...        0 min,  0.015 sec
     gradient                   ...        0 min,  0.006 sec
 * total energy  :  -106.5734735 Eh     change       -0.5804616E-04 Eh
   gradient norm :     0.0046836 Eh/α   predicted    -0.4455887E-04 ( -23.24%)
   displ. norm   :     0.0923071 α      lambda       -0.5385631E-04
   maximum displ.:     0.0376510 α      in ANC's #8, #10, #14, ...

........................................................................
.............................. CYCLE   13 ..............................
........................................................................

 iter      E             dE          RMSdq      gap      omega  full diag
   1   -107.8119792 -0.107812E+03  0.176E-02    4.03       0.0  T
   2   -107.8119807 -0.144327E-05  0.101E-02    4.04       1.2  T
   3   -107.8119806  0.535684E-07  0.359E-03    4.03       3.4  T
   4   -107.8119808 -0.236263E-06  0.538E-04    4.04      22.5  T
   5   -107.8119809 -0.755136E-08  0.266E-04    4.04      45.5  T
     SCC iter.                  ...        0 min,  0.015 sec
     gradient                   ...        0 min,  0.005 sec
 * total energy  :  -106.5735124 Eh     change       -0.3889227E-04 Eh
   gradient norm :     0.0039992 Eh/α   predicted    -0.2716094E-04 ( -30.16%)
   displ. norm   :     0.1101761 α      lambda       -0.5512181E-04
   maximum displ.:     0.0494620 α      in ANC's #8, #10, #2, ...

........................................................................
.............................. CYCLE   14 ..............................
........................................................................

 iter      E             dE          RMSdq      gap      omega  full diag
   1   -107.8130709 -0.107813E+03  0.206E-02    4.04       0.0  T
   2   -107.8130717 -0.769604E-06  0.119E-02    4.04       1.0  T
   3   -107.8130716  0.403682E-07  0.244E-03    4.04       5.0  T
   4   -107.8130718 -0.151726E-06  0.514E-04    4.04      23.6  T
   5   -107.8130718 -0.294366E-08  0.265E-04    4.04      45.8  T
     SCC iter.                  ...        0 min,  0.020 sec
     gradient                   ...        0 min,  0.005 sec
 * total energy  :  -106.5735491 Eh     change       -0.3674335E-04 Eh
   gradient norm :     0.0030173 Eh/α   predicted    -0.2789816E-04 ( -24.07%)
   displ. norm   :     0.0718522 α      lambda       -0.2986416E-04
   maximum displ.:     0.0351637 α      in ANC's #8, #2, #12, ...

........................................................................
.............................. CYCLE   15 ..............................
........................................................................

 iter      E             dE          RMSdq      gap      omega  full diag
   1   -107.8136754 -0.107814E+03  0.129E-02    4.05       0.0  T
   2   -107.8136760 -0.560340E-06  0.746E-03    4.05       1.6  T
   3   -107.8136759  0.230912E-07  0.226E-03    4.05       5.4  T
   4   -107.8136760 -0.924845E-07  0.342E-04    4.05      35.4  T
   5   -107.8136760 -0.185125E-08  0.172E-04    4.05      70.3  T
     SCC iter.                  ...        0 min,  0.016 sec
     gradient                   ...        0 min,  0.005 sec
 * total energy  :  -106.5735691 Eh     change       -0.1999323E-04 Eh
   gradient norm :     0.0024898 Eh/α   predicted    -0.1501006E-04 ( -24.92%)
   displ. norm   :     0.0508553 α      lambda       -0.1778910E-04
   maximum displ.:     0.0239422 α      in ANC's #8, #12, #2, ...

........................................................................
.............................. CYCLE   16 ..............................
........................................................................

 iter      E             dE          RMSdq      gap      omega  full diag
   1   -107.8141033 -0.107814E+03  0.895E-03    4.05       0.0  T
   2   -107.8141034 -0.180990E-06  0.526E-03    4.05       2.3  T
   3   -107.8141034  0.179141E-07  0.123E-03    4.05       9.9  T
   4   -107.8141035 -0.442042E-07  0.234E-04    4.05      51.8  T
   5   -107.8141035 -0.872163E-09  0.125E-04    4.05      97.3  T
     SCC iter.                  ...        0 min,  0.015 sec
     gradient                   ...        0 min,  0.010 sec
 * total energy  :  -106.5735811 Eh     change       -0.1194873E-04 Eh
   gradient norm :     0.0019895 Eh/α   predicted    -0.8920439E-05 ( -25.34%)
   displ. norm   :     0.0596888 α      lambda       -0.1160114E-04
   maximum displ.:     0.0312492 α      in ANC's #12, #8, #2, ...

........................................................................
.............................. CYCLE   17 ..............................
........................................................................

 iter      E             dE          RMSdq      gap      omega  full diag
   1   -107.8138396 -0.107814E+03  0.108E-02    4.05       0.0  T
   2   -107.8138398 -0.203808E-06  0.632E-03    4.05       1.9  T
   3   -107.8138398  0.266882E-07  0.129E-03    4.05       9.4  T
   4   -107.8138398 -0.594395E-07  0.266E-04    4.05      45.5  T
   5   -107.8138398 -0.932644E-09  0.138E-04    4.05      88.0  T
     SCC iter.                  ...        0 min,  0.015 sec
     gradient                   ...        0 min,  0.005 sec
 * total energy  :  -106.5735902 Eh     change       -0.9116914E-05 Eh
   gradient norm :     0.0018811 Eh/α   predicted    -0.5812720E-05 ( -36.24%)
   displ. norm   :     0.0233591 α      lambda       -0.5945601E-05
   maximum displ.:     0.0078360 α      in ANC's #12, #13, #2, ...

........................................................................
.............................. CYCLE   18 ..............................
........................................................................

 iter      E             dE          RMSdq      gap      omega  full diag
   1   -107.8135328 -0.107814E+03  0.540E-03    4.05       0.0  T
   2   -107.8135329 -0.115314E-06  0.315E-03    4.05       3.9  T
   3   -107.8135329  0.105010E-07  0.108E-03    4.05      11.2  T
   4   -107.8135329 -0.296154E-07  0.152E-04    4.05      80.0  T
   5   -107.8135329 -0.349445E-09  0.785E-05    4.05     154.5  T
     SCC iter.                  ...        0 min,  0.019 sec
     gradient                   ...        0 min,  0.007 sec
 * total energy  :  -106.5735955 Eh     change       -0.5338735E-05 Eh
   gradient norm :     0.0015168 Eh/α   predicted    -0.2977698E-05 ( -44.22%)
   displ. norm   :     0.0303629 α      lambda       -0.5559802E-05
   maximum displ.:     0.0119258 α      in ANC's #10, #18, #3, ...

........................................................................
.............................. CYCLE   19 ..............................
........................................................................

 iter      E             dE          RMSdq      gap      omega  full diag
   1   -107.8132633 -0.107813E+03  0.672E-03    4.05       0.0  T
   2   -107.8132635 -0.228674E-06  0.391E-03    4.05       3.1  T
   3   -107.8132635  0.631243E-08  0.142E-03    4.05       8.6  T
   4   -107.8132635 -0.357731E-07  0.190E-04    4.05      63.9  T
   5   -107.8132635 -0.796575E-09  0.926E-05    4.05     130.9  T
     SCC iter.                  ...        0 min,  0.017 sec
     gradient                   ...        0 min,  0.005 sec
 * total energy  :  -106.5735998 Eh     change       -0.4239306E-05 Eh
   gradient norm :     0.0013009 Eh/α   predicted    -0.2784249E-05 ( -34.32%)
   displ. norm   :     0.0248794 α      lambda       -0.2961811E-05
   maximum displ.:     0.0109752 α      in ANC's #10, #3, #13, ...

........................................................................
.............................. CYCLE   20 ..............................
........................................................................

 iter      E             dE          RMSdq      gap      omega  full diag
   1   -107.8134188 -0.107813E+03  0.474E-03    4.05       0.0  T
   2   -107.8134190 -0.132522E-06  0.276E-03    4.05       4.4  T
   3   -107.8134190 -0.127503E-08  0.101E-03    4.05      12.0  T
   4   -107.8134190 -0.123325E-07  0.138E-04    4.05      88.0  T
   5   -107.8134190 -0.412172E-09  0.710E-05    4.05     170.7  T
     SCC iter.                  ...        0 min,  0.016 sec
     gradient                   ...        0 min,  0.006 sec
 * total energy  :  -106.5736028 Eh     change       -0.3014423E-05 Eh
   gradient norm :     0.0010933 Eh/α   predicted    -0.1485791E-05 ( -50.71%)
   displ. norm   :     0.0374025 α      lambda       -0.3275416E-05
   maximum displ.:     0.0173024 α      in ANC's #10, #3, #9, ...
 * RMSD in coord.:     0.3048966 α      energy gain  -0.1215329E+01 Eh

generating ANC from exact Hessian ...
Using Lindh-Hessian (1995)
 Shifting diagonal of input Hessian by    9.6479477937845559E-003
 Lowest  eigenvalues of input Hessian
    0.000000    0.000000    0.000000    0.000000    0.000000    0.000000
    0.010000    0.010209    0.010528    0.011052    0.011397    0.011584
    0.011865    0.012411    0.012589    0.013185    0.013555    0.013904
 Highest eigenvalues
    2.287673    2.318268    2.320777    2.325531    2.337714    2.350814


........................................................................
.............................. CYCLE   21 ..............................
........................................................................

 iter      E             dE          RMSdq      gap      omega  full diag
   1   -107.8137210 -0.107814E+03  0.605E-03    4.05       0.0  T
   2   -107.8137211 -0.160999E-06  0.354E-03    4.05       3.4  T
   3   -107.8137211  0.663904E-08  0.120E-03    4.05      10.1  T
   4   -107.8137211 -0.286401E-07  0.169E-04    4.05      71.6  T
   5   -107.8137211 -0.451152E-09  0.883E-05    4.05     137.4  T
     SCC iter.                  ...        0 min,  0.016 sec
     gradient                   ...        0 min,  0.005 sec
 * total energy  :  -106.5736054 Eh     change       -0.2597673E-05 Eh
   gradient norm :     0.0007671 Eh/α   predicted     0.0000000E+00 (-100.00%)
   displ. norm   :     0.0075664 α      lambda       -0.1165152E-05
   maximum displ.:     0.0019845 α      in ANC's #12, #15, #8, ...

   *** GEOMETRY OPTIMIZATION CONVERGED AFTER 21 ITERATIONS ***

------------------------------------------------------------------------
 total energy gain   :        -1.2153312 Eh     -762.6318 kcal/mol
 total RMSD          :         0.3048966 a0        0.1613 Å
 total power (kW/mol):      -151.9453148 (step)-4704.5299 (real)
------------------------------------------------------------------------

 ANCopt (total)                0 d,  0 h,  0 min,  0.678 sec
 optimizer setup                ...        0 min,  0.000 sec (  0.027%)
 model hessian                  ...        0 min,  0.053 sec (  7.849%)
 ANC generation                 ...        0 min,  0.006 sec (  0.842%)
 coordinate transformation      ...        0 min,  0.001 sec (  0.080%)
 single point calculation       ...        0 min,  0.596 sec ( 87.939%)
 optimization log               ...        0 min,  0.004 sec (  0.561%)
 hessian update                 ...        0 min,  0.002 sec (  0.253%)
 rational function              ...        0 min,  0.004 sec (  0.559%)

================
 final structure:
================
68
 xtb: 6.7.1-6.fc44.fc44
O            1.21575301343133       -0.18277722926873        1.45605061212639
O            1.00470768550643       -0.90583938838580       -1.64560766575166
O           -3.44702793052460       -2.61974803385876       -0.22222972807719
O           -3.20166363573117        3.08292039889884        0.40835906480581
O           -1.33202217347239        1.65217058491525       -1.37728376434773
O            2.26607539239813        2.84228740314866        1.25115691740036
N            0.30287480413176       -2.34052092688215       -0.09527259259822
N           -2.21468580577252       -0.88380531404515       -0.97882884860240
N           -3.86571319768985        0.95600695357074        0.25984447913114
N           -0.58541483229184        2.08989183343694        0.70306682466709
N            1.92444300700296        1.77022158264153       -0.70845258580265
N            3.22423947482334       -0.46207663126673        0.50013599365412
C            2.00394408176068       -0.89214248818446        0.85245093337309
C            1.63434132812122       -2.33413883282268        0.50291269722450
C            1.49529660983243       -3.20268522082770        1.75628679797932
C            0.30146545818557       -4.09750494564480        1.43121909649250
C           -0.61957163144168       -3.14152143974458        0.68171745741864
C            0.09506723388335       -1.58625888703847       -1.18203273638596
C           -1.30302722602043       -1.64175057420130       -1.81100365463880
C           -1.27693323398681       -1.05848325771117       -3.21855122392037
C           -3.19723898035321       -1.42682149063356       -0.25892561837324
C           -3.98090155743273       -0.43482497594314        0.63446803281939
C           -5.45401538233830       -0.83670192273153        0.64941633631571
C           -2.98601505267612        1.91319480189741        0.63924049101562
C           -1.71221252363421        1.47011643493393        1.37720940674186
C           -1.75840927839716        1.94904693780389        2.82269963861805
C           -0.47409488979457        2.09357251935611       -0.62426614472810
C            0.85530350699920        2.65482870946523       -1.13988308037426
C            0.85828001839748        2.75891010247010       -2.65674354256217
C            2.50574785846133        1.91955045310702        0.49457461493338
C            3.61547179229835        0.91111845777243        0.79227985199192
C            4.84790029991376        1.13886834446824       -0.08577072589181
C            5.45991124270316       -0.25554054275175       -0.18120906921380
C            4.23438452651064       -1.16388918310502       -0.27067766186879
H            2.33616880159528       -2.75865893121854       -0.22046868258930
H            2.40493582315646       -3.76044934945918        1.96990828664518
H            1.26035104934948       -2.56441183564842        2.60942371830212
H            0.60714241369955       -4.91520715958275        0.77684394923059
H           -0.16819699009453       -4.51345654332457        2.31919919492088
H           -1.35359152647054       -3.64759562231892        0.05613623268492
H           -1.15846485157986       -2.50194846715702        1.39028776728917
H           -2.09666189553638        0.13176640219254       -1.04356025607235
H           -1.65324781586957       -2.68019287166149       -1.82876931659811
H           -0.51314549960827       -1.55043736809978       -3.81455073531456
H           -1.05372710193999        0.00353123860915       -3.16173227999386
H           -2.24530968867227       -1.19198740306265       -3.69344886974685
H           -4.63684772766763        1.31959466239126       -0.28521235773750
H           -3.57482270092837       -0.56925309806239        1.64609306314125
H           -5.99994450916027       -0.26773155117235        1.39757201810743
H           -5.53082577297244       -1.89694033144407        0.87363638059994
H           -5.89859004447825       -0.66133633408911       -0.32786500516892
H            0.18067106339353        2.42567090068842        1.27304672735863
H           -1.58584022940541        0.38129928320397        1.34053414435998
H           -2.57301483532002        1.46502139697740        3.35668968820125
H           -1.91543779314199        3.02481001229667        2.84419207075767
H           -0.81979144170014        1.70968260784567        3.31675332219462
H            1.94480532810868        0.86911863506356       -1.17498130481462
H            1.03390515357760        3.62954684082003       -0.67221856468657
H            0.01763955007315        3.36427827574565       -2.98285637290393
H            0.75804839476483        1.76637722583893       -3.08921682079688
H            1.78409227729122        3.20985188798103       -3.00424741446295
H            3.85857874145810        1.00726094066608        1.85840001996504
H            5.52384587558008        1.87298401776643        0.34547933920489
H            4.53669567163802        1.48321328784752       -1.07290944859868
H            6.02418653249235       -0.47900080215099        0.72475560767502
H            6.11766256054208       -0.36864060747627       -1.03988646811357
H            3.89966740628762       -1.27412330460557       -1.30935412509336
H            4.43590020379425       -2.15192873213169        0.14887871439348

 Bond Distances (Angstroems)
 ---------------------------
O1-C13=1.2202        O2-C18=1.2269        O3-C21=1.2194        O4-C24=1.2116        O5-C27=1.2239        O6-C30=1.2171        
N7-C14=1.4597        N7-C17=1.4478        N7-C18=1.3391        N8-C19=1.4485        N8-C21=1.3336        N8-H42=1.0245        
N9-C22=1.4450        N9-C24=1.3543        N9-H47=1.0119        N10-C25=1.4520       N10-C27=1.3320       N10-H52=1.0122       
N11-C28=1.4532       N11-C30=1.3444       N11-H57=1.0149       N12-C13=1.3410       N12-C31=1.4574       N12-C34=1.4516       
C13-O1=1.2202        C13-N12=1.3410       C13-C14=1.5291       C14-N7=1.4597        C14-C13=1.5291       C14-C15=1.5312       
C14-H35=1.0936       C15-C14=1.5312       C15-C16=1.5270       C15-H36=1.0882       C15-H37=1.0911       C16-C15=1.5270       
C16-C17=1.5245       C16-H38=1.0910       C16-H39=1.0872       C17-N7=1.4478        C17-C16=1.5245       C17-H40=1.0892       
C17-H41=1.0961       C18-O2=1.2269        C18-N7=1.3391        C18-C19=1.5341       C19-N8=1.4485        C19-C18=1.5341       
C19-C20=1.5238       C19-H43=1.0961       C20-C19=1.5238       C20-H44=1.0866       C20-H45=1.0867       C20-H46=1.0868       
C21-O3=1.2194        C21-N8=1.3336        C21-C22=1.5480       C22-N9=1.4450        C22-C21=1.5480       C22-C23=1.5270       
C22-H48=1.0983       C23-C22=1.5270       C23-H49=1.0870       C23-H50=1.0864       C23-H51=1.0879       C24-O4=1.2116        
C24-N9=1.3543        C24-C25=1.5374       C25-N10=1.4520       C25-C24=1.5374       C25-C26=1.5235       C25-H53=1.0967       
C26-C25=1.5235       C26-H54=1.0877       C26-H55=1.0874       C26-H56=1.0874       C27-O5=1.2239        C27-N10=1.3320       
C27-C28=1.5324       C28-N11=1.4532       C28-C27=1.5324       C28-C29=1.5204       C28-H58=1.0958       C29-C28=1.5204       
C29-H59=1.0860       C29-H60=1.0873       C29-H61=1.0868       C30-O6=1.2171        C30-N11=1.3444       C30-C31=1.5287       
C31-N12=1.4574       C31-C30=1.5287       C31-C32=1.5303       C31-H62=1.0977       C32-C31=1.5303       C32-C33=1.5258       
C32-H63=1.0871       C32-H64=1.0908       C33-C32=1.5258       C33-C34=1.5281       C33-H65=1.0905       C33-H66=1.0875       
C34-N12=1.4516       C34-C33=1.5281       C34-H67=1.0968       C34-H68=1.0922       H35-C14=1.0936       H36-C15=1.0882       
H37-C15=1.0911       H38-C16=1.0910       H39-C16=1.0872       H40-C17=1.0892       H41-C17=1.0961       H42-N8=1.0245        
H43-C19=1.0961       H44-C20=1.0866       H45-C20=1.0867       H46-C20=1.0868       H47-N9=1.0119        H48-C22=1.0983       
H49-C23=1.0870       H50-C23=1.0864       H51-C23=1.0879       H52-N10=1.0122       H53-C25=1.0967       H54-C26=1.0877       
H55-C26=1.0874       H56-C26=1.0874       H57-N11=1.0149       H58-C28=1.0958       H59-C29=1.0860       H60-C29=1.0873       
H61-C29=1.0868       H62-C31=1.0977       H63-C32=1.0871       H64-C32=1.0908       H65-C33=1.0905       H66-C33=1.0875       
H67-C34=1.0968       H68-C34=1.0922       
 C  H  Rav=1.0903 sigma=0.0040  Rmin=1.0860  Rmax=1.0983    30
 C  C  Rav=1.5294 sigma=0.0063  Rmin=1.5204  Rmax=1.5480    16
 N  H  Rav=1.0159 sigma=0.0051  Rmin=1.0119  Rmax=1.0245     4
 N  C  Rav=1.4043 sigma=0.0553  Rmin=1.3320  Rmax=1.4597    14
 O  C  Rav=1.2198 sigma=0.0049  Rmin=1.2116  Rmax=1.2269     6

 selected bond angles (degree)
 --------------------
C17-N7-C14=111.32              C18-N7-C14=118.14              C18-N7-C17=130.41              C21-N8-C19=124.11              
H42-N8-C19=114.20              H42-N8-C21=121.51              C24-N9-C22=131.26              H47-N9-C22=115.13              
H47-N9-C24=113.08              C27-N10-C25=121.92             H52-N10-C25=117.87             H52-N10-C27=119.80             

 selected dihedral angles (degree)
 ---------------------------------

           -------------------------------------------------
          |                Final Singlepoint                |
           -------------------------------------------------

          ...................................................
          :                      SETUP                      :
          :.................................................:
          :  # basis functions                 170          :
          :  # atomic orbitals                 170          :
          :  # shells                          102          :
          :  # electrons                       188          :
          :  max. iterations                   250          :
          :  Hamiltonian                  GFN2-xTB          :
          :  restarted?                      false          :
          :  GBSA solvation                  false          :
          :  PC potential                    false          :
          :  electronic temp.          300.0000000     K    :
          :  accuracy                    1.0000000          :
          :  -> integral cutoff          0.2500000E+02      :
          :  -> integral neglect         0.1000000E-07      :
          :  -> SCF convergence          0.1000000E-05 Eh   :
          :  -> wf. convergence          0.1000000E-03 e    :
          :  Broyden damping             0.4000000          :
          :  net charge                          0          :
          :  unpaired electrons                  0          :
          ...................................................

 iter      E             dE          RMSdq      gap      omega  full diag
   1   -107.8137211 -0.107814E+03  0.242E-05    4.05       0.0  T
   2   -107.8137211 -0.667910E-11  0.148E-05    4.05     820.8  T
   3   -107.8137211 -0.611067E-12  0.822E-06    4.05    1475.6  T

   *** convergence criteria satisfied after 3 iterations ***

         #    Occupation            Energy/Eh            Energy/eV
      -------------------------------------------------------------
         1        2.0000           -0.7112802             -19.3549
       ...           ...                  ...                  ...
        88        2.0000           -0.4076692             -11.0932
        89        2.0000           -0.3937181             -10.7136
        90        2.0000           -0.3923519             -10.6764
        91        2.0000           -0.3884230             -10.5695
        92        2.0000           -0.3842698             -10.4565
        93        2.0000           -0.3827432             -10.4150
        94        2.0000           -0.3791728             -10.3178 (HOMO)
        95                         -0.2301978              -6.2640 (LUMO)
        96                         -0.2190095              -5.9596
        97                         -0.2174803              -5.9179
        98                         -0.2081559              -5.6642
        99                         -0.2032332              -5.5303
       ...                                ...                  ...
       170                          0.6481298              17.6365
      -------------------------------------------------------------
                  HL-Gap            0.1489750 Eh            4.0538 eV
             Fermi-level           -0.3046853 Eh           -8.2909 eV

 SCC (total)                   0 d,  0 h,  0 min,  0.020 sec
 SCC setup                      ...        0 min,  0.000 sec (  0.949%)
 Dispersion                     ...        0 min,  0.001 sec (  2.538%)
 classical contributions        ...        0 min,  0.000 sec (  0.284%)
 integral evaluation            ...        0 min,  0.001 sec (  6.410%)
 iterations                     ...        0 min,  0.013 sec ( 62.604%)
 molecular gradient             ...        0 min,  0.005 sec ( 23.695%)
 printout                       ...        0 min,  0.001 sec (  3.470%)

         :::::::::::::::::::::::::::::::::::::::::::::::::::::
         ::                     SUMMARY                     ::
         :::::::::::::::::::::::::::::::::::::::::::::::::::::
         :: total energy            -106.573605377871 Eh    ::
         :: gradient norm              0.000766677511 Eh/a0 ::
         :: HOMO-LUMO gap              4.053816577756 eV    ::
         ::.................................................::
         :: SCC energy              -107.809317374532 Eh    ::
         :: -> isotropic ES            0.232468649317 Eh    ::
         :: -> anisotropic ES         -0.003883663505 Eh    ::
         :: -> anisotropic XC          0.028158079262 Eh    ::
         :: -> dispersion             -0.084784572366 Eh    ::
         :: repulsion energy           1.235711996660 Eh    ::
         :: add. restraining           0.000000000000 Eh    ::
         :: total charge               0.000000000000 e     ::
         :::::::::::::::::::::::::::::::::::::::::::::::::::::

           -------------------------------------------------
          |                Property Printout                |
           -------------------------------------------------

    * Orbital Energies and Occupations

         #    Occupation            Energy/Eh            Energy/eV
      -------------------------------------------------------------
         1        2.0000           -0.7112802             -19.3549
       ...           ...                  ...                  ...
        82        2.0000           -0.4440276             -12.0826
        83        2.0000           -0.4255892             -11.5809
        84        2.0000           -0.4223263             -11.4921
        85        2.0000           -0.4213713             -11.4661
        86        2.0000           -0.4173977             -11.3580
        87        2.0000           -0.4140942             -11.2681
        88        2.0000           -0.4076692             -11.0932
        89        2.0000           -0.3937181             -10.7136
        90        2.0000           -0.3923519             -10.6764
        91        2.0000           -0.3884230             -10.5695
        92        2.0000           -0.3842698             -10.4565
        93        2.0000           -0.3827432             -10.4150
        94        2.0000           -0.3791728             -10.3178 (HOMO)
        95                         -0.2301978              -6.2640 (LUMO)
        96                         -0.2190095              -5.9596
        97                         -0.2174803              -5.9179
        98                         -0.2081559              -5.6642
        99                         -0.2032332              -5.5303
       100                         -0.2018777              -5.4934
       101                         -0.0295582              -0.8043
       102                         -0.0123557              -0.3362
       103                         -0.0089294              -0.2430
       104                          0.0063261               0.1721
       105                          0.0117118               0.3187
       ...                                ...                  ...
       170                          0.6481298              17.6365
      -------------------------------------------------------------
                  HL-Gap            0.1489750 Eh            4.0538 eV
             Fermi-level           -0.3046853 Eh           -8.2909 eV

     #   Z          covCN         q      C6AA      α(0)
     1   8 O        0.859    -0.458    22.881     6.413
     2   8 O        0.860    -0.476    23.268     6.467
     3   8 O        0.858    -0.461    22.941     6.422
     4   8 O        0.860    -0.424    22.164     6.312
     5   8 O        0.858    -0.454    22.785     6.400
     6   8 O        0.858    -0.444    22.577     6.371
     7   7 N        2.763    -0.087    22.938     7.113
     8   7 N        2.691    -0.197    25.288     7.469
     9   7 N        2.688    -0.192    25.157     7.449
    10   7 N        2.695    -0.158    24.418     7.339
    11   7 N        2.692    -0.186    25.023     7.429
    12   7 N        2.757    -0.099    23.186     7.152
    13   6 C        2.763     0.268    22.484     7.765
    14   6 C        3.833     0.027    20.101     6.379
    15   6 C        3.835    -0.060    21.624     6.616
    16   6 C        3.834    -0.062    21.658     6.621
    17   6 C        3.773     0.001    20.598     6.467
    18   6 C        2.766     0.258    22.655     7.795
    19   6 C        3.791     0.032    20.048     6.377
    20   6 C        3.757    -0.114    22.738     6.799
    21   6 C        2.750     0.262    22.583     7.781
    22   6 C        3.785     0.019    20.268     6.413
    23   6 C        3.757    -0.114    22.736     6.798
    24   6 C        2.750     0.278    22.301     7.733
    25   6 C        3.793     0.033    20.019     6.372
    26   6 C        3.757    -0.114    22.725     6.797
    27   6 C        2.758     0.273    22.386     7.748
    28   6 C        3.797     0.027    20.131     6.389
    29   6 C        3.757    -0.113    22.719     6.796
    30   6 C        2.754     0.280    22.252     7.725
    31   6 C        3.831     0.020    20.213     6.397
    32   6 C        3.832    -0.065    21.717     6.630
    33   6 C        3.832    -0.063    21.680     6.625
    34   6 C        3.766    -0.000    20.623     6.472
    35   1 H        0.924     0.045     2.384     2.415
    36   1 H        0.925     0.043     2.414     2.429
    37   1 H        0.924     0.060     2.202     2.321
    38   1 H        0.924     0.048     2.351     2.398
    39   1 H        0.925     0.054     2.269     2.355
    40   1 H        0.925     0.078     2.000     2.212
    41   1 H        0.924     0.053     2.282     2.362
    42   1 H        0.859     0.232     0.959     1.534
    43   1 H        0.924     0.063     2.160     2.298
    44   1 H        0.925     0.051     2.305     2.374
    45   1 H        0.925     0.078     2.003     2.213
    46   1 H        0.925     0.048     2.351     2.398
    47   1 H        0.860     0.195     1.130     1.665
    48   1 H        0.923     0.054     2.267     2.354
    49   1 H        0.925     0.049     2.335     2.390
    50   1 H        0.925     0.077     2.015     2.220
    51   1 H        0.925     0.050     2.322     2.383
    52   1 H        0.860     0.217     1.025     1.586
    53   1 H        0.924     0.045     2.378     2.411
    54   1 H        0.925     0.046     2.371     2.408
    55   1 H        0.925     0.068     2.111     2.272
    56   1 H        0.925     0.063     2.170     2.303
    57   1 H        0.860     0.211     1.052     1.607
    58   1 H        0.924     0.073     2.050     2.239
    59   1 H        0.925     0.064     2.149     2.292
    60   1 H        0.925     0.065     2.137     2.286
    61   1 H        0.925     0.047     2.362     2.404
    62   1 H        0.924     0.067     2.115     2.275
    63   1 H        0.925     0.058     2.227     2.333
    64   1 H        0.924     0.054     2.268     2.355
    65   1 H        0.924     0.051     2.312     2.378
    66   1 H        0.925     0.053     2.277     2.360
    67   1 H        0.924     0.059     2.212     2.326
    68   1 H        0.924     0.046     2.364     2.405

 Mol. C6AA /au·bohr⁶  :      43602.499081
 Mol. C8AA /au·bohr⁸  :     970067.908284
 Mol. α(0) /au        :        310.390555


Wiberg/Mayer (AO) data.
largest (>0.10) Wiberg bond orders for each atom

 ---------------------------------------------------------------------------
     #   Z sym  total        # sym  WBO       # sym  WBO       # sym  WBO
 ---------------------------------------------------------------------------
     1   8 O    1.987 --    13 C    1.643    12 N    0.196
     2   8 O    1.965 --    18 C    1.612     7 N    0.195
     3   8 O    1.978 --    21 C    1.645     8 N    0.204
     4   8 O    2.015 --    24 C    1.700     9 N    0.194
     5   8 O    2.015 --    27 C    1.606    10 N    0.198
     6   8 O    1.995 --    30 C    1.659    11 N    0.193
     7   7 N    3.522 --    18 C    1.296    17 C    0.981    14 C    0.963
                             2 O    0.195
     8   7 N    3.469 --    21 C    1.311    19 C    0.978    42 H    0.854
                             3 O    0.204
     9   7 N    3.429 --    24 C    1.239    22 C    0.991    47 H    0.927
                             4 O    0.194
    10   7 N    3.492 --    27 C    1.329    25 C    0.975    52 H    0.908
                             5 O    0.198
    11   7 N    3.445 --    30 C    1.276    28 C    0.974    57 H    0.905
                             6 O    0.193
    12   7 N    3.503 --    13 C    1.276    34 C    0.980    31 C    0.963
                             1 O    0.196
    13   6 C    3.956 --     1 O    1.643    12 N    1.276    14 C    0.936
    14   6 C    3.973 --    15 C    0.983     7 N    0.963    35 H    0.958
                            13 C    0.936
    15   6 C    3.992 --    16 C    1.003    14 C    0.983    36 H    0.979
                            37 H    0.976
    16   6 C    3.995 --    17 C    1.006    15 C    1.003    38 H    0.979
                            39 H    0.976
    17   6 C    3.965 --    16 C    1.006     7 N    0.981    41 H    0.963
                            40 H    0.959
    18   6 C    3.949 --     2 O    1.612     7 N    1.296    19 C    0.933
    19   6 C    3.970 --    20 C    1.002     8 N    0.978    43 H    0.948
                            18 C    0.933
    20   6 C    3.988 --    19 C    1.002    46 H    0.986    44 H    0.983
                            45 H    0.976
    21   6 C    3.956 --     3 O    1.645     8 N    1.311    22 C    0.917
    22   6 C    3.968 --    23 C    1.000     9 N    0.991    48 H    0.944
                            21 C    0.917
    23   6 C    3.989 --    22 C    1.000    49 H    0.986    51 H    0.984
                            50 H    0.978
    24   6 C    3.952 --     4 O    1.700     9 N    1.239    25 C    0.932
    25   6 C    3.970 --    26 C    0.998    10 N    0.975    53 H    0.952
                            24 C    0.932
    26   6 C    3.989 --    25 C    0.998    54 H    0.984    55 H    0.983
                            56 H    0.981
    27   6 C    3.949 --     5 O    1.606    10 N    1.329    28 C    0.929
    28   6 C    3.966 --    29 C    1.008    11 N    0.974    58 H    0.950
                            27 C    0.929
    29   6 C    3.990 --    28 C    1.008    61 H    0.986    59 H    0.981
                            60 H    0.981
    30   6 C    3.955 --     6 O    1.659    11 N    1.276    31 C    0.936
    31   6 C    3.965 --    32 C    0.982    12 N    0.963    62 H    0.956
                            30 C    0.936
    32   6 C    3.992 --    33 C    1.004    31 C    0.982    63 H    0.977
                            64 H    0.976
    33   6 C    3.994 --    32 C    1.004    34 C    1.004    65 H    0.979
                            66 H    0.977
    34   6 C    3.972 --    33 C    1.004    12 N    0.980    68 H    0.970
                            67 H    0.965
    35   1 H    0.998 --    14 C    0.958
    36   1 H    0.998 --    15 C    0.979
    37   1 H    0.996 --    15 C    0.976
    38   1 H    0.998 --    16 C    0.979
    39   1 H    0.996 --    16 C    0.976
    40   1 H    0.994 --    17 C    0.959
    41   1 H    0.997 --    17 C    0.963
    42   1 H    0.946 --     8 N    0.854
    43   1 H    0.996 --    19 C    0.948
    44   1 H    0.997 --    20 C    0.983
    45   1 H    0.994 --    20 C    0.976
    46   1 H    0.997 --    20 C    0.986
    47   1 H    0.962 --     9 N    0.927
    48   1 H    0.997 --    22 C    0.944
    49   1 H    0.997 --    23 C    0.986
    50   1 H    0.993 --    23 C    0.978
    51   1 H    0.997 --    23 C    0.984
    52   1 H    0.953 --    10 N    0.908
    53   1 H    0.998 --    25 C    0.952
    54   1 H    0.997 --    26 C    0.984
    55   1 H    0.995 --    26 C    0.983
    56   1 H    0.996 --    26 C    0.981
    57   1 H    0.956 --    11 N    0.905
    58   1 H    0.994 --    28 C    0.950
    59   1 H    0.995 --    29 C    0.981
    60   1 H    0.996 --    29 C    0.981
    61   1 H    0.997 --    29 C    0.986
    62   1 H    0.995 --    31 C    0.956
    63   1 H    0.996 --    32 C    0.977
    64   1 H    0.997 --    32 C    0.976
    65   1 H    0.997 --    33 C    0.979
    66   1 H    0.996 --    33 C    0.977
    67   1 H    0.996 --    34 C    0.965
    68   1 H    0.998 --    34 C    0.970
 ---------------------------------------------------------------------------

Topologies differ in total number of bonds
Writing topology from bond orders to xtbtopo.mol

molecular dipole:
                 x           y           z       tot (Debye)
 q only:        1.913      -1.878       0.082
   full:        2.103      -2.260       0.161       7.859
molecular quadrupole (traceless):
                xx          xy          yy          xz          yz          zz
 q only:       19.306      -4.763     -17.683      -9.492      -9.752      -1.623
  q+dip:       20.255      -8.073     -20.410      -8.173      -8.604       0.155
   full:       20.666      -8.226     -20.797      -8.744      -9.296       0.130

           -------------------------------------------------
          |                Geometry Summary                 |
           -------------------------------------------------

      molecular mass/u    :      478.5428241
   center of mass at/Å    :       -0.0149261       0.0090753       0.0155736
  moments of inertia/u·Å² :        0.2715759E+04   0.4281318E+04   0.5364815E+04
rotational constants/cm⁻¹ :        0.6207336E-02   0.3937486E-02   0.3142258E-02

 * 64 selected distances

     #   Z          #   Z                                           value/Å
     1   8 O       13   6 C                                       1.2201545
    12   7 N       13   6 C                                       1.3409712
     7   7 N       14   6 C                                       1.4596814
    14   6 C       15   6 C                                       1.5312261 (max)
    15   6 C       16   6 C                                       1.5269593
     7   7 N       17   6 C                                       1.4478340
    16   6 C       17   6 C                                       1.5244563
     2   8 O       18   6 C                                       1.2269142
     7   7 N       18   6 C                                       1.3390830
     8   7 N       19   6 C                                       1.4484881
    19   6 C       20   6 C                                       1.5238347
     3   8 O       21   6 C                                       1.2193503
     8   7 N       21   6 C                                       1.3336185
     9   7 N       22   6 C                                       1.4450000
    22   6 C       23   6 C                                       1.5270211
     4   8 O       24   6 C                                       1.2116389
     9   7 N       24   6 C                                       1.3542596
    10   7 N       25   6 C                                       1.4519859
    25   6 C       26   6 C                                       1.5234668
     5   8 O       27   6 C                                       1.2238916
    10   7 N       27   6 C                                       1.3319981
    11   7 N       28   6 C                                       1.4531764
    28   6 C       29   6 C                                       1.5204302
     6   8 O       30   6 C                                       1.2170881
    11   7 N       30   6 C                                       1.3444290
    12   7 N       31   6 C                                       1.4574210
    31   6 C       32   6 C                                       1.5302690
    32   6 C       33   6 C                                       1.5257924
    12   7 N       34   6 C                                       1.4515812
    33   6 C       34   6 C                                       1.5280766
    14   6 C       35   1 H                                       1.0936453
    15   6 C       36   1 H                                       1.0881997
    15   6 C       37   1 H                                       1.0910706
    16   6 C       38   1 H                                       1.0910006
    16   6 C       39   1 H                                       1.0872476
    17   6 C       40   1 H                                       1.0891503
    17   6 C       41   1 H                                       1.0961440
     8   7 N       42   1 H                                       1.0244540
    19   6 C       43   1 H                                       1.0960532
    20   6 C       44   1 H                                       1.0865570
    20   6 C       45   1 H                                       1.0867034
    20   6 C       46   1 H                                       1.0867862
     9   7 N       47   1 H                                       1.0118951 (min)
    22   6 C       48   1 H                                       1.0983426
    23   6 C       49   1 H                                       1.0869697
    23   6 C       50   1 H                                       1.0864070
    23   6 C       51   1 H                                       1.0878781
    10   7 N       52   1 H                                       1.0121820
    25   6 C       53   1 H                                       1.0967397
    26   6 C       54   1 H                                       1.0876620
    26   6 C       55   1 H                                       1.0873759
    26   6 C       56   1 H                                       1.0873767
    11   7 N       57   1 H                                       1.0149140
    28   6 C       58   1 H                                       1.0957574
    29   6 C       59   1 H                                       1.0860464
    29   6 C       60   1 H                                       1.0872908
    29   6 C       61   1 H                                       1.0868468
    31   6 C       62   1 H                                       1.0977052
    32   6 C       63   1 H                                       1.0871086
    32   6 C       64   1 H                                       1.0908093
    33   6 C       65   1 H                                       1.0904647
    33   6 C       66   1 H                                       1.0875456
    34   6 C       67   1 H                                       1.0968300
    34   6 C       68   1 H                                       1.0921806

 * 5 distinct bonds (by element types)

   Z      Z             #   av. dist./Å        max./Å        min./Å
   1 H    6 C          30     1.0903298     1.0983426     1.0860464
   6 C    6 C          10     1.5261532     1.5312261     1.5204302
   1 H    7 N           4     1.0158613     1.0244540     1.0118951
   6 C    7 N          14     1.4042519     1.4596814     1.3319981
   6 C    8 O           6     1.2198396     1.2269142     1.2116389


optimized geometry written to: xtbopt.xyz


           -------------------------------------------------
          | TOTAL ENERGY             -106.573605377871 Eh   |
          | GRADIENT NORM               0.000766677511 Eh/α |
          | HOMO-LUMO GAP               4.053816577756 eV   |
           -------------------------------------------------

------------------------------------------------------------------------
 * finished run on 2026/10/01 at 17:51:27.373     
------------------------------------------------------------------------
 total:
 * wall-time:     0 d,  0 h,  0 min,  0.821 sec
 *  cpu-time:     0 d,  0 h,  0 min, 12.135 sec
 * ratio c/w:    14.787 speedup
 SCF:
 * wall-time:     0 d,  0 h,  0 min,  0.089 sec
 *  cpu-time:     0 d,  0 h,  0 min,  1.352 sec
 * ratio c/w:    15.235 speedup
 ANC optimizer:
 * wall-time:     0 d,  0 h,  0 min,  0.700 sec
 *  cpu-time:     0 d,  0 h,  0 min, 10.350 sec
 * ratio c/w:    14.775 speedup


--- STDERR ---
normal termination of xtb
Note: The following floating-point exceptions are signalling: IEEE_UNDERFLOW_FLAG IEEE_DENORMAL
