68
 energy: -106.573605377873 gnorm: 0.000766675729 xtb: 6.7.1-6.fc44.fc44
O            1.21575301101105       -0.18277722563864        1.45605061184451
O            1.00470768519693       -0.90583938876841       -1.64560766442339
O           -3.44702793076069       -2.61974803428010       -0.22222973127466
O           -3.20166363523566        3.08292039837185        0.40835906411709
O           -1.33202217306587        1.65217058602354       -1.37728376461912
O            2.26607539600374        2.84228740881826        1.25115691720068
N            0.30287480107416       -2.34052092473915       -0.09527258957730
N           -2.21468580585237       -0.88380531474610       -0.97882885002799
N           -3.86571319791716        0.95600695331188        0.25984447998881
N           -0.58541483186096        2.08989183413368        0.70306682477516
N            1.92444300687807        1.77022158460764       -0.70845258354613
N            3.22423947286267       -0.46207662890993        0.50013599301684
C            2.00394407909804       -0.89214248629275        0.85245093429786
C            1.63434132625908       -2.33413883094211        0.50291269801998
C            1.49529661040273       -3.20268522117751        1.75628679766444
C            0.30146546020555       -4.09750494795357        1.43121909496715
C           -0.61957163181180       -3.14152144109557        0.68171746005648
C            0.09506723236630       -1.58625888818988       -1.18203273673470
C           -1.30302722652736       -1.64175057669811       -1.81100365576642
C           -1.27693323274119       -1.05848326413005       -3.21855122597527
C           -3.19723898111365       -1.42682149073586       -0.25892562001965
C           -3.98090155738465       -0.43482497638845        0.63446803354936
C           -5.45401538272225       -0.83670192083870        0.64941633729525
C           -2.98601505239639        1.91319480077615        0.63924049042720
C           -1.71221252302026        1.47011643447985        1.37720940629547
C           -1.75840927838489        1.94904693841204        2.82269963738154
C           -0.47409488958796        2.09357251968009       -0.62426614428996
C            0.85530350772190        2.65482871102992       -1.13988307895353
C            0.85828002096564        2.75891010423421       -2.65674354081392
C            2.50574786037643        1.91955045640342        0.49457461668500
C            3.61547179242781        0.91111845894832        0.79227985321106
C            4.84790029924446        1.13886834462836       -0.08577072654273
C            5.45991124092936       -0.25554054287505       -0.18120907110509
C            4.23438452403304       -1.16388918252001       -0.27067766187685
H            2.33616879826802       -2.75865892808666       -0.22046868467253
H            2.40493582479946       -3.76044934888670        1.96990828481596
H            1.26035104964729       -2.56441183837483        2.60942371988767
H            0.60714241727247       -4.91520715908445        0.77684394542214
H           -0.16819698418757       -4.51345655115008        2.31919919319876
H           -1.35359152814973       -3.64759562108795        0.05613623542811
H           -1.15846485093875       -2.50194847059636        1.39028777240270
H           -2.09666189487785        0.13176640079440       -1.04356025804903
H           -1.65324781673894       -2.68019287326091       -1.82876931708528
H           -0.51314549720868       -1.55043737562002       -3.81455073700631
H           -1.05372709618042        0.00353123202278       -3.16173227676280
H           -2.24530968710641       -1.19198740499632       -3.69344887514367
H           -4.63684773029622        1.31959466193429       -0.28521235429002
H           -3.57482269975953       -0.56925309891513        1.64609306269196
H           -5.99994450905228       -0.26773155199127        1.39757202194381
H           -5.53082577674282       -1.89694033050091        0.87363637697631
H           -5.89859005207631       -0.66133632775938       -0.32786500358902
H            0.18067106297891        2.42567090223438        1.27304672812269
H           -1.58584022885283        0.38129928285454        1.34053414429943
H           -2.57301483536000        1.46502139775350        3.35668968652911
H           -1.91543779309746        3.02481001297482        2.84419206822328
H           -0.81979144159179        1.70968261022186        3.31675332217898
H            1.94480532911477        0.86911863469110       -1.17498129856985
H            1.03390515125505        3.62954684270426       -0.67221856287609
H            0.01763955511307        3.36427828046110       -2.98285637077515
H            0.75804839368738        1.76637722747846       -3.08921682108788
H            1.78409228082351        3.20985188754156       -3.00424741307701
H            3.85857874420727        1.00726093982192        1.85840002107357
H            5.52384587615593        1.87298401739803        0.34547933784581
H            4.53669567028664        1.48321328779490       -1.07290944880580
H            6.02418653390568       -0.47900080287132        0.72475560333051
H            6.11766255645226       -0.36864060797150       -1.03988647206235
H            3.89966740707301       -1.27412330628271       -1.30935412414075
H            4.43590019956289       -2.15192873207726        0.14887871428732
