34
frame_0055
O       0.291236374200000      3.038933541000000     -1.503719873300000
C      -0.474522223800000      2.270583636800000     -0.725136629600000
O      -0.628396654800000      2.509289003900000      0.438603505900000
H       0.376088685000000      2.701846088100000     -2.405600563800000
C      -1.164129842800000      1.110251544500000     -1.425601825300000
H      -0.460489097600000      0.548986045000000     -2.053838474800000
H      -1.954939631700000      1.518556032600000     -2.072607840700000
N      -1.721427409000000      0.219865692700000     -0.439048034100000
H      -1.716091533000000      0.589269961000000      0.503614371800000
C      -1.771267436500000     -1.118523838500000     -0.641577970800000
O      -1.624727427500000     -1.621566967100000     -1.737122273600000
C      -2.035524597900000     -1.943096523800000      0.619881905700000
H      -2.615830834400000     -1.349458703400000      1.334026432200000
N      -2.753241854400000     -3.172844844600000      0.343377972600000
H      -2.293257582800000     -3.647571230200000     -0.429586269900000
H      -3.699618926900000     -2.966136214700000      0.040509745700000
C      -0.662353215200000     -2.294993119700000      1.243394142100000
H      -0.171562334400000     -3.013542053200000      0.584857304200000
H      -0.845459044700000     -2.779547992400000      2.202871213900000
C       0.206466804900000     -1.094079516800000      1.409477516600000
C       0.232183303800000     -0.218710594300000      2.457415916100000
H      -0.320373442200000     -0.250086556800000      3.377289126500000
N       1.126193499500000      0.787108645000000      2.214419047200000
H       1.272759168500000      1.590353822500000      2.800648381300000
C       1.679727904900000      0.600568233200000      0.983920886500000
C       2.602482428800000      1.366481412200000      0.282327978300000
H       3.007902226000000      2.273562464200000      0.704079721800000
C       2.967013668600000      0.933394794100000     -0.973871395100000
H       3.677377046800000      1.508059961400000     -1.550037694800000
C       2.436726176400000     -0.239876413500000     -1.520653822800000
H       2.753038421900000     -0.546220608900000     -2.507547277500000
C       1.528240798100000     -1.008602602900000     -0.827692561300000
H       1.120754791900000     -1.908585451700000     -1.262698615900000
C       1.130208411100000     -0.587359672000000      0.441707663400000
