34
frame_0027
O      -3.266112812135819      1.425326869074852     -2.763068013649906
C      -3.953791381492552      2.394060511808186     -2.093993988758584
O      -4.368165349800208      3.390421911882370     -2.265556329820486
H      -2.963820551405790      0.561644391243259     -2.596081228766252
C      -3.736599299994710      1.638853185415817     -0.619301634826906
H      -4.360590294501119      0.872895179164382     -0.533171628730870
H      -4.526529206163066      2.332336614876568      0.062075499015707
N      -2.617629983208607      1.387778808504662      0.037614620928996
H      -2.346604296109368      2.033363689997892      0.838972873359586
C      -1.965545888355254      0.459933942361999     -0.328671104773330
O      -2.135195368238983     -0.186107262840806     -1.271150685438795
C      -0.791164284844116      0.153456477975006      0.425977783460556
H       0.138179406683541      0.607128369681235     -0.107100349060343
N      -0.669540825510445      1.035169955160226      1.655303549278631
H      -0.038029658902105      1.023641662449890      2.027456351747875
H      -1.417275722506095      0.411902553351431      2.290240736793798
C      -0.386498698114122     -1.078357887752374      0.532992637170892
H      -0.376405158316873     -1.576833396551552     -0.610858269502929
H      -1.038212760561712     -1.660575456875092      1.141086954210269
C       1.094243967782644     -1.408269213180421      1.182236240082828
C       1.438812134823459     -1.608921464050633      2.414533061571899
H       0.643832719981729     -2.010308448200113      3.262864853670740
N       2.739400621947534     -1.686759217491163      2.540223906153175
H       3.167900083779498     -1.965784462817050      3.697192701125692
C       3.275932853041635     -1.564267088754975      1.461082162384451
C       4.714588410399831     -1.413128183838304      1.153462525460760
H       5.546553123212149     -1.657845910659500      2.177049237597465
C       5.019755178964765     -1.169770747723818      0.175619200232488
H       5.869018707101770     -1.063086527860632     -0.166161882591076
C       3.923843967017785     -0.933149294231310     -0.936839242095286
H       4.378147764243260     -0.576328158028386     -1.973263962691433
C       2.667017352507951     -0.996171757426800     -0.826333431228662
H       1.777503866770933     -0.758093266845030     -1.441561452450020
C       2.329400341697514     -1.206627059227271      0.541391820737157
