      -----------------------------------------------------------      
     |                   =====================                   |     
     |                           x T B                           |     
     |                   =====================                   |     
     |                         S. Grimme                         |     
     |          Mulliken Center for Theoretical Chemistry        |     
     |                    University of Bonn                     |     
      -----------------------------------------------------------      

   * xtb version 6.7.1-6.fc44.fc44 compiled by Fedora project on Sun Jan 18 23:32:34 UTC 2026

   xtb is free software: you can redistribute it and/or modify it under
   the terms of the GNU Lesser General Public License as published by
   the Free Software Foundation, either version 3 of the License, or
   (at your option) any later version.
   
   xtb is distributed in the hope that it will be useful,
   but WITHOUT ANY WARRANTY; without even the implied warranty of
   MERCHANTABILITY or FITNESS FOR A PARTICULAR PURPOSE.  See the
   GNU Lesser General Public License for more details.
   
   Cite this work as:
   * C. Bannwarth, E. Caldeweyher, S. Ehlert, A. Hansen, P. Pracht,
     J. Seibert, S. Spicher, S. Grimme, WIREs Comput. Mol. Sci., 2020, 11,
     e01493. DOI: 10.1002/wcms.1493
   
   for GFN2-xTB:
   * C. Bannwarth, S. Ehlert and S. Grimme., J. Chem. Theory Comput., 2019,
     15, 1652-1671. DOI: 10.1021/acs.jctc.8b01176
   for GFN1-xTB:
   * S. Grimme, C. Bannwarth, P. Shushkov, J. Chem. Theory Comput., 2017,
     13, 1989-2009. DOI: 10.1021/acs.jctc.7b00118
   for GFN0-xTB:
   * P. Pracht, E. Caldeweyher, S. Ehlert, S. Grimme, ChemRxiv, 2019, preprint.
     DOI: 10.26434/chemrxiv.8326202.v1
   for GFN-FF:
   * S. Spicher and S. Grimme, Angew. Chem. Int. Ed., 2020, 59, 15665-15673.
     DOI: 10.1002/anie.202004239
   
   for ALPB and GBSA implicit solvation:
   * S. Ehlert, M. Stahn, S. Spicher, S. Grimme, J. Chem. Theory Comput.,
     2021, 17, 4250-4261. DOI: 10.1021/acs.jctc.1c00471
   
   for ddCOSMO and CPCM-X implicit solvation:
   * M. Stahn, S. Ehlert, S. Grimme, J. Phys. Chem. A,
     2023, XX, XXXX-XXXX. DOI: 10.1021/acs.jpca.3c04382
   
   for DFT-D4:
   * E. Caldeweyher, C. Bannwarth and S. Grimme, J. Chem. Phys., 2017,
     147, 034112. DOI: 10.1063/1.4993215
   * E. Caldeweyher, S. Ehlert, A. Hansen, H. Neugebauer, S. Spicher,
     C. Bannwarth and S. Grimme, J. Chem. Phys., 2019, 150, 154122.
     DOI: 10.1063/1.5090222
   * E. Caldeweyher, J.-M. Mewes, S. Ehlert and S. Grimme, Phys. Chem. Chem. Phys.
     2020, 22, 8499-8512. DOI: 10.1039/D0CP00502A
   
   for sTDA-xTB:
   * S. Grimme and C. Bannwarth, J. Chem. Phys., 2016, 145, 054103.
     DOI: 10.1063/1.4959605
   
   in the mass-spec context:
   * V. Asgeirsson, C. Bauer and S. Grimme, Chem. Sci., 2017, 8, 4879.
     DOI: 10.1039/c7sc00601b
   * J. Koopman and S. Grimme, ACS Omega 2019, 4, 12, 15120-15133.
     DOI: 10.1021/acsomega.9b02011
   
   for metadynamics refer to:
   * S. Grimme, J. Chem. Theory Comput., 2019, 155, 2847-2862
     DOI: 10.1021/acs.jctc.9b00143
   
   for SPH calculations refer to:
   * S. Spicher and S. Grimme, J. Chem. Theory Comput., 2021, 17, 1701-1714
     DOI: 10.1021/acs.jctc.0c01306
   
   for ONIOM refer to:
   * C. Plett, A. Katbashev, S. Ehlert, S. Grimme, M. Bursch,
     Phys. Chem. Chem. Phys., 2023, 25, 17860-17868. DOI: 10.1039/D3CP02178E
   
   for DIPRO refer to:
   * J. Kohn, N. Gildemeister, S. Grimme, D. Fazzi, A. Hansen,
     J. Chem. Phys., 2023, just accepted.
   
   for PTB refer to:
   * S. Grimme, M. Mueller, A. Hansen, J. Chem. Phys., 2023, 158, 124111.
     DOI: 10.1063/5.0137838
   
   with help from (in alphabetical order)
   P. Atkinson, C. Bannwarth, F. Bohle, G. Brandenburg, E. Caldeweyher
   M. Checinski, S. Dohm, S. Ehlert, S. Ehrlich, I. Gerasimov, C. Hölzer
   A. Katbashev, J. Kohn, J. Koopman, C. Lavigne, S. Lehtola, F. März, M. Müller,
   F. Musil, H. Neugebauer, J. Pisarek, C. Plett, P. Pracht, F. Pultar,
   J. Seibert, P. Shushkov, S. Spicher, M. Stahn, M. Steiner, T. Strunk,
   J. Stückrath, T. Rose, and J. Unsleber
   
 * started run on 2026/10/01 at 18:05:13.448     
   ID    Z sym.   atoms
    1    8 O      1, 3, 11
    2    6 C      2, 5, 10, 12, 17, 20, 21, 25, 26, 28, 30, 32, 34
    3    1 H      4, 6, 7, 9, 13, 15, 16, 18, 19, 22, 24, 27, 29, 31, 33
    4    7 N      8, 14, 23

           -------------------------------------------------
          |                Calculation Setup                |
           -------------------------------------------------

          program call               : /usr/bin/xtb input.xyz --opt --gfn 2 --chrg 0 --uhf 0
          hostname                   : fedora
          coordinate file            : input.xyz
          omp threads                :                    16


           -------------------------------------------------
          |                 G F N 2 - x T B                 |
           -------------------------------------------------

        Reference                      10.1021/acs.jctc.8b01176
      * Hamiltonian:
        H0-scaling (s, p, d)           1.850000    2.230000    2.230000
        zeta-weighting                 0.500000
      * Dispersion:
        s8                             2.700000
        a1                             0.520000
        a2                             5.000000
        s9                             5.000000
      * Repulsion:
        kExp                           1.500000    1.000000
        rExp                           1.000000
      * Coulomb:
        alpha                          2.000000
        third order                    shell-resolved
        anisotropic                    true
        a3                             3.000000
        a5                             4.000000
        cn-shift                       1.200000
        cn-exp                         4.000000
        max-rad                        5.000000


          ...................................................
          :                      SETUP                      :
          :.................................................:
          :  # basis functions                  91          :
          :  # atomic orbitals                  91          :
          :  # shells                           53          :
          :  # electrons                       100          :
          :  max. iterations                   250          :
          :  Hamiltonian                  GFN2-xTB          :
          :  restarted?                      false          :
          :  GBSA solvation                  false          :
          :  PC potential                    false          :
          :  electronic temp.          300.0000000     K    :
          :  accuracy                    1.0000000          :
          :  -> integral cutoff          0.2500000E+02      :
          :  -> integral neglect         0.1000000E-07      :
          :  -> SCF convergence          0.1000000E-05 Eh   :
          :  -> wf. convergence          0.1000000E-03 e    :
          :  Broyden damping             0.4000000          :
          :  net charge                          0          :
          :  unpaired electrons                  0          :
          ...................................................

 iter      E             dE          RMSdq      gap      omega  full diag
   1    -56.9678086 -0.569678E+02  0.458E+00    3.65       0.0  T
   2    -57.1329091 -0.165100E+00  0.262E+00    4.20       1.0  T
   3    -57.1398582 -0.694906E-02  0.138E+00    4.38       1.0  T
   4    -57.1441955 -0.433731E-02  0.461E-01    4.21       1.0  T
   5    -57.1491049 -0.490941E-02  0.110E-01    4.19       1.0  T
   6    -57.1491988 -0.939765E-04  0.558E-02    4.23       1.0  T
   7    -57.1492203 -0.214813E-04  0.248E-02    4.21       1.0  T
   8    -57.1492247 -0.437357E-05  0.104E-02    4.21       1.6  T
   9    -57.1492260 -0.129235E-05  0.371E-03    4.22       4.6  T
  10    -57.1492261 -0.636316E-07  0.127E-03    4.22      13.5  T
  11    -57.1492261 -0.112646E-07  0.499E-04    4.22      34.4  T
  12    -57.1492261 -0.877186E-09  0.180E-04    4.22      95.5  T

   *** convergence criteria satisfied after 12 iterations ***

         #    Occupation            Energy/Eh            Energy/eV
      -------------------------------------------------------------
         1        2.0000           -0.7629744             -20.7616
       ...           ...                  ...                  ...
        44        2.0000           -0.4161581             -11.3242
        45        2.0000           -0.4044859             -11.0066
        46        2.0000           -0.3990715             -10.8593
        47        2.0000           -0.3967123             -10.7951
        48        2.0000           -0.3844481             -10.4614
        49        2.0000           -0.3738285             -10.1724
        50        2.0000           -0.3696387             -10.0584 (HOMO)
        51                         -0.2146667              -5.8414 (LUMO)
        52                         -0.2006361              -5.4596
        53                         -0.1768048              -4.8111
        54                         -0.1736701              -4.7258
        55                         -0.1728672              -4.7040
       ...                                ...                  ...
        91                          2.2403111              60.9620
      -------------------------------------------------------------
                  HL-Gap            0.1549719 Eh            4.2170 eV
             Fermi-level           -0.2921527 Eh           -7.9499 eV

 SCC (total)                   0 d,  0 h,  0 min,  0.185 sec
 SCC setup                      ...        0 min,  0.006 sec (  3.143%)
 Dispersion                     ...        0 min,  0.014 sec (  7.593%)
 classical contributions        ...        0 min,  0.009 sec (  4.879%)
 integral evaluation            ...        0 min,  0.017 sec (  9.414%)
 iterations                     ...        0 min,  0.092 sec ( 49.482%)
 molecular gradient             ...        0 min,  0.047 sec ( 25.263%)
 printout                       ...        0 min,  0.000 sec (  0.215%)

         :::::::::::::::::::::::::::::::::::::::::::::::::::::
         ::                     SUMMARY                     ::
         :::::::::::::::::::::::::::::::::::::::::::::::::::::
         :: total energy             -55.770674901884 Eh    ::
         :: gradient norm              1.672171715566 Eh/a0 ::
         :: HOMO-LUMO gap              4.217001095823 eV    ::
         ::.................................................::
         :: SCC energy               -57.149240843889 Eh    ::
         :: -> isotropic ES            0.093783196903 Eh    ::
         :: -> anisotropic ES          0.001258914595 Eh    ::
         :: -> anisotropic XC          0.017294763834 Eh    ::
         :: -> dispersion             -0.033807896617 Eh    ::
         :: repulsion energy           1.378565942006 Eh    ::
         :: add. restraining           0.000000000000 Eh    ::
         :: total charge              -0.000000000000 e     ::
         :::::::::::::::::::::::::::::::::::::::::::::::::::::

      ----------------------------------------------------------- 
     |                   =====================                   |
     |                        A N C O P T                        |
     |                   =====================                   |
     |               Approximate Normal Coordinate               |
     |                Rational Function Optimizer                |
      ----------------------------------------------------------- 
      ----------------------------------------------------------- 
     |                   =====================                   |
     |                        A N C O P T                        |
     |                   =====================                   |
     |               Approximate Normal Coordinate               |
     |                Rational Function Optimizer                |
      ----------------------------------------------------------- 

          ...................................................
          :                      SETUP                      :
          :.................................................:
          :   optimization level            normal          :
          :   max. optcycles                   200          :
          :   ANC micro-cycles                  20          :
          :   degrees of freedom                96          :
          :.................................................:
          :   RF solver                   davidson          :
          :   write xtbopt.log                true          :
          :   linear?                        false          :
          :   energy convergence         0.5000000E-05 Eh   :
          :   grad. convergence          0.1000000E-02 Eh/α :
          :   maxmium RF displ.          1.0000000          :
          :   Hlow (freq-cutoff)         0.1000000E-01      :
          :   Hmax (freq-cutoff)         5.0000000          :
          :   S6 in model hess.         20.0000000          :
          ...................................................

generating ANC from exact Hessian ...
Using Lindh-Hessian (1995)
 Shifting diagonal of input Hessian by    9.6052889574407014E-003
 Lowest  eigenvalues of input Hessian
    0.000000    0.000000    0.000000    0.000000    0.000000    0.000000
    0.010000    0.010284    0.010466    0.013134    0.013470    0.014935
    0.017837    0.019356    0.019959    0.021471    0.022317    0.023800
 Highest eigenvalues
    2.541208    2.567916    2.866741    2.905545    3.153933    3.300702


........................................................................
.............................. CYCLE    1 ..............................
........................................................................

 iter      E             dE          RMSdq      gap      omega  full diag
   1    -57.1492261 -0.571492E+02  0.753E-05    4.22       0.0  T
   2    -57.1492261 -0.326850E-10  0.440E-05    4.22     389.7  T
   3    -57.1492261 -0.753886E-11  0.271E-05    4.22     631.7  T
     SCC iter.                  ...        0 min,  0.007 sec
     gradient                   ...        0 min,  0.001 sec
 * total energy  :   -55.7706749 Eh     change       -0.2786038E-09 Eh
   gradient norm :     1.6721707 Eh/α   predicted     0.0000000E+00 (-100.00%)
   displ. norm   :     0.5640591 α      lambda       -0.8849707E+00
   maximum displ.:     0.3234998 α      in ANC's #90, #96, #59, ...

........................................................................
.............................. CYCLE    2 ..............................
........................................................................

 iter      E             dE          RMSdq      gap      omega  full diag
   1    -57.1462852 -0.571463E+02  0.773E-01    3.81       0.0  T
   2    -57.1525411 -0.625586E-02  0.416E-01    4.07       1.0  T
   3    -57.1530682 -0.527068E-03  0.230E-01    4.03       1.0  T
   4    -57.1532476 -0.179418E-03  0.953E-02    4.08       1.0  T
   5    -57.1534471 -0.199476E-03  0.251E-02    4.10       1.0  T
   6    -57.1534548 -0.776018E-05  0.102E-02    4.09       1.7  T
   7    -57.1534557 -0.870693E-06  0.438E-03    4.09       3.9  T
   8    -57.1534559 -0.152586E-06  0.159E-03    4.09      10.8  T
   9    -57.1534559 -0.132591E-07  0.682E-04    4.08      25.1  T
  10    -57.1534559 -0.287073E-08  0.271E-04    4.09      63.4  T
     SCC iter.                  ...        0 min,  0.016 sec
     gradient                   ...        0 min,  0.002 sec
 * total energy  :   -56.2650700 Eh     change       -0.4943951E+00 Eh
   gradient norm :     0.5114232 Eh/α   predicted    -0.5832725E+00 (  17.98%)
   displ. norm   :     0.5260074 α      lambda       -0.2200230E+00
   maximum displ.:     0.1697158 α      in ANC's #59, #74, #43, ...

........................................................................
.............................. CYCLE    3 ..............................
........................................................................

 iter      E             dE          RMSdq      gap      omega  full diag
   1    -57.2148563 -0.572149E+02  0.629E-01    3.88       0.0  T
   2    -57.2170204 -0.216407E-02  0.346E-01    3.95       1.0  T
   3    -57.2169932  0.271485E-04  0.192E-01    3.93       1.0  T
   4    -57.2172869 -0.293670E-03  0.677E-02    3.95       1.0  T
   5    -57.2174019 -0.115057E-03  0.182E-02    3.94       1.0  T
   6    -57.2174052 -0.328563E-05  0.830E-03    3.94       2.1  T
   7    -57.2174059 -0.625740E-06  0.344E-03    3.94       5.0  T
   8    -57.2174059 -0.749251E-07  0.139E-03    3.94      12.3  T
   9    -57.2174059 -0.145369E-07  0.535E-04    3.94      32.1  T
  10    -57.2174060 -0.219682E-08  0.234E-04    3.94      73.3  T
     SCC iter.                  ...        0 min,  0.015 sec
     gradient                   ...        0 min,  0.002 sec
 * total energy  :   -56.4226346 Eh     change       -0.1575646E+00 Eh
   gradient norm :     0.2123499 Eh/α   predicted    -0.1404506E+00 ( -10.86%)
   displ. norm   :     0.4732516 α      lambda       -0.7457625E-01
   maximum displ.:     0.1322132 α      in ANC's #43, #59, #42, ...

........................................................................
.............................. CYCLE    4 ..............................
........................................................................

 iter      E             dE          RMSdq      gap      omega  full diag
   1    -57.2502791 -0.572503E+02  0.488E-01    3.65       0.0  T
   2    -57.2512204 -0.941250E-03  0.278E-01    3.65       1.0  T
   3    -57.2511157  0.104643E-03  0.147E-01    3.63       1.0  T
   4    -57.2513678 -0.252107E-03  0.493E-02    3.64       1.0  T
   5    -57.2514318 -0.639453E-04  0.132E-02    3.64       1.3  T
   6    -57.2514340 -0.223490E-05  0.636E-03    3.64       2.7  T
   7    -57.2514342 -0.232941E-06  0.231E-03    3.64       7.4  T
   8    -57.2514343 -0.364297E-07  0.861E-04    3.64      19.9  T
   9    -57.2514343 -0.675525E-08  0.353E-04    3.64      48.6  T
     SCC iter.                  ...        0 min,  0.047 sec
     gradient                   ...        0 min,  0.045 sec
 * total energy  :   -56.4661803 Eh     change       -0.4354574E-01 Eh
   gradient norm :     0.0840437 Eh/α   predicted    -0.4563952E-01 (   4.81%)
   displ. norm   :     0.3625112 α      lambda       -0.1848791E-01
   maximum displ.:     0.1171908 α      in ANC's #35, #29, #25, ...

........................................................................
.............................. CYCLE    5 ..............................
........................................................................

 iter      E             dE          RMSdq      gap      omega  full diag
   1    -57.2277475 -0.572277E+02  0.298E-01    3.55       0.0  T
   2    -57.2279153 -0.167814E-03  0.177E-01    3.56       1.0  T
   3    -57.2278828  0.325047E-04  0.615E-02    3.55       1.0  T
   4    -57.2279375 -0.546497E-04  0.131E-02    3.55       1.3  T
   5    -57.2279421 -0.466740E-05  0.455E-03    3.55       3.8  T
   6    -57.2279422 -0.385136E-07  0.243E-03    3.55       7.1  T
   7    -57.2279422 -0.641258E-07  0.762E-04    3.55      22.5  T
   8    -57.2279422 -0.716872E-08  0.363E-04    3.55      47.3  T
     SCC iter.                  ...        0 min,  0.047 sec
     gradient                   ...        0 min,  0.003 sec
 * total energy  :   -56.4755827 Eh     change       -0.9402381E-02 Eh
   gradient norm :     0.0451294 Eh/α   predicted    -0.1045891E-01 (  11.24%)
   displ. norm   :     0.2144000 α      lambda       -0.4545629E-02
   maximum displ.:     0.0656588 α      in ANC's #25, #26, #11, ...

........................................................................
.............................. CYCLE    6 ..............................
........................................................................

 iter      E             dE          RMSdq      gap      omega  full diag
   1    -57.2286946 -0.572287E+02  0.148E-01    3.57       0.0  T
   2    -57.2287167 -0.221515E-04  0.870E-02    3.57       1.0  T
   3    -57.2287093  0.737670E-05  0.236E-02    3.57       1.0  T
   4    -57.2287201 -0.107665E-04  0.733E-03    3.57       2.3  T
   5    -57.2287212 -0.107133E-05  0.254E-03    3.57       6.8  T
   6    -57.2287212  0.131039E-07  0.112E-03    3.57      15.4  T
   7    -57.2287212 -0.331702E-07  0.346E-04    3.57      49.6  T
   8    -57.2287212 -0.171414E-08  0.142E-04    3.57     120.4  T
     SCC iter.                  ...        0 min,  0.009 sec
     gradient                   ...        0 min,  0.002 sec
 * total energy  :   -56.4781954 Eh     change       -0.2612662E-02 Eh
   gradient norm :     0.0251311 Eh/α   predicted    -0.2377368E-02 (  -9.01%)
   displ. norm   :     0.1143841 α      lambda       -0.9875764E-03
   maximum displ.:     0.0280861 α      in ANC's #23, #34, #1, ...

........................................................................
.............................. CYCLE    7 ..............................
........................................................................

 iter      E             dE          RMSdq      gap      omega  full diag
   1    -57.2345099 -0.572345E+02  0.793E-02    3.59       0.0  T
   2    -57.2345214 -0.114646E-04  0.466E-02    3.59       1.0  T
   3    -57.2345180  0.337475E-05  0.186E-02    3.59       1.0  T
   4    -57.2345237 -0.562738E-05  0.406E-03    3.59       4.2  T
   5    -57.2345240 -0.377034E-06  0.122E-03    3.59      14.0  T
   6    -57.2345241 -0.650041E-08  0.750E-04    3.59      22.9  T
   7    -57.2345241 -0.337022E-08  0.262E-04    3.59      65.5  T
     SCC iter.                  ...        0 min,  0.007 sec
     gradient                   ...        0 min,  0.001 sec
 * total energy  :   -56.4787775 Eh     change       -0.5820732E-03 Eh
   gradient norm :     0.0156426 Eh/α   predicted    -0.5002826E-03 ( -14.05%)
   displ. norm   :     0.0743785 α      lambda       -0.3665110E-03
   maximum displ.:     0.0304253 α      in ANC's #23, #3, #7, ...

........................................................................
.............................. CYCLE    8 ..............................
........................................................................

 iter      E             dE          RMSdq      gap      omega  full diag
   1    -57.2369691 -0.572370E+02  0.467E-02    3.60       0.0  T
   2    -57.2369735 -0.444507E-05  0.267E-02    3.60       1.0  T
   3    -57.2369728  0.736989E-06  0.996E-03    3.60       1.7  T
   4    -57.2369741 -0.125692E-05  0.224E-03    3.60       7.6  T
   5    -57.2369742 -0.133507E-06  0.890E-04    3.60      19.3  T
   6    -57.2369742 -0.672149E-08  0.484E-04    3.60      35.4  T
     SCC iter.                  ...        0 min,  0.006 sec
     gradient                   ...        0 min,  0.002 sec
 * total energy  :   -56.4789893 Eh     change       -0.2117988E-03 Eh
   gradient norm :     0.0082827 Eh/α   predicted    -0.1842701E-03 ( -13.00%)
   displ. norm   :     0.0448618 α      lambda       -0.1104880E-03
   maximum displ.:     0.0161403 α      in ANC's #6, #7, #23, ...

........................................................................
.............................. CYCLE    9 ..............................
........................................................................

 iter      E             dE          RMSdq      gap      omega  full diag
   1    -57.2372197 -0.572372E+02  0.231E-02    3.60       0.0  T
   2    -57.2372212 -0.151309E-05  0.133E-02    3.60       1.3  T
   3    -57.2372211  0.914954E-07  0.536E-03    3.60       3.2  T
   4    -57.2372213 -0.235630E-06  0.125E-03    3.60      13.7  T
   5    -57.2372213 -0.334951E-07  0.430E-04    3.60      39.9  T
   6    -57.2372214 -0.186062E-08  0.225E-04    3.60      76.3  T
     SCC iter.                  ...        0 min,  0.009 sec
     gradient                   ...        0 min,  0.001 sec
 * total energy  :   -56.4790590 Eh     change       -0.6971470E-04 Eh
   gradient norm :     0.0045126 Eh/α   predicted    -0.5536558E-04 ( -20.58%)
   displ. norm   :     0.0325654 α      lambda       -0.4035317E-04
   maximum displ.:     0.0153696 α      in ANC's #6, #23, #36, ...

........................................................................
.............................. CYCLE   10 ..............................
........................................................................

 iter      E             dE          RMSdq      gap      omega  full diag
   1    -57.2368077 -0.572368E+02  0.151E-02    3.59       0.0  T
   2    -57.2368080 -0.351043E-06  0.888E-03    3.59       1.9  T
   3    -57.2368079  0.154670E-06  0.356E-03    3.59       4.8  T
   4    -57.2368081 -0.218713E-06  0.847E-04    3.59      20.3  T
   5    -57.2368081 -0.168375E-07  0.254E-04    3.59      67.6  T
     SCC iter.                  ...        0 min,  0.005 sec
     gradient                   ...        0 min,  0.002 sec
 * total energy  :   -56.4790837 Eh     change       -0.2474979E-04 Eh
   gradient norm :     0.0025247 Eh/α   predicted    -0.2020401E-04 ( -18.37%)
   displ. norm   :     0.0251118 α      lambda       -0.1578170E-04
   maximum displ.:     0.0102969 α      in ANC's #6, #17, #2, ...

........................................................................
.............................. CYCLE   11 ..............................
........................................................................

 iter      E             dE          RMSdq      gap      omega  full diag
   1    -57.2362068 -0.572362E+02  0.960E-03    3.59       0.0  T
   2    -57.2362069 -0.715408E-07  0.563E-03    3.59       3.0  T
   3    -57.2362068  0.539776E-07  0.180E-03    3.59       9.5  T
   4    -57.2362069 -0.707503E-07  0.431E-04    3.59      39.8  T
   5    -57.2362069 -0.410805E-08  0.176E-04    3.59      97.6  T
     SCC iter.                  ...        0 min,  0.005 sec
     gradient                   ...        0 min,  0.002 sec
 * total energy  :   -56.4790942 Eh     change       -0.1047231E-04 Eh
   gradient norm :     0.0018016 Eh/α   predicted    -0.7898077E-05 ( -24.58%)
   displ. norm   :     0.0376287 α      lambda       -0.1057172E-04
   maximum displ.:     0.0146920 α      in ANC's #17, #2, #6, ...

........................................................................
.............................. CYCLE   12 ..............................
........................................................................

 iter      E             dE          RMSdq      gap      omega  full diag
   1    -57.2359910 -0.572360E+02  0.129E-02    3.59       0.0  T
   2    -57.2359911 -0.115879E-06  0.746E-03    3.59       2.3  T
   3    -57.2359910  0.100064E-06  0.250E-03    3.59       6.8  T
   4    -57.2359911 -0.129830E-06  0.580E-04    3.59      29.6  T
   5    -57.2359911 -0.638113E-08  0.236E-04    3.59      72.7  T
     SCC iter.                  ...        0 min,  0.012 sec
     gradient                   ...        0 min,  0.001 sec
 * total energy  :   -56.4791020 Eh     change       -0.7801837E-05 Eh
   gradient norm :     0.0016656 Eh/α   predicted    -0.5294336E-05 ( -32.14%)
   displ. norm   :     0.0164737 α      lambda       -0.4634851E-05
   maximum displ.:     0.0096243 α      in ANC's #17, #2, #3, ...

........................................................................
.............................. CYCLE   13 ..............................
........................................................................

 iter      E             dE          RMSdq      gap      omega  full diag
   1    -57.2361711 -0.572362E+02  0.680E-03    3.59       0.0  T
   2    -57.2361711 -0.432801E-07  0.400E-03    3.59       4.3  T
   3    -57.2361711  0.460213E-07  0.164E-03    3.59      10.4  T
   4    -57.2361712 -0.584693E-07  0.299E-04    3.59      57.3  T
   5    -57.2361712 -0.194871E-08  0.953E-05    3.59     180.0  T
     SCC iter.                  ...        0 min,  0.005 sec
     gradient                   ...        0 min,  0.002 sec
 * total energy  :   -56.4791067 Eh     change       -0.4685144E-05 Eh
   gradient norm :     0.0012757 Eh/α   predicted    -0.2320924E-05 ( -50.46%)
   displ. norm   :     0.0341006 α      lambda       -0.6273367E-05
   maximum displ.:     0.0175264 α      in ANC's #17, #2, #3, ...

........................................................................
.............................. CYCLE   14 ..............................
........................................................................

 iter      E             dE          RMSdq      gap      omega  full diag
   1    -57.2365673 -0.572366E+02  0.106E-02    3.59       0.0  T
   2    -57.2365673 -0.417473E-07  0.624E-03    3.59       2.7  T
   3    -57.2365673  0.366634E-07  0.130E-03    3.59      13.2  T
   4    -57.2365673 -0.486746E-07  0.296E-04    3.59      57.8  T
   5    -57.2365673 -0.133986E-08  0.147E-04    3.59     117.0  T
     SCC iter.                  ...        0 min,  0.005 sec
     gradient                   ...        0 min,  0.002 sec
 * total energy  :   -56.4791125 Eh     change       -0.5801446E-05 Eh
   gradient norm :     0.0012480 Eh/α   predicted    -0.3142547E-05 ( -45.83%)
   displ. norm   :     0.0435026 α      lambda       -0.4721344E-05
   maximum displ.:     0.0234621 α      in ANC's #2, #17, #3, ...

........................................................................
.............................. CYCLE   15 ..............................
........................................................................

 iter      E             dE          RMSdq      gap      omega  full diag
   1    -57.2364102 -0.572364E+02  0.121E-02    3.59       0.0  T
   2    -57.2364102 -0.485149E-07  0.709E-03    3.59       2.4  T
   3    -57.2364102  0.923760E-08  0.953E-04    3.59      18.0  T
   4    -57.2364102 -0.208562E-07  0.257E-04    3.59      66.6  T
     SCC iter.                  ...        0 min,  0.004 sec
     gradient                   ...        0 min,  0.002 sec
 * total energy  :   -56.4791169 Eh     change       -0.4417351E-05 Eh
   gradient norm :     0.0010189 Eh/α   predicted    -0.2363461E-05 ( -46.50%)
   displ. norm   :     0.0415036 α      lambda       -0.3454853E-05
   maximum displ.:     0.0239173 α      in ANC's #2, #17, #3, ...

........................................................................
.............................. CYCLE   16 ..............................
........................................................................

 iter      E             dE          RMSdq      gap      omega  full diag
   1    -57.2362452 -0.572362E+02  0.108E-02    3.59       0.0  T
   2    -57.2362453 -0.633462E-07  0.636E-03    3.59       2.7  T
   3    -57.2362452  0.309020E-07  0.136E-03    3.59      12.6  T
   4    -57.2362453 -0.439410E-07  0.329E-04    3.59      52.1  T
   5    -57.2362453 -0.153315E-08  0.157E-04    3.59     109.1  T
     SCC iter.                  ...        0 min,  0.007 sec
     gradient                   ...        0 min,  0.002 sec
 * total energy  :   -56.4791197 Eh     change       -0.2816980E-05 Eh
   gradient norm :     0.0009051 Eh/α   predicted    -0.1732834E-05 ( -38.49%)
   displ. norm   :     0.0247986 α      lambda       -0.2120767E-05
   maximum displ.:     0.0151552 α      in ANC's #2, #3, #4, ...

   *** GEOMETRY OPTIMIZATION CONVERGED AFTER 16 ITERATIONS ***

------------------------------------------------------------------------
 total energy gain   :        -0.7084448 Eh     -444.5558 kcal/mol
 total RMSD          :         0.3025660 a0        0.1601 Å
 total power (kW/mol):      -116.2513513 (step)-4564.1839 (real)
------------------------------------------------------------------------

 ANCopt (total)                0 d,  0 h,  0 min,  0.408 sec
 optimizer setup                ...        0 min,  0.000 sec (  0.035%)
 model hessian                  ...        0 min,  0.007 sec (  1.627%)
 ANC generation                 ...        0 min,  0.059 sec ( 14.409%)
 coordinate transformation      ...        0 min,  0.000 sec (  0.025%)
 single point calculation       ...        0 min,  0.329 sec ( 80.737%)
 optimization log               ...        0 min,  0.001 sec (  0.272%)
 hessian update                 ...        0 min,  0.007 sec (  1.734%)
 rational function              ...        0 min,  0.002 sec (  0.395%)

================
 final structure:
================
34
 xtb: 6.7.1-6.fc44.fc44
O           -3.30763238726774        1.53222810177070       -2.89948551545600
C           -3.90206440868434        2.30626409257681       -2.01397226076688
O           -4.38283009133781        3.36996055842592       -2.28555421446017
H           -2.93381282764465        0.70245851201404       -2.48953008016245
C           -3.97302092347825        1.72479399167748       -0.58386798223993
H           -4.55185674153691        0.79334138426588       -0.64207101599700
H           -4.49533304438264        2.43643984382508        0.05457874788649
N           -2.67342250482713        1.43870615662995       -0.00865544547528
H           -2.32844036973236        1.99492029818136        0.76251014312259
C           -1.89001414940791        0.42987846240192       -0.40505458822875
O           -2.15051191857512       -0.28155649640345       -1.37011748406143
C           -0.62576975872632        0.25408032288845        0.42748168791391
H            0.18467831565740        0.72784251576051       -0.14106592741266
N           -0.75424001122190        0.97154343419273        1.68837645609151
H            0.15472938316434        1.04405283141786        2.13250413442910
H           -1.35179971761656        0.44488712892542        2.32032310676733
C           -0.29865213292171       -1.24731780392826        0.58066720606140
H           -0.32110924147442       -1.70195916283470       -0.41051737506946
H           -1.07396560190570       -1.71729156435156        1.19195788598401
C            1.03749793268029       -1.43460040479360        1.21360955674602
C            1.30329861255818       -1.74239109080267        2.51607879768447
H            0.62048572380877       -1.95312439927238        3.31833989773380
N            2.65634121243017       -1.77895272463915        2.72705144560276
H            3.10530832675418       -2.01020227394628        3.59644587066987
C            3.29496761792887       -1.49236853812807        1.55498100681193
C            4.65015591581259       -1.40889026272816        1.26049004773299
H            5.39725376450595       -1.58705680827314        2.01946246883578
C            5.00136420596577       -1.09517802694108       -0.03432396748820
H            6.04583591201552       -1.02360307100718       -0.29883849672559
C            4.03324331398017       -0.86915913217241       -1.01737309157805
H            4.35410869280359       -0.62958217148976       -2.02039274495820
C            2.68929936791088       -0.94867417352780       -0.73200640617281
H            1.94855293965462       -0.77938923420592       -1.49910811561688
C            2.30377355290538       -1.26257097691576        0.57133976239374

 Bond Distances (Angstroems)
 ---------------------------
O1-C2=1.3178         O1-H4=0.9982         C2-O1=1.3178         C2-O3=1.1985         C2-C5=1.5454         O3-C2=1.1985         
H4-O1=0.9982         C5-C2=1.5454         C5-H6=1.0982         C5-H7=1.0894         C5-N8=1.4497         H6-C5=1.0982         
H7-C5=1.0894         N8-C5=1.4497         N8-H9=1.0115         N8-C10=1.3374        H9-N8=1.0115         C10-N8=1.3374        
C10-O11=1.2269       C10-C12=1.5239       O11-C10=1.2269       C12-C10=1.5239       C12-H13=1.0975       C12-N14=1.4564       
C12-C17=1.5442       H13-C12=1.0975       N14-C12=1.4564       N14-H15=1.0143       N14-H16=1.0168       H15-N14=1.0143       
H16-N14=1.0168       C17-C12=1.5442       C17-H18=1.0907       C17-H19=1.0935       C17-C20=1.4903       H18-C17=1.0907       
H19-C17=1.0935       C20-C17=1.4903       C20-C21=1.3645       C20-C34=1.4302       C21-C20=1.3645       C21-H22=1.0744       
C21-N23=1.3699       H22-C21=1.0744       N23-C21=1.3699       N23-H24=1.0054       N23-C25=1.3652       H24-N23=1.0054       
C25-N23=1.3652       C25-C26=1.3893       C25-C34=1.4152       C26-C25=1.3893       C26-H27=1.0798       C26-C28=1.3778       
H27-C26=1.0798       C28-C26=1.3778       C28-H29=1.0798       C28-C30=1.3981       H29-C28=1.0798       C30-C28=1.3981       
C30-H31=1.0800       C30-C32=1.3762       H31-C30=1.0800       C32-C30=1.3762       C32-H33=1.0797       C32-C34=1.3949       
H33-C32=1.0797       C34-C20=1.4302       C34-C25=1.4152       C34-C32=1.3949       
 C  H  Rav=1.0863 sigma=0.0081  Rmin=1.0744  Rmax=1.0982    10
 C  C  Rav=1.4375 sigma=0.0659  Rmin=1.3645  Rmax=1.5454    12
 N  H  Rav=1.0120 sigma=0.0042  Rmin=1.0054  Rmax=1.0168     4
 N  C  Rav=1.3957 sigma=0.0482  Rmin=1.3374  Rmax=1.4564     5
 O  H  Rav=0.9982 sigma=0.0000  Rmin=0.9982  Rmax=0.9982     1
 O  C  Rav=1.2477 sigma=0.0509  Rmin=1.1985  Rmax=1.3178     3

 selected bond angles (degree)
 --------------------
H4-O1-C2=112.41                O3-C2-O1=123.37                C5-C2-O1=114.93                C5-C2-O3=121.68                
H6-C5-C2=107.11                H7-C5-C2=108.57                H7-C5-H6=109.41                N8-C5-C2=113.59                
N8-C5-H6=109.04                N8-C5-H7=109.04                H9-N8-C5=119.98                C10-N8-C5=123.81               
C10-N8-H9=116.17               O11-C10-N8=123.10              C12-C10-N8=114.27              C12-C10-O11=122.61             

 selected dihedral angles (degree)
 ---------------------------------
O3-C2-O1-H4=177.64            C5-C2-O1-H4=356.06            H6-C5-C2-O1=298.99            H6-C5-C2-O3=117.44            
H7-C5-C2-O1=180.93            H7-C5-C2-O3=359.38            N8-C5-C2-O1= 59.45            N8-C5-C2-O3=237.90            
H9-N8-C5-C2=110.88            H9-N8-C5-H6=230.25            H9-N8-C5-H7=349.66            C10-N8-C5-C2=288.38           
C10-N8-C5-H6= 47.74           C10-N8-C5-H7=167.15           O11-C10-N8-C5=  6.28          O11-C10-N8-H9=183.86          
C12-C10-N8-C5=185.07          C12-C10-N8-H9=  2.65          
           -------------------------------------------------
          |                Final Singlepoint                |
           -------------------------------------------------

          ...................................................
          :                      SETUP                      :
          :.................................................:
          :  # basis functions                  91          :
          :  # atomic orbitals                  91          :
          :  # shells                           53          :
          :  # electrons                       100          :
          :  max. iterations                   250          :
          :  Hamiltonian                  GFN2-xTB          :
          :  restarted?                      false          :
          :  GBSA solvation                  false          :
          :  PC potential                    false          :
          :  electronic temp.          300.0000000     K    :
          :  accuracy                    1.0000000          :
          :  -> integral cutoff          0.2500000E+02      :
          :  -> integral neglect         0.1000000E-07      :
          :  -> SCF convergence          0.1000000E-05 Eh   :
          :  -> wf. convergence          0.1000000E-03 e    :
          :  Broyden damping             0.4000000          :
          :  net charge                          0          :
          :  unpaired electrons                  0          :
          ...................................................

 iter      E             dE          RMSdq      gap      omega  full diag
   1    -57.2362453 -0.572362E+02  0.771E-05    3.59       0.0  T
   2    -57.2362453 -0.237961E-10  0.505E-05    3.59     339.9  T
   3    -57.2362453 -0.202434E-10  0.337E-05    3.59     508.2  T

   *** convergence criteria satisfied after 3 iterations ***

         #    Occupation            Energy/Eh            Energy/eV
      -------------------------------------------------------------
         1        2.0000           -0.7348336             -19.9958
       ...           ...                  ...                  ...
        44        2.0000           -0.4255106             -11.5787
        45        2.0000           -0.4245027             -11.5513
        46        2.0000           -0.4198227             -11.4240
        47        2.0000           -0.4029901             -10.9659
        48        2.0000           -0.3990795             -10.8595
        49        2.0000           -0.3887982             -10.5797
        50        2.0000           -0.3706518             -10.0859 (HOMO)
        51                         -0.2386792              -6.4948 (LUMO)
        52                         -0.2342647              -6.3747
        53                         -0.2298559              -6.2547
        54                         -0.2036061              -5.5404
        55                         -0.1669836              -4.5439
       ...                                ...                  ...
        91                          0.7118463              19.3703
      -------------------------------------------------------------
                  HL-Gap            0.1319726 Eh            3.5912 eV
             Fermi-level           -0.3046655 Eh           -8.2904 eV

 SCC (total)                   0 d,  0 h,  0 min,  0.006 sec
 SCC setup                      ...        0 min,  0.000 sec (  0.774%)
 Dispersion                     ...        0 min,  0.000 sec (  1.655%)
 classical contributions        ...        0 min,  0.000 sec (  0.210%)
 integral evaluation            ...        0 min,  0.001 sec (  7.950%)
 iterations                     ...        0 min,  0.004 sec ( 58.680%)
 molecular gradient             ...        0 min,  0.002 sec ( 26.252%)
 printout                       ...        0 min,  0.000 sec (  4.405%)

         :::::::::::::::::::::::::::::::::::::::::::::::::::::
         ::                     SUMMARY                     ::
         :::::::::::::::::::::::::::::::::::::::::::::::::::::
         :: total energy             -56.479119722394 Eh    ::
         :: gradient norm              0.000904503625 Eh/a0 ::
         :: HOMO-LUMO gap              3.591156805325 eV    ::
         ::.................................................::
         :: SCC energy               -57.236227111466 Eh    ::
         :: -> isotropic ES            0.097917179741 Eh    ::
         :: -> anisotropic ES          0.004268881206 Eh    ::
         :: -> anisotropic XC          0.019229826007 Eh    ::
         :: -> dispersion             -0.033711290231 Eh    ::
         :: repulsion energy           0.757107389072 Eh    ::
         :: add. restraining           0.000000000000 Eh    ::
         :: total charge              -0.000000000000 e     ::
         :::::::::::::::::::::::::::::::::::::::::::::::::::::

           -------------------------------------------------
          |                Property Printout                |
           -------------------------------------------------

    * Orbital Energies and Occupations

         #    Occupation            Energy/Eh            Energy/eV
      -------------------------------------------------------------
         1        2.0000           -0.7348336             -19.9958
       ...           ...                  ...                  ...
        38        2.0000           -0.4677409             -12.7279
        39        2.0000           -0.4634789             -12.6119
        40        2.0000           -0.4608083             -12.5392
        41        2.0000           -0.4557477             -12.4015
        42        2.0000           -0.4467364             -12.1563
        43        2.0000           -0.4322218             -11.7614
        44        2.0000           -0.4255106             -11.5787
        45        2.0000           -0.4245027             -11.5513
        46        2.0000           -0.4198227             -11.4240
        47        2.0000           -0.4029901             -10.9659
        48        2.0000           -0.3990795             -10.8595
        49        2.0000           -0.3887982             -10.5797
        50        2.0000           -0.3706518             -10.0859 (HOMO)
        51                         -0.2386792              -6.4948 (LUMO)
        52                         -0.2342647              -6.3747
        53                         -0.2298559              -6.2547
        54                         -0.2036061              -5.5404
        55                         -0.1669836              -4.5439
        56                         -0.0777682              -2.1162
        57                         -0.0220318              -0.5995
        58                          0.0108788               0.2960
        59                          0.0258237               0.7027
        60                          0.0636231               1.7313
        61                          0.0812635               2.2113
       ...                                ...                  ...
        91                          0.7118463              19.3703
      -------------------------------------------------------------
                  HL-Gap            0.1319726 Eh            3.5912 eV
             Fermi-level           -0.3046655 Eh           -8.2904 eV

     #   Z          covCN         q      C6AA      α(0)
     1   8 O        1.655    -0.374    20.355     6.090
     2   6 C        2.684     0.358    20.923     7.486
     3   8 O        0.856    -0.377    21.226     6.177
     4   1 H        0.800     0.365     0.556     1.172
     5   6 C        3.737    -0.040    21.367     6.596
     6   1 H        0.923     0.076     2.025     2.226
     7   1 H        0.925     0.078     2.003     2.213
     8   7 N        2.687    -0.164    24.549     7.359
     9   1 H        0.860     0.204     1.084     1.631
    10   6 C        2.754     0.262    22.591     7.783
    11   8 O        0.859    -0.458    22.884     6.414
    12   6 C        3.789     0.027    20.134     6.391
    13   1 H        0.924     0.063     2.167     2.302
    14   7 N        2.631    -0.355    29.156     8.019
    15   1 H        0.860     0.154     1.376     1.837
    16   1 H        0.860     0.146     1.431     1.874
    17   6 C        3.805    -0.064    21.718     6.634
    18   1 H        0.924     0.067     2.123     2.278
    19   1 H        0.924     0.032     2.552     2.498
    20   6 C        3.056    -0.033    28.755     8.794
    21   6 C        3.032    -0.010    28.240     8.717
    22   1 H        0.926     0.025     2.653     2.547
    23   7 N        2.777    -0.108    23.366     7.179
    24   1 H        0.860     0.157     1.355     1.823
    25   6 C        3.086     0.044    26.913     8.504
    26   6 C        2.908    -0.053    29.324     8.879
    27   1 H        0.926     0.023     2.685     2.563
    28   6 C        2.925    -0.035    28.875     8.812
    29   1 H        0.926     0.029     2.598     2.521
    30   6 C        2.920    -0.040    29.006     8.832
    31   1 H        0.926     0.029     2.600     2.521
    32   6 C        2.911    -0.037    28.915     8.817
    33   1 H        0.926     0.031     2.566     2.505
    34   6 C        3.118    -0.021    28.349     8.721

 Mol. C6AA /au·bohr⁶  :      13327.300001
 Mol. C8AA /au·bohr⁸  :     312368.841048
 Mol. α(0) /au        :        178.715465


Wiberg/Mayer (AO) data.
largest (>0.10) Wiberg bond orders for each atom

 ---------------------------------------------------------------------------
     #   Z sym  total        # sym  WBO       # sym  WBO       # sym  WBO
 ---------------------------------------------------------------------------
     1   8 O    2.234 --     2 C    1.201     4 H    0.771     3 O    0.183
     2   6 C    3.932 --     3 O    1.774     1 O    1.201     5 C    0.924
     3   8 O    2.067 --     2 C    1.774     1 O    0.183
     4   1 H    0.867 --     1 O    0.771
     5   6 C    3.963 --     8 N    0.991     7 H    0.974     6 H    0.953
                             2 C    0.924
     6   1 H    0.994 --     5 C    0.953
     7   1 H    0.994 --     5 C    0.974
     8   7 N    3.477 --    10 C    1.307     5 C    0.991     9 H    0.916
                            11 O    0.192
     9   1 H    0.958 --     8 N    0.916
    10   6 C    3.948 --    11 O    1.605     8 N    1.307    12 C    0.952
    11   8 O    2.009 --    10 C    1.605     8 N    0.192
    12   6 C    3.981 --    14 N    1.018    17 C    0.958    10 C    0.952
                            13 H    0.942
    13   1 H    0.996 --    12 C    0.942
    14   7 N    3.028 --    12 C    1.018    16 H    0.963    15 H    0.960
    15   1 H    0.976 --    14 N    0.960
    16   1 H    0.979 --    14 N    0.963
    17   6 C    3.993 --    20 C    1.019    19 H    0.974    18 H    0.963
                            12 C    0.958
    18   1 H    0.996 --    17 C    0.963
    19   1 H    0.998 --    17 C    0.974
    20   6 C    3.976 --    21 C    1.583    34 C    1.200    17 C    1.019
    21   6 C    3.947 --    20 C    1.583    23 N    1.190    22 H    0.970
    22   1 H    0.999 --    21 C    0.970
    23   7 N    3.538 --    21 C    1.190    25 C    1.175    24 H    0.948
    24   1 H    0.975 --    23 N    0.948
    25   6 C    3.958 --    26 C    1.337    34 C    1.252    23 N    1.175
    26   6 C    3.989 --    28 C    1.495    25 C    1.337    27 H    0.969
                            32 C    0.114
    27   1 H    0.999 --    26 C    0.969
    28   6 C    3.991 --    26 C    1.495    30 C    1.371    29 H    0.972
    29   1 H    0.999 --    28 C    0.972
    30   6 C    3.991 --    32 C    1.506    28 C    1.371    31 H    0.972
    31   1 H    0.999 --    30 C    0.972
    32   6 C    3.992 --    30 C    1.506    34 C    1.331    33 H    0.969
                            26 C    0.114
    33   1 H    0.999 --    32 C    0.969
    34   6 C    3.984 --    32 C    1.331    25 C    1.252    20 C    1.200
 ---------------------------------------------------------------------------

Topologies differ in total number of bonds
Writing topology from bond orders to xtbtopo.mol

molecular dipole:
                 x           y           z       tot (Debye)
 q only:        0.875      -0.752       2.454
   full:        1.269      -1.240       3.283       9.485
molecular quadrupole (traceless):
                xx          xy          yy          xz          yz          zz
 q only:        0.225       9.583      -5.226     -12.579       8.464       5.001
  q+dip:        2.024      14.024     -11.915     -14.653       6.689       9.891
   full:        1.293      14.337      -9.582     -14.590       7.708       8.288

           -------------------------------------------------
          |                Geometry Summary                 |
           -------------------------------------------------

      molecular mass/u    :      261.2770023
   center of mass at/Å    :        0.0006667      -0.0077345       0.0187367
  moments of inertia/u·Å² :        0.5436943E+03   0.3281733E+04   0.3591439E+04
rotational constants/cm⁻¹ :        0.3100572E-01   0.5136808E-02   0.4693838E-02

 * 32 selected distances

     #   Z          #   Z                                           value/Å
     1   8 O        2   6 C                                       1.3178070
     2   6 C        3   8 O                                       1.1984752
     1   8 O        4   1 H                                       0.9981594 (min)
     5   6 C        6   1 H                                       1.0981997
     5   6 C        7   1 H                                       1.0894330
     5   6 C        8   7 N                                       1.4497145
     8   7 N        9   1 H                                       1.0114759
     8   7 N       10   6 C                                       1.3373835
    10   6 C       11   8 O                                       1.2269252
    12   6 C       13   1 H                                       1.0975078
    12   6 C       14   7 N                                       1.4564045
    14   7 N       15   1 H                                       1.0142645
    14   7 N       16   1 H                                       1.0167602
    17   6 C       18   1 H                                       1.0907109
    17   6 C       19   1 H                                       1.0934637
    17   6 C       20   6 C                                       1.4902980 (max)
    20   6 C       21   6 C                                       1.3644822
    21   6 C       22   1 H                                       1.0743673
    21   6 C       23   7 N                                       1.3698799
    23   7 N       24   1 H                                       1.0054326
    23   7 N       25   6 C                                       1.3651826
    25   6 C       26   6 C                                       1.3893269
    26   6 C       27   1 H                                       1.0797860
    26   6 C       28   6 C                                       1.3777904
    28   6 C       29   1 H                                       1.0798205
    28   6 C       30   6 C                                       1.3981161
    30   6 C       31   1 H                                       1.0800002
    30   6 C       32   6 C                                       1.3762058
    32   6 C       33   1 H                                       1.0797258
    20   6 C       34   6 C                                       1.4302304
    25   6 C       34   6 C                                       1.4152113
    32   6 C       34   6 C                                       1.3949455

 * 6 distinct bonds (by element types)

   Z      Z             #   av. dist./Å        max./Å        min./Å
   1 H    6 C          10     1.0863015     1.0981997     1.0743673
   6 C    6 C           9     1.4040674     1.4902980     1.3644822
   1 H    7 N           4     1.0119833     1.0167602     1.0054326
   6 C    7 N           5     1.3957130     1.4564045     1.3373835
   1 H    8 O           1     0.9981594     0.9981594     0.9981594
   6 C    8 O           3     1.2477358     1.3178070     1.1984752


optimized geometry written to: xtbopt.xyz


           -------------------------------------------------
          | TOTAL ENERGY              -56.479119722394 Eh   |
          | GRADIENT NORM               0.000904503625 Eh/α |
          | HOMO-LUMO GAP               3.591156805325 eV   |
           -------------------------------------------------

------------------------------------------------------------------------
 * finished run on 2026/10/01 at 18:05:14.090     
------------------------------------------------------------------------
 total:
 * wall-time:     0 d,  0 h,  0 min,  0.642 sec
 *  cpu-time:     0 d,  0 h,  0 min,  9.124 sec
 * ratio c/w:    14.219 speedup
 SCF:
 * wall-time:     0 d,  0 h,  0 min,  0.185 sec
 *  cpu-time:     0 d,  0 h,  0 min,  2.427 sec
 * ratio c/w:    13.092 speedup
 ANC optimizer:
 * wall-time:     0 d,  0 h,  0 min,  0.415 sec
 *  cpu-time:     0 d,  0 h,  0 min,  6.187 sec
 * ratio c/w:    14.923 speedup


--- STDERR ---
normal termination of xtb
Note: The following floating-point exceptions are signalling: IEEE_UNDERFLOW_FLAG IEEE_DENORMAL
