34
 energy: -56.479119722394 gnorm: 0.000904503625 xtb: 6.7.1-6.fc44.fc44
O           -3.30763238726774        1.53222810177070       -2.89948551545600
C           -3.90206440868434        2.30626409257681       -2.01397226076688
O           -4.38283009133781        3.36996055842592       -2.28555421446017
H           -2.93381282764465        0.70245851201404       -2.48953008016245
C           -3.97302092347825        1.72479399167748       -0.58386798223993
H           -4.55185674153691        0.79334138426588       -0.64207101599700
H           -4.49533304438264        2.43643984382508        0.05457874788649
N           -2.67342250482713        1.43870615662995       -0.00865544547528
H           -2.32844036973236        1.99492029818136        0.76251014312259
C           -1.89001414940791        0.42987846240192       -0.40505458822875
O           -2.15051191857512       -0.28155649640345       -1.37011748406143
C           -0.62576975872632        0.25408032288845        0.42748168791391
H            0.18467831565740        0.72784251576051       -0.14106592741266
N           -0.75424001122190        0.97154343419273        1.68837645609151
H            0.15472938316434        1.04405283141786        2.13250413442910
H           -1.35179971761656        0.44488712892542        2.32032310676733
C           -0.29865213292171       -1.24731780392826        0.58066720606140
H           -0.32110924147442       -1.70195916283470       -0.41051737506946
H           -1.07396560190570       -1.71729156435156        1.19195788598401
C            1.03749793268029       -1.43460040479360        1.21360955674602
C            1.30329861255818       -1.74239109080267        2.51607879768447
H            0.62048572380877       -1.95312439927238        3.31833989773380
N            2.65634121243017       -1.77895272463915        2.72705144560276
H            3.10530832675418       -2.01020227394628        3.59644587066987
C            3.29496761792887       -1.49236853812807        1.55498100681193
C            4.65015591581259       -1.40889026272816        1.26049004773299
H            5.39725376450595       -1.58705680827314        2.01946246883578
C            5.00136420596577       -1.09517802694108       -0.03432396748820
H            6.04583591201552       -1.02360307100718       -0.29883849672559
C            4.03324331398017       -0.86915913217241       -1.01737309157805
H            4.35410869280359       -0.62958217148976       -2.02039274495820
C            2.68929936791088       -0.94867417352780       -0.73200640617281
H            1.94855293965462       -0.77938923420592       -1.49910811561688
C            2.30377355290538       -1.26257097691576        0.57133976239374
