34
frame_0001
O      -2.238143558000000      2.041601985500000     -0.685125845900000
C      -1.296609697100000      2.298374781400000      0.204826204900000
O      -0.441007285100000      3.120862942200000      0.026546546500000
H      -2.786917213400000      1.251482085300000     -0.429856599100000
C      -1.374549854500000      1.448851057200000      1.486651243700000
H      -2.390201212200000      1.519619845700000      1.892371322200000
H      -0.657508638100000      1.826069760200000      2.214539081100000
N      -1.078770146200000      0.052168929500000      1.213283034800000
H      -0.127820103100000     -0.255775830000000      1.358378725200000
C      -1.910050959700000     -0.733777231500000      0.506499926300000
O      -3.011689102300000     -0.349702854100000      0.124925009600000
C      -1.382625636100000     -2.130412761300000      0.191248388000000
H      -0.718518683200000     -2.459639591400000      0.996690260100000
N      -2.434246069300000     -3.111055869300000      0.029374374700000
H      -2.913890060300000     -3.269445593800000      0.909281754200000
H      -3.122495023500000     -2.756109186000000     -0.628700285500000
C      -0.579307323000000     -2.026189270100000     -1.131297912300000
H      -1.289557002900000     -1.890557257900000     -1.948719038000000
H      -0.062461067400000     -2.975057982500000     -1.280595926100000
C       0.379836230300000     -0.883785222900000     -1.112790277000000
C       0.259367915900000      0.296765118200000     -1.790297852400000
H      -0.485322464600000      0.590350997700000     -2.505187317500000
N       1.273743430700000      1.145780608200000     -1.451460421200000
H       1.341657213800000      2.107194766600000     -1.739882936600000
C       2.061182808000000      0.544071740400000     -0.516831876800000
C       3.186609981400000      1.008324373400000      0.153195391600000
H       3.569548458800000      2.000619495000000     -0.029770434700000
C       3.787631994900000      0.160069667900000      1.057236199200000
H       4.662674964200000      0.489545855700000      1.597128764600000
C       3.291613783100000     -1.126978092700000      1.289251962600000
H       3.799200117800000     -1.762582075300000      1.999821884500000
C       2.177510826800000     -1.595156482400000      0.630630258900000
H       1.807710994900000     -2.594644419000000      0.808244785600000
C       1.538969299000000     -0.753793786900000     -0.283640103900000
