34
frame_0037
O      -1.470418359200000      2.568216169900000     -0.016255327200000
C      -0.816620734900000      2.250768975400000     -1.114796205700000
O       0.093662705700000      2.895132868200000     -1.553953528700000
H      -2.159645839900000      1.884386094700000      0.219799749600000
C      -1.350282351000000      0.999988752300000     -1.847223708100000
H      -0.778826902800000      0.866347770400000     -2.765273348200000
H      -2.400768008600000      1.195960569200000     -2.096578434000000
N      -1.287736112700000     -0.226641666800000     -1.074945191400000
H      -0.521181889400000     -0.854923777100000     -1.260687375800000
C      -2.080590016600000     -0.470770724300000     -0.015655936000000
O      -2.859580844800000      0.369767794000000      0.421866222200000
C      -1.997544601100000     -1.880426775400000      0.564092454100000
H      -2.918096556800000     -2.028813328000000      1.141063893100000
N      -1.927273658300000     -2.939710430000000     -0.423483752600000
H      -1.028076796500000     -2.950744937200000     -0.891741873300000
H      -2.659696518400000     -2.846558908900000     -1.116865090400000
C      -0.798040350900000     -1.997820734400000      1.532270712400000
H      -0.791431559700000     -3.023363232600000      1.904097351600000
H      -0.960026421200000     -1.319020070500000      2.370038583200000
C       0.505417387900000     -1.683187902800000      0.878197725500000
C       1.316623992600000     -2.537392888800000      0.184887106200000
H       1.205754168500000     -3.592598052400000      0.018855297800000
N       2.400849181800000     -1.861342195800000     -0.309492137300000
H       3.169070373700000     -2.276678464600000     -0.807572057500000
C       2.320161754200000     -0.550304103200000      0.073256739900000
C       3.168123505000000      0.520307743400000     -0.181086209700000
H       4.068933345000000      0.390926361200000     -0.762781386700000
C       2.815784386200000      1.747187685000000      0.336837304200000
H       3.446947402000000      2.602849677700000      0.153917018000000
C       1.653849307500000      1.911372267300000      1.095920418100000
H       1.413417195300000      2.890396810200000      1.479265228600000
C       0.807471596200000      0.856607726400000      1.346725714900000
H      -0.090123548100000      0.994241006400000      1.931188625700000
C       1.132530165800000     -0.396339677200000      0.825193124500000
