      -----------------------------------------------------------      
     |                   =====================                   |     
     |                           x T B                           |     
     |                   =====================                   |     
     |                         S. Grimme                         |     
     |          Mulliken Center for Theoretical Chemistry        |     
     |                    University of Bonn                     |     
      -----------------------------------------------------------      

   * xtb version 6.7.1-6.fc44.fc44 compiled by Fedora project on Sun Jan 18 23:32:34 UTC 2026

   xtb is free software: you can redistribute it and/or modify it under
   the terms of the GNU Lesser General Public License as published by
   the Free Software Foundation, either version 3 of the License, or
   (at your option) any later version.
   
   xtb is distributed in the hope that it will be useful,
   but WITHOUT ANY WARRANTY; without even the implied warranty of
   MERCHANTABILITY or FITNESS FOR A PARTICULAR PURPOSE.  See the
   GNU Lesser General Public License for more details.
   
   Cite this work as:
   * C. Bannwarth, E. Caldeweyher, S. Ehlert, A. Hansen, P. Pracht,
     J. Seibert, S. Spicher, S. Grimme, WIREs Comput. Mol. Sci., 2020, 11,
     e01493. DOI: 10.1002/wcms.1493
   
   for GFN2-xTB:
   * C. Bannwarth, S. Ehlert and S. Grimme., J. Chem. Theory Comput., 2019,
     15, 1652-1671. DOI: 10.1021/acs.jctc.8b01176
   for GFN1-xTB:
   * S. Grimme, C. Bannwarth, P. Shushkov, J. Chem. Theory Comput., 2017,
     13, 1989-2009. DOI: 10.1021/acs.jctc.7b00118
   for GFN0-xTB:
   * P. Pracht, E. Caldeweyher, S. Ehlert, S. Grimme, ChemRxiv, 2019, preprint.
     DOI: 10.26434/chemrxiv.8326202.v1
   for GFN-FF:
   * S. Spicher and S. Grimme, Angew. Chem. Int. Ed., 2020, 59, 15665-15673.
     DOI: 10.1002/anie.202004239
   
   for ALPB and GBSA implicit solvation:
   * S. Ehlert, M. Stahn, S. Spicher, S. Grimme, J. Chem. Theory Comput.,
     2021, 17, 4250-4261. DOI: 10.1021/acs.jctc.1c00471
   
   for ddCOSMO and CPCM-X implicit solvation:
   * M. Stahn, S. Ehlert, S. Grimme, J. Phys. Chem. A,
     2023, XX, XXXX-XXXX. DOI: 10.1021/acs.jpca.3c04382
   
   for DFT-D4:
   * E. Caldeweyher, C. Bannwarth and S. Grimme, J. Chem. Phys., 2017,
     147, 034112. DOI: 10.1063/1.4993215
   * E. Caldeweyher, S. Ehlert, A. Hansen, H. Neugebauer, S. Spicher,
     C. Bannwarth and S. Grimme, J. Chem. Phys., 2019, 150, 154122.
     DOI: 10.1063/1.5090222
   * E. Caldeweyher, J.-M. Mewes, S. Ehlert and S. Grimme, Phys. Chem. Chem. Phys.
     2020, 22, 8499-8512. DOI: 10.1039/D0CP00502A
   
   for sTDA-xTB:
   * S. Grimme and C. Bannwarth, J. Chem. Phys., 2016, 145, 054103.
     DOI: 10.1063/1.4959605
   
   in the mass-spec context:
   * V. Asgeirsson, C. Bauer and S. Grimme, Chem. Sci., 2017, 8, 4879.
     DOI: 10.1039/c7sc00601b
   * J. Koopman and S. Grimme, ACS Omega 2019, 4, 12, 15120-15133.
     DOI: 10.1021/acsomega.9b02011
   
   for metadynamics refer to:
   * S. Grimme, J. Chem. Theory Comput., 2019, 155, 2847-2862
     DOI: 10.1021/acs.jctc.9b00143
   
   for SPH calculations refer to:
   * S. Spicher and S. Grimme, J. Chem. Theory Comput., 2021, 17, 1701-1714
     DOI: 10.1021/acs.jctc.0c01306
   
   for ONIOM refer to:
   * C. Plett, A. Katbashev, S. Ehlert, S. Grimme, M. Bursch,
     Phys. Chem. Chem. Phys., 2023, 25, 17860-17868. DOI: 10.1039/D3CP02178E
   
   for DIPRO refer to:
   * J. Kohn, N. Gildemeister, S. Grimme, D. Fazzi, A. Hansen,
     J. Chem. Phys., 2023, just accepted.
   
   for PTB refer to:
   * S. Grimme, M. Mueller, A. Hansen, J. Chem. Phys., 2023, 158, 124111.
     DOI: 10.1063/5.0137838
   
   with help from (in alphabetical order)
   P. Atkinson, C. Bannwarth, F. Bohle, G. Brandenburg, E. Caldeweyher
   M. Checinski, S. Dohm, S. Ehlert, S. Ehrlich, I. Gerasimov, C. Hölzer
   A. Katbashev, J. Kohn, J. Koopman, C. Lavigne, S. Lehtola, F. März, M. Müller,
   F. Musil, H. Neugebauer, J. Pisarek, C. Plett, P. Pracht, F. Pultar,
   J. Seibert, P. Shushkov, S. Spicher, M. Stahn, M. Steiner, T. Strunk,
   J. Stückrath, T. Rose, and J. Unsleber
   
 * started run on 2026/10/01 at 18:03:29.588     
   ID    Z sym.   atoms
    1    8 O      1, 3, 11
    2    6 C      2, 5, 10, 12, 17, 20, 21, 25, 26, 28, 30, 32, 34
    3    1 H      4, 6, 7, 9, 13, 15, 16, 18, 19, 22, 24, 27, 29, 31, 33
    4    7 N      8, 14, 23

           -------------------------------------------------
          |                Calculation Setup                |
           -------------------------------------------------

          program call               : /usr/bin/xtb input.xyz --opt --gfn 2 --chrg 0 --uhf 0
          hostname                   : fedora
          coordinate file            : input.xyz
          omp threads                :                    16


           -------------------------------------------------
          |                 G F N 2 - x T B                 |
           -------------------------------------------------

        Reference                      10.1021/acs.jctc.8b01176
      * Hamiltonian:
        H0-scaling (s, p, d)           1.850000    2.230000    2.230000
        zeta-weighting                 0.500000
      * Dispersion:
        s8                             2.700000
        a1                             0.520000
        a2                             5.000000
        s9                             5.000000
      * Repulsion:
        kExp                           1.500000    1.000000
        rExp                           1.000000
      * Coulomb:
        alpha                          2.000000
        third order                    shell-resolved
        anisotropic                    true
        a3                             3.000000
        a5                             4.000000
        cn-shift                       1.200000
        cn-exp                         4.000000
        max-rad                        5.000000


          ...................................................
          :                      SETUP                      :
          :.................................................:
          :  # basis functions                  91          :
          :  # atomic orbitals                  91          :
          :  # shells                           53          :
          :  # electrons                       100          :
          :  max. iterations                   250          :
          :  Hamiltonian                  GFN2-xTB          :
          :  restarted?                      false          :
          :  GBSA solvation                  false          :
          :  PC potential                    false          :
          :  electronic temp.          300.0000000     K    :
          :  accuracy                    1.0000000          :
          :  -> integral cutoff          0.2500000E+02      :
          :  -> integral neglect         0.1000000E-07      :
          :  -> SCF convergence          0.1000000E-05 Eh   :
          :  -> wf. convergence          0.1000000E-03 e    :
          :  Broyden damping             0.4000000          :
          :  net charge                          0          :
          :  unpaired electrons                  0          :
          ...................................................

 iter      E             dE          RMSdq      gap      omega  full diag
   1    -57.0867217 -0.570867E+02  0.410E+00    2.99       0.0  T
   2    -57.2207324 -0.134011E+00  0.241E+00    3.60       1.0  T
   3    -57.2283036 -0.757115E-02  0.132E+00    3.63       1.0  T
   4    -57.2281058  0.197815E-03  0.520E-01    3.47       1.0  T
   5    -57.2356971 -0.759130E-02  0.114E-01    3.46       1.0  T
   6    -57.2358479 -0.150877E-03  0.594E-02    3.48       1.0  T
   7    -57.2358875 -0.395966E-04  0.250E-02    3.48       1.0  T
   8    -57.2358879 -0.327021E-06  0.114E-02    3.48       1.5  T
   9    -57.2358903 -0.239772E-05  0.348E-03    3.48       4.9  T
  10    -57.2358903 -0.648338E-07  0.150E-03    3.48      11.4  T
  11    -57.2358903 -0.126201E-07  0.650E-04    3.48      26.4  T
  12    -57.2358904 -0.411815E-08  0.224E-04    3.48      76.5  T

   *** convergence criteria satisfied after 12 iterations ***

         #    Occupation            Energy/Eh            Energy/eV
      -------------------------------------------------------------
         1        2.0000           -0.7353317             -20.0094
       ...           ...                  ...                  ...
        44        2.0000           -0.4266239             -11.6090
        45        2.0000           -0.4206869             -11.4475
        46        2.0000           -0.4182913             -11.3823
        47        2.0000           -0.4043191             -11.0021
        48        2.0000           -0.3868001             -10.5254
        49        2.0000           -0.3850295             -10.4772
        50        2.0000           -0.3705996             -10.0845 (HOMO)
        51                         -0.2427332              -6.6051 (LUMO)
        52                         -0.2358251              -6.4171
        53                         -0.2305026              -6.2723
        54                         -0.2003990              -5.4531
        55                         -0.1685473              -4.5864
       ...                                ...                  ...
        91                          0.7106122              19.3367
      -------------------------------------------------------------
                  HL-Gap            0.1278663 Eh            3.4794 eV
             Fermi-level           -0.3066664 Eh           -8.3448 eV

 SCC (total)                   0 d,  0 h,  0 min,  0.456 sec
 SCC setup                      ...        0 min,  0.004 sec (  0.974%)
 Dispersion                     ...        0 min,  0.007 sec (  1.478%)
 classical contributions        ...        0 min,  0.005 sec (  1.094%)
 integral evaluation            ...        0 min,  0.016 sec (  3.412%)
 iterations                     ...        0 min,  0.374 sec ( 81.864%)
 molecular gradient             ...        0 min,  0.051 sec ( 11.074%)
 printout                       ...        0 min,  0.000 sec (  0.097%)

         :::::::::::::::::::::::::::::::::::::::::::::::::::::
         ::                     SUMMARY                     ::
         :::::::::::::::::::::::::::::::::::::::::::::::::::::
         :: total energy             -56.478268059675 Eh    ::
         :: gradient norm              0.000198553852 Eh/a0 ::
         :: HOMO-LUMO gap              3.479420135223 eV    ::
         ::.................................................::
         :: SCC energy               -57.234855945293 Eh    ::
         :: -> isotropic ES            0.097626685016 Eh    ::
         :: -> anisotropic ES          0.006486885074 Eh    ::
         :: -> anisotropic XC          0.019346493318 Eh    ::
         :: -> dispersion             -0.040007577287 Eh    ::
         :: repulsion energy           0.756587885618 Eh    ::
         :: add. restraining           0.000000000000 Eh    ::
         :: total charge               0.000000000000 e     ::
         :::::::::::::::::::::::::::::::::::::::::::::::::::::

      ----------------------------------------------------------- 
     |                   =====================                   |
     |                        A N C O P T                        |
     |                   =====================                   |
     |               Approximate Normal Coordinate               |
     |                Rational Function Optimizer                |
      ----------------------------------------------------------- 
      ----------------------------------------------------------- 
     |                   =====================                   |
     |                        A N C O P T                        |
     |                   =====================                   |
     |               Approximate Normal Coordinate               |
     |                Rational Function Optimizer                |
      ----------------------------------------------------------- 

          ...................................................
          :                      SETUP                      :
          :.................................................:
          :   optimization level            normal          :
          :   max. optcycles                   200          :
          :   ANC micro-cycles                  20          :
          :   degrees of freedom                96          :
          :.................................................:
          :   RF solver                   davidson          :
          :   write xtbopt.log                true          :
          :   linear?                        false          :
          :   energy convergence         0.5000000E-05 Eh   :
          :   grad. convergence          0.1000000E-02 Eh/α :
          :   maxmium RF displ.          1.0000000          :
          :   Hlow (freq-cutoff)         0.1000000E-01      :
          :   Hmax (freq-cutoff)         5.0000000          :
          :   S6 in model hess.         20.0000000          :
          ...................................................

generating ANC from exact Hessian ...
Using Lindh-Hessian (1995)
 Shifting diagonal of input Hessian by    9.5082271282667941E-003
 Lowest  eigenvalues of input Hessian
    0.000000    0.000000    0.000000    0.000000    0.000000    0.000000
    0.010000    0.010690    0.011222    0.011892    0.012456    0.015171
    0.016837    0.018042    0.019370    0.021971    0.024741    0.025859
 Highest eigenvalues
    1.998204    2.005457    2.089991    2.197161    2.283591    2.369921


........................................................................
.............................. CYCLE    1 ..............................
........................................................................

 iter      E             dE          RMSdq      gap      omega  full diag
   1    -57.2358904 -0.572359E+02  0.968E-05    3.48       0.0  T
   2    -57.2358904 -0.453184E-10  0.558E-05    3.48     307.1  T
   3    -57.2358904 -0.288480E-11  0.347E-05    3.48     494.9  T
     SCC iter.                  ...        0 min,  0.165 sec
     gradient                   ...        0 min,  0.034 sec
 * total energy  :   -56.4782681 Eh     change       -0.6488889E-09 Eh
   gradient norm :     0.0001975 Eh/α   predicted     0.0000000E+00 (-100.00%)
   displ. norm   :     0.0034569 α      lambda       -0.4905980E-07
   maximum displ.:     0.0022268 α      in ANC's #1, #8, #20, ...

   *** GEOMETRY OPTIMIZATION CONVERGED AFTER 1 ITERATIONS ***

------------------------------------------------------------------------
 total energy gain   :        -0.0000000 Eh       -0.0000 kcal/mol
 total RMSD          :         0.0000000 a0        0.0000 Å
 total power (kW/mol):        -0.0000017 (step)   -0.0000 (real)
------------------------------------------------------------------------

 ANCopt (total)                0 d,  0 h,  0 min,  0.233 sec
 optimizer setup                ...        0 min,  0.000 sec (  0.027%)
 model hessian                  ...        0 min,  0.011 sec (  4.731%)
 ANC generation                 ...        0 min,  0.003 sec (  1.448%)
 coordinate transformation      ...        0 min,  0.000 sec (  0.006%)
 single point calculation       ...        0 min,  0.214 sec ( 92.072%)
 optimization log               ...        0 min,  0.000 sec (  0.039%)
 hessian update                 ...        0 min,  0.000 sec (  0.000%)
 rational function              ...        0 min,  0.004 sec (  1.549%)

================
 final structure:
================
34
 xtb: 6.7.1-6.fc44.fc44
O           -1.47041835920000        2.56821616990000       -0.01625532720000
C           -0.81662073490000        2.25076897540000       -1.11479620570000
O            0.09366270570000        2.89513286820000       -1.55395352870000
H           -2.15964583990000        1.88438609470000        0.21979974960000
C           -1.35028235100000        0.99998875230000       -1.84722370810000
H           -0.77882690280000        0.86634777040000       -2.76527334820000
H           -2.40076800860000        1.19596056920000       -2.09657843400000
N           -1.28773611270000       -0.22664166680000       -1.07494519140000
H           -0.52118188940000       -0.85492377710000       -1.26068737580000
C           -2.08059001660000       -0.47077072430000       -0.01565593600000
O           -2.85958084480000        0.36976779400000        0.42186622220000
C           -1.99754460110000       -1.88042677540000        0.56409245410000
H           -2.91809655680000       -2.02881332800000        1.14106389310000
N           -1.92727365830000       -2.93971043000000       -0.42348375260000
H           -1.02807679650000       -2.95074493720000       -0.89174187330000
H           -2.65969651840000       -2.84655890890000       -1.11686509040000
C           -0.79804035090000       -1.99782073440000        1.53227071240000
H           -0.79143155970000       -3.02336323260000        1.90409735160000
H           -0.96002642120000       -1.31902007050000        2.37003858320000
C            0.50541738790000       -1.68318790280000        0.87819772550000
C            1.31662399260000       -2.53739288880000        0.18488710620000
H            1.20575416850000       -3.59259805240000        0.01885529780000
N            2.40084918180000       -1.86134219580000       -0.30949213730000
H            3.16907037370000       -2.27667846460000       -0.80757205750000
C            2.32016175420000       -0.55030410320000        0.07325673990000
C            3.16812350500000        0.52030774340000       -0.18108620970000
H            4.06893334500000        0.39092636120000       -0.76278138670000
C            2.81578438620000        1.74718768500000        0.33683730420000
H            3.44694740200000        2.60284967770000        0.15391701800000
C            1.65384930750000        1.91137226730000        1.09592041810000
H            1.41341719530000        2.89039681020000        1.47926522860000
C            0.80747159620000        0.85660772640000        1.34672571490000
H           -0.09012354810000        0.99424100640000        1.93118862570000
C            1.13253016580000       -0.39633967720000        0.82519312450000

 Bond Distances (Angstroems)
 ---------------------------
O1-C2=1.3172         O1-H4=0.9992         C2-O1=1.3172         C2-O3=1.1986         C2-C5=1.5446         O3-C2=1.1986         
H4-O1=0.9992         C5-C2=1.5446         C5-H6=1.0896         C5-H7=1.0973         C5-N8=1.4508         H6-C5=1.0896         
H7-C5=1.0973         N8-C5=1.4508         N8-H9=1.0084         N8-C10=1.3455        H9-N8=1.0084         C10-N8=1.3455        
C10-O11=1.2267       C10-C12=1.5265       O11-C10=1.2267       C12-C10=1.5265       C12-H13=1.0965       C12-N14=1.4499       
C12-C17=1.5459       H13-C12=1.0965       N14-C12=1.4499       N14-H15=1.0139       N14-H16=1.0129       H15-N14=1.0139       
H16-N14=1.0129       C17-C12=1.5459       C17-H18=1.0909       C17-H19=1.0904       C17-C20=1.4919       H18-C17=1.0909       
H19-C17=1.0904       C20-C17=1.4919       C20-C21=1.3669       C20-C34=1.4325       C21-C20=1.3669       C21-H22=1.0739       
C21-N23=1.3700       H22-C21=1.0739       N23-C21=1.3700       N23-H24=1.0054       N23-C25=1.3681       H24-N23=1.0054       
C25-N23=1.3681       C25-C26=1.3892       C25-C34=1.4141       C26-C25=1.3892       C26-H27=1.0801       C26-C28=1.3775       
H27-C26=1.0801       C28-C26=1.3775       C28-H29=1.0789       C28-C30=1.3976       H29-C28=1.0789       C30-C28=1.3976       
C30-H31=1.0785       C30-C32=1.3754       H31-C30=1.0785       C32-C30=1.3754       C32-H33=1.0799       C32-C34=1.3955       
H33-C32=1.0799       C34-C20=1.4325       C34-C25=1.4141       C34-C32=1.3955       
 C  H  Rav=1.0856 sigma=0.0079  Rmin=1.0739  Rmax=1.0973    10
 C  C  Rav=1.4381 sigma=0.0663  Rmin=1.3669  Rmax=1.5459    12
 N  H  Rav=1.0101 sigma=0.0034  Rmin=1.0054  Rmax=1.0139     4
 N  C  Rav=1.3969 sigma=0.0445  Rmin=1.3455  Rmax=1.4508     5
 O  H  Rav=0.9992 sigma=0.0000  Rmin=0.9992  Rmax=0.9992     1
 O  C  Rav=1.2475 sigma=0.0506  Rmin=1.1986  Rmax=1.3172     3

 selected bond angles (degree)
 --------------------
H4-O1-C2=111.99                O3-C2-O1=123.57                C5-C2-O1=114.78                C5-C2-O3=121.60                
H6-C5-C2=108.52                H7-C5-C2=107.09                H7-C5-H6=109.42                N8-C5-C2=114.67                
N8-C5-H6=108.79                N8-C5-H7=108.25                H9-N8-C5=117.48                C10-N8-C5=123.17               
C10-N8-H9=118.68               O11-C10-N8=122.05              C12-C10-N8=115.75              C12-C10-O11=122.13             

 selected dihedral angles (degree)
 ---------------------------------
O3-C2-O1-H4=183.35            C5-C2-O1-H4=  5.86            H6-C5-C2-O1=176.65            H6-C5-C2-O3=359.10            
H7-C5-C2-O1= 58.62            H7-C5-C2-O3=241.07            N8-C5-C2-O1=298.50            N8-C5-C2-O3=120.95            
H9-N8-C5-C2=260.24            H9-N8-C5-H6= 21.95            H9-N8-C5-H7=140.77            C10-N8-C5-C2= 70.72           
C10-N8-C5-H6=192.43           C10-N8-C5-H7=311.25           O11-C10-N8-C5=355.37          O11-C10-N8-H9=165.74          
C12-C10-N8-C5=172.54          C12-C10-N8-H9=342.92          
           -------------------------------------------------
          |                Final Singlepoint                |
           -------------------------------------------------

          ...................................................
          :                      SETUP                      :
          :.................................................:
          :  # basis functions                  91          :
          :  # atomic orbitals                  91          :
          :  # shells                           53          :
          :  # electrons                       100          :
          :  max. iterations                   250          :
          :  Hamiltonian                  GFN2-xTB          :
          :  restarted?                      false          :
          :  GBSA solvation                  false          :
          :  PC potential                    false          :
          :  electronic temp.          300.0000000     K    :
          :  accuracy                    1.0000000          :
          :  -> integral cutoff          0.2500000E+02      :
          :  -> integral neglect         0.1000000E-07      :
          :  -> SCF convergence          0.1000000E-05 Eh   :
          :  -> wf. convergence          0.1000000E-03 e    :
          :  Broyden damping             0.4000000          :
          :  net charge                          0          :
          :  unpaired electrons                  0          :
          ...................................................

 iter      E             dE          RMSdq      gap      omega  full diag
   1    -57.2358904 -0.572359E+02  0.116E-05    3.48       0.0  T
   2    -57.2358904 -0.959233E-12  0.854E-06    3.48    2007.4  T
   3    -57.2358904 -0.134293E-11  0.483E-06    3.48    3553.2  T

   *** convergence criteria satisfied after 3 iterations ***

         #    Occupation            Energy/Eh            Energy/eV
      -------------------------------------------------------------
         1        2.0000           -0.7353338             -20.0095
       ...           ...                  ...                  ...
        44        2.0000           -0.4266242             -11.6090
        45        2.0000           -0.4206865             -11.4475
        46        2.0000           -0.4182907             -11.3823
        47        2.0000           -0.4043190             -11.0021
        48        2.0000           -0.3867994             -10.5253
        49        2.0000           -0.3850294             -10.4772
        50        2.0000           -0.3705991             -10.0845 (HOMO)
        51                         -0.2427332              -6.6051 (LUMO)
        52                         -0.2358250              -6.4171
        53                         -0.2305036              -6.2723
        54                         -0.2003979              -5.4531
        55                         -0.1685469              -4.5864
       ...                                ...                  ...
        91                          0.7106125              19.3367
      -------------------------------------------------------------
                  HL-Gap            0.1278659 Eh            3.4794 eV
             Fermi-level           -0.3066662 Eh           -8.3448 eV

 SCC (total)                   0 d,  0 h,  0 min,  0.258 sec
 SCC setup                      ...        0 min,  0.003 sec (  1.115%)
 Dispersion                     ...        0 min,  0.000 sec (  0.120%)
 classical contributions        ...        0 min,  0.001 sec (  0.520%)
 integral evaluation            ...        0 min,  0.003 sec (  1.171%)
 iterations                     ...        0 min,  0.207 sec ( 80.342%)
 molecular gradient             ...        0 min,  0.043 sec ( 16.578%)
 printout                       ...        0 min,  0.000 sec (  0.147%)

         :::::::::::::::::::::::::::::::::::::::::::::::::::::
         ::                     SUMMARY                     ::
         :::::::::::::::::::::::::::::::::::::::::::::::::::::
         :: total energy             -56.478268060342 Eh    ::
         :: gradient norm              0.000197704364 Eh/a0 ::
         :: HOMO-LUMO gap              3.479407301044 eV    ::
         ::.................................................::
         :: SCC energy               -57.234855945960 Eh    ::
         :: -> isotropic ES            0.097624540940 Eh    ::
         :: -> anisotropic ES          0.006487068302 Eh    ::
         :: -> anisotropic XC          0.019346320349 Eh    ::
         :: -> dispersion             -0.040007606801 Eh    ::
         :: repulsion energy           0.756587885618 Eh    ::
         :: add. restraining           0.000000000000 Eh    ::
         :: total charge              -0.000000000000 e     ::
         :::::::::::::::::::::::::::::::::::::::::::::::::::::

           -------------------------------------------------
          |                Property Printout                |
           -------------------------------------------------

    * Orbital Energies and Occupations

         #    Occupation            Energy/Eh            Energy/eV
      -------------------------------------------------------------
         1        2.0000           -0.7353338             -20.0095
       ...           ...                  ...                  ...
        38        2.0000           -0.4644771             -12.6391
        39        2.0000           -0.4592155             -12.4959
        40        2.0000           -0.4579266             -12.4608
        41        2.0000           -0.4542674             -12.3612
        42        2.0000           -0.4508829             -12.2691
        43        2.0000           -0.4346714             -11.8280
        44        2.0000           -0.4266242             -11.6090
        45        2.0000           -0.4206865             -11.4475
        46        2.0000           -0.4182907             -11.3823
        47        2.0000           -0.4043190             -11.0021
        48        2.0000           -0.3867994             -10.5253
        49        2.0000           -0.3850294             -10.4772
        50        2.0000           -0.3705991             -10.0845 (HOMO)
        51                         -0.2427332              -6.6051 (LUMO)
        52                         -0.2358250              -6.4171
        53                         -0.2305036              -6.2723
        54                         -0.2003979              -5.4531
        55                         -0.1685469              -4.5864
        56                         -0.0752190              -2.0468
        57                         -0.0267652              -0.7283
        58                          0.0102019               0.2776
        59                          0.0308436               0.8393
        60                          0.0680858               1.8527
        61                          0.0785182               2.1366
       ...                                ...                  ...
        91                          0.7106125              19.3367
      -------------------------------------------------------------
                  HL-Gap            0.1278659 Eh            3.4794 eV
             Fermi-level           -0.3066662 Eh           -8.3448 eV

     #   Z          covCN         q      C6AA      α(0)
     1   8 O        1.655    -0.374    20.351     6.090
     2   6 C        2.684     0.358    20.930     7.487
     3   8 O        0.856    -0.380    21.285     6.185
     4   1 H        0.800     0.365     0.554     1.170
     5   6 C        3.737    -0.037    21.318     6.589
     6   1 H        0.925     0.072     2.069     2.249
     7   1 H        0.924     0.076     2.023     2.224
     8   7 N        2.685    -0.171    24.696     7.381
     9   1 H        0.860     0.183     1.195     1.713
    10   6 C        2.751     0.260    22.612     7.787
    11   8 O        0.859    -0.455    22.815     6.404
    12   6 C        3.785     0.026    20.147     6.393
    13   1 H        0.924     0.066     2.135     2.285
    14   7 N        2.631    -0.339    28.736     7.961
    15   1 H        0.860     0.143     1.453     1.888
    16   1 H        0.860     0.142     1.458     1.892
    17   6 C        3.807    -0.067    21.782     6.644
    18   1 H        0.924     0.060     2.193     2.316
    19   1 H        0.924     0.054     2.269     2.356
    20   6 C        3.052    -0.039    28.927     8.821
    21   6 C        3.025    -0.015    28.348     8.734
    22   1 H        0.926     0.031     2.574     2.509
    23   7 N        2.776    -0.113    23.458     7.193
    24   1 H        0.860     0.157     1.353     1.822
    25   6 C        3.081     0.042    26.982     8.516
    26   6 C        2.908    -0.053    29.309     8.877
    27   1 H        0.926     0.025     2.661     2.551
    28   6 C        2.925    -0.028    28.711     8.787
    29   1 H        0.926     0.038     2.479     2.462
    30   6 C        2.920    -0.032    28.805     8.801
    31   1 H        0.926     0.042     2.422     2.434
    32   6 C        2.912    -0.039    28.963     8.825
    33   1 H        0.926     0.030     2.581     2.512
    34   6 C        3.115    -0.027    28.517     8.748

 Mol. C6AA /au·bohr⁶  :      13310.182132
 Mol. C8AA /au·bohr⁸  :     312109.542240
 Mol. α(0) /au        :        178.604518


Wiberg/Mayer (AO) data.
largest (>0.10) Wiberg bond orders for each atom

 ---------------------------------------------------------------------------
     #   Z sym  total        # sym  WBO       # sym  WBO       # sym  WBO
 ---------------------------------------------------------------------------
     1   8 O    2.233 --     2 C    1.202     4 H    0.768     3 O    0.182
     2   6 C    3.931 --     3 O    1.772     1 O    1.202     5 C    0.924
     3   8 O    2.065 --     2 C    1.772     1 O    0.182
     4   1 H    0.866 --     1 O    0.768
     5   6 C    3.965 --     8 N    0.990     6 H    0.975     7 H    0.954
                             2 C    0.924
     6   1 H    0.995 --     5 C    0.975
     7   1 H    0.994 --     5 C    0.954
     8   7 N    3.455 --    10 C    1.279     5 C    0.990     9 H    0.927
                            11 O    0.186
     9   1 H    0.966 --     8 N    0.927
    10   6 C    3.938 --    11 O    1.618     8 N    1.279    12 C    0.945
    11   8 O    2.019 --    10 C    1.618     8 N    0.186
    12   6 C    3.982 --    14 N    1.021    13 H    0.956    17 C    0.953
                            10 C    0.945
    13   1 H    0.995 --    12 C    0.956
    14   7 N    3.023 --    12 C    1.021    16 H    0.965    15 H    0.956
    15   1 H    0.980 --    14 N    0.956
    16   1 H    0.980 --    14 N    0.965
    17   6 C    3.992 --    20 C    1.021    19 H    0.970    18 H    0.967
                            12 C    0.953
    18   1 H    0.995 --    17 C    0.967
    19   1 H    0.997 --    17 C    0.970
    20   6 C    3.976 --    21 C    1.573    34 C    1.196    17 C    1.021
    21   6 C    3.949 --    20 C    1.573    23 N    1.193    22 H    0.969
    22   1 H    0.998 --    21 C    0.969
    23   7 N    3.534 --    21 C    1.193    25 C    1.168    24 H    0.947
    24   1 H    0.974 --    23 N    0.947
    25   6 C    3.957 --    26 C    1.336    34 C    1.257    23 N    1.168
    26   6 C    3.989 --    28 C    1.497    25 C    1.336    27 H    0.969
                            32 C    0.116
    27   1 H    0.999 --    26 C    0.969
    28   6 C    3.991 --    26 C    1.497    30 C    1.370    29 H    0.971
    29   1 H    0.998 --    28 C    0.971
    30   6 C    3.991 --    32 C    1.509    28 C    1.370    31 H    0.971
    31   1 H    0.998 --    30 C    0.971
    32   6 C    3.992 --    30 C    1.509    34 C    1.327    33 H    0.968
                            26 C    0.116
    33   1 H    0.999 --    32 C    0.968
    34   6 C    3.984 --    32 C    1.327    25 C    1.257    20 C    1.196
 ---------------------------------------------------------------------------

Topologies differ in total number of bonds
Writing topology from bond orders to xtbtopo.mol

molecular dipole:
                 x           y           z       tot (Debye)
 q only:        0.410      -2.021      -0.556
   full:        0.585      -2.341      -0.988       6.626
molecular quadrupole (traceless):
                xx          xy          yy          xz          yz          zz
 q only:        1.730      -3.418      -6.829       2.941       5.895       5.100
  q+dip:        5.762      -6.729     -10.279       1.618      10.023       4.517
   full:        5.575      -7.184     -11.852       4.259       9.145       6.277

           -------------------------------------------------
          |                Geometry Summary                 |
           -------------------------------------------------

      molecular mass/u    :      261.2770023
   center of mass at/Å    :        0.0000000       0.0000000       0.0000000
  moments of inertia/u·Å² :        0.1056616E+04   0.1138738E+04   0.1787113E+04
rotational constants/cm⁻¹ :        0.1595437E-01   0.1480378E-01   0.9432888E-02

 * 32 selected distances

     #   Z          #   Z                                           value/Å
     1   8 O        2   6 C                                       1.3172002
     2   6 C        3   8 O                                       1.1986159
     1   8 O        4   1 H                                       0.9991898 (min)
     5   6 C        6   1 H                                       1.0896039
     5   6 C        7   1 H                                       1.0973163
     5   6 C        8   7 N                                       1.4508441
     8   7 N        9   1 H                                       1.0083869
     8   7 N       10   6 C                                       1.3454777
    10   6 C       11   8 O                                       1.2266856
    12   6 C       13   1 H                                       1.0965084
    12   6 C       14   7 N                                       1.4499404
    14   7 N       15   1 H                                       1.0138750
    14   7 N       16   1 H                                       1.0128664
    17   6 C       18   1 H                                       1.0908879
    17   6 C       19   1 H                                       1.0903509
    17   6 C       20   6 C                                       1.4919141 (max)
    20   6 C       21   6 C                                       1.3668951
    21   6 C       22   1 H                                       1.0739259
    21   6 C       23   7 N                                       1.3700365
    23   7 N       24   1 H                                       1.0053615
    23   7 N       25   6 C                                       1.3681478
    25   6 C       26   6 C                                       1.3892226
    26   6 C       27   1 H                                       1.0800775
    26   6 C       28   6 C                                       1.3775421
    28   6 C       29   1 H                                       1.0788810
    28   6 C       30   6 C                                       1.3975898
    30   6 C       31   1 H                                       1.0785407
    30   6 C       32   6 C                                       1.3754225
    32   6 C       33   1 H                                       1.0799153
    20   6 C       34   6 C                                       1.4325008
    25   6 C       34   6 C                                       1.4140660
    32   6 C       34   6 C                                       1.3955418

 * 6 distinct bonds (by element types)

   Z      Z             #   av. dist./Å        max./Å        min./Å
   1 H    6 C          10     1.0856008     1.0973163     1.0739259
   6 C    6 C           9     1.4045217     1.4919141     1.3668951
   1 H    7 N           4     1.0101225     1.0138750     1.0053615
   6 C    7 N           5     1.3968893     1.4508441     1.3454777
   1 H    8 O           1     0.9991898     0.9991898     0.9991898
   6 C    8 O           3     1.2475006     1.3172002     1.1986159


optimized geometry written to: xtbopt.xyz


           -------------------------------------------------
          | TOTAL ENERGY              -56.478268060342 Eh   |
          | GRADIENT NORM               0.000197704364 Eh/α |
          | HOMO-LUMO GAP               3.479407301044 eV   |
           -------------------------------------------------

------------------------------------------------------------------------
 * finished run on 2026/10/01 at 18:03:30.570     
------------------------------------------------------------------------
 total:
 * wall-time:     0 d,  0 h,  0 min,  0.982 sec
 *  cpu-time:     0 d,  0 h,  0 min, 13.243 sec
 * ratio c/w:    13.486 speedup
 SCF:
 * wall-time:     0 d,  0 h,  0 min,  0.457 sec
 *  cpu-time:     0 d,  0 h,  0 min,  6.117 sec
 * ratio c/w:    13.399 speedup
 ANC optimizer:
 * wall-time:     0 d,  0 h,  0 min,  0.492 sec
 *  cpu-time:     0 d,  0 h,  0 min,  6.661 sec
 * ratio c/w:    13.549 speedup


--- STDERR ---
normal termination of xtb
Note: The following floating-point exceptions are signalling: IEEE_UNDERFLOW_FLAG IEEE_DENORMAL
