34
 energy: -56.478268060342 gnorm: 0.000197704364 xtb: 6.7.1-6.fc44.fc44
O           -1.47041835920000        2.56821616990000       -0.01625532720000
C           -0.81662073490000        2.25076897540000       -1.11479620570000
O            0.09366270570000        2.89513286820000       -1.55395352870000
H           -2.15964583990000        1.88438609470000        0.21979974960000
C           -1.35028235100000        0.99998875230000       -1.84722370810000
H           -0.77882690280000        0.86634777040000       -2.76527334820000
H           -2.40076800860000        1.19596056920000       -2.09657843400000
N           -1.28773611270000       -0.22664166680000       -1.07494519140000
H           -0.52118188940000       -0.85492377710000       -1.26068737580000
C           -2.08059001660000       -0.47077072430000       -0.01565593600000
O           -2.85958084480000        0.36976779400000        0.42186622220000
C           -1.99754460110000       -1.88042677540000        0.56409245410000
H           -2.91809655680000       -2.02881332800000        1.14106389310000
N           -1.92727365830000       -2.93971043000000       -0.42348375260000
H           -1.02807679650000       -2.95074493720000       -0.89174187330000
H           -2.65969651840000       -2.84655890890000       -1.11686509040000
C           -0.79804035090000       -1.99782073440000        1.53227071240000
H           -0.79143155970000       -3.02336323260000        1.90409735160000
H           -0.96002642120000       -1.31902007050000        2.37003858320000
C            0.50541738790000       -1.68318790280000        0.87819772550000
C            1.31662399260000       -2.53739288880000        0.18488710620000
H            1.20575416850000       -3.59259805240000        0.01885529780000
N            2.40084918180000       -1.86134219580000       -0.30949213730000
H            3.16907037370000       -2.27667846460000       -0.80757205750000
C            2.32016175420000       -0.55030410320000        0.07325673990000
C            3.16812350500000        0.52030774340000       -0.18108620970000
H            4.06893334500000        0.39092636120000       -0.76278138670000
C            2.81578438620000        1.74718768500000        0.33683730420000
H            3.44694740200000        2.60284967770000        0.15391701800000
C            1.65384930750000        1.91137226730000        1.09592041810000
H            1.41341719530000        2.89039681020000        1.47926522860000
C            0.80747159620000        0.85660772640000        1.34672571490000
H           -0.09012354810000        0.99424100640000        1.93118862570000
C            1.13253016580000       -0.39633967720000        0.82519312450000
