34
frame_0025
O      -2.919699290765378      2.179778861597756     -0.731223069517288
C      -1.823313077642919      2.391162411056086     -1.260778984052106
O      -1.605726238901773      3.050606426542970     -2.320376535986736
H      -2.913312528853345      1.787573848462804     -0.084339310446824
C      -0.630574501868614      1.491689143142510     -1.030048802607217
H      -0.499282962707402      1.962425344043645      0.346906172380086
H       0.120120776540489      1.904230542366171     -1.131078845224247
N      -0.900690009580513      0.214175786110873     -0.914832251529294
H      -0.152907655011898     -0.347637500878999     -1.580087610541785
C      -1.868380813455052     -0.488515482095616      0.157864989418426
O      -2.495982185296235      0.105535090585561      0.778055933720851
C      -1.786899186755352     -1.806436725043275      0.121442370970015
H      -2.796843531574787     -2.108938770913687      0.402409862575243
N      -1.097015449332700     -2.481547523257599     -1.190752400344945
H      -0.958479150826433     -3.406217774818451     -1.211357436304568
H      -1.890300574196256     -2.249793379032209     -2.085944152150594
C      -0.504428133894748     -2.431882715366362      1.127023614464715
H      -0.156962183991130     -3.170723661265971      0.961280932007225
H      -1.378829463191487     -2.543433049381689      2.186305269932723
C       0.411224849033703     -1.242996303242433      1.550871327703293
C       0.476268882408713     -0.366626850886577      2.355280511923456
H      -0.223078113319145     -0.252683620485471      3.363876746184510
N       1.523128085131575      0.444345313721450      2.280065579460566
H       1.877529138246331      1.178819498655663      2.903969995240296
C       2.068353340803339      0.145699093565727      1.151140269908904
C       3.205502468388115      0.630960149030951      0.459480328951602
H       3.815055012749704      1.486872557840392      1.008479326040294
C       3.857506690801474     -0.005831239962480     -0.406152237055619
H       4.962428977402620      0.500403173067830     -0.956763173692216
C       3.105762597816089     -0.833637042856112     -1.141227451003253
H       3.682073985805070     -1.647685296603143     -2.036369479692564
C       1.909473177444114     -1.559733275296036     -0.687305392022258
H       1.493093956528944     -2.351712138026812     -0.976448581771772
C       1.483220418854529     -1.128403997722075      0.515628326492639
