34
 energy: -56.479345706980 gnorm: 0.000368596803 xtb: 6.7.1-6.fc44.fc44
O           -3.01076523725237        2.27943300836604       -0.81429756114823
C           -1.83494018147477        2.45233359263336       -1.38345793409435
O           -1.64969757710908        3.20831675914704       -2.29514549088179
H           -2.98483649686643        1.58675219584832       -0.09335762875306
C           -0.68516665760078        1.62973522870796       -0.76125497400378
H           -0.57740852862472        1.96144692618621        0.28035608956230
H            0.23468828201147        1.84333953637823       -1.30365445124084
N           -0.92412024542397        0.20106281441855       -0.78564334206651
H           -0.27756348596649       -0.39679236876497       -1.28401641822913
C           -1.78126472049085       -0.41545811188392        0.03458967293385
O           -2.60431070666005        0.17932130768312        0.72284626669674
C           -1.63647766061827       -1.93026396698642        0.05758989662723
H           -2.62899211828883       -2.35863751713696        0.27592419555287
N           -1.08315235166198       -2.38581773125788       -1.20955230114681
H           -0.92048728581472       -3.38664963969929       -1.17822276265259
H           -1.73656073821294       -2.20542945803759       -1.96512326064801
C           -0.68463936004400       -2.28801241853137        1.22773026116220
H           -0.24840690057757       -3.26927649249054        1.02734575876312
H           -1.27384049863711       -2.35027988697482        2.14321053668312
C            0.39327883111786       -1.27247607931466        1.42785364885259
C            0.44507992096662       -0.35307051721924        2.43483120116314
H           -0.22927217907498       -0.21754151295016        3.25861998464053
N            1.53566590649396        0.45868074078469        2.28095175760555
H            1.80634506176894        1.19647758928174        2.90813506749137
C            2.21667214890216        0.07679957895391        1.16167303290534
C            3.36833676546568        0.59785010981725        0.58542559180650
H            3.88438357910706        1.43508927636691        1.03164502368642
C            3.82467907421525        0.00864562254083       -0.57349705174971
H            4.71674303141858        0.38849204750091       -1.04859277108120
C            3.15408314533637       -1.07455994613755       -1.14907480177586
H            3.54689121598277       -1.50824613505358       -2.05687361481291
C            2.01233621445617       -1.59575844270488       -0.58374832626560
H            1.49660504107295       -2.42737352754171       -1.03772074613712
C            1.52415201887534       -1.01829168927457        0.58950129398698
