34
frame_0041
O      -0.551385994500000      2.095907257200000     -1.053100435700000
C      -1.581448193300000      2.399895902600000     -0.288669123500000
O      -1.565417727900000      3.307733858800000      0.496811556000000
H      -0.681474821900000      1.226715460600000     -1.524807167900000
C      -2.827376781700000      1.509780346000000     -0.487229372900000
H      -3.052622158400000      1.472118629400000     -1.559637537800000
H      -3.666355762400000      1.952068773900000      0.048472041800000
N      -2.618534145600000      0.155014686000000     -0.005842758200000
H      -3.051906794200000     -0.108797373400000      0.862955878500000
C      -1.785711610600000     -0.702662341000000     -0.622245506600000
O      -1.159349909000000     -0.386867278200000     -1.624104047000000
C      -1.647495341400000     -2.063525818400000      0.042725581900000
H      -2.642752231300000     -2.447508961900000      0.307622895600000
N      -1.064528939200000     -2.975392420000000     -0.909877156500000
H      -0.641104362900000     -3.772428598800000     -0.450563458900000
H      -0.360585745400000     -2.493435106600000     -1.460200946100000
C      -0.833965995100000     -1.849029009100000      1.362706297300000
H      -0.350685828400000     -2.794439740200000      1.621221893400000
H      -1.521828885500000     -1.592299260500000      2.171328152800000
C       0.180804657300000     -0.761907610200000      1.220348316200000
C       0.050359850800000      0.526572905600000      1.658651937800000
H      -0.740026631000000      0.972074191100000      2.233881609400000
N       1.132690729500000      1.267578605700000      1.282497090600000
H       1.218332780800000      2.262052752500000      1.406685589800000
C       1.981169137800000      0.477524462600000      0.565990866600000
C       3.195987295600000      0.775869747300000     -0.038179131700000
H       3.603382444700000      1.774929070400000      0.000464373900000
C       3.854502414700000     -0.244928475400000     -0.687113809500000
H       4.799269356500000     -0.047928097300000     -1.171648791900000
C       3.326843596600000     -1.538772054300000     -0.727351650400000
H       3.880027576100000     -2.313558470900000     -1.237898588700000
C       2.123906358300000     -1.841241765000000     -0.132262112900000
H       1.737146616100000     -2.849549497900000     -0.162231567400000
C       1.424222513000000     -0.824396283000000      0.518275456900000
