      -----------------------------------------------------------      
     |                   =====================                   |     
     |                           x T B                           |     
     |                   =====================                   |     
     |                         S. Grimme                         |     
     |          Mulliken Center for Theoretical Chemistry        |     
     |                    University of Bonn                     |     
      -----------------------------------------------------------      

   * xtb version 6.7.1-6.fc44.fc44 compiled by Fedora project on Sun Jan 18 23:32:34 UTC 2026

   xtb is free software: you can redistribute it and/or modify it under
   the terms of the GNU Lesser General Public License as published by
   the Free Software Foundation, either version 3 of the License, or
   (at your option) any later version.
   
   xtb is distributed in the hope that it will be useful,
   but WITHOUT ANY WARRANTY; without even the implied warranty of
   MERCHANTABILITY or FITNESS FOR A PARTICULAR PURPOSE.  See the
   GNU Lesser General Public License for more details.
   
   Cite this work as:
   * C. Bannwarth, E. Caldeweyher, S. Ehlert, A. Hansen, P. Pracht,
     J. Seibert, S. Spicher, S. Grimme, WIREs Comput. Mol. Sci., 2020, 11,
     e01493. DOI: 10.1002/wcms.1493
   
   for GFN2-xTB:
   * C. Bannwarth, S. Ehlert and S. Grimme., J. Chem. Theory Comput., 2019,
     15, 1652-1671. DOI: 10.1021/acs.jctc.8b01176
   for GFN1-xTB:
   * S. Grimme, C. Bannwarth, P. Shushkov, J. Chem. Theory Comput., 2017,
     13, 1989-2009. DOI: 10.1021/acs.jctc.7b00118
   for GFN0-xTB:
   * P. Pracht, E. Caldeweyher, S. Ehlert, S. Grimme, ChemRxiv, 2019, preprint.
     DOI: 10.26434/chemrxiv.8326202.v1
   for GFN-FF:
   * S. Spicher and S. Grimme, Angew. Chem. Int. Ed., 2020, 59, 15665-15673.
     DOI: 10.1002/anie.202004239
   
   for ALPB and GBSA implicit solvation:
   * S. Ehlert, M. Stahn, S. Spicher, S. Grimme, J. Chem. Theory Comput.,
     2021, 17, 4250-4261. DOI: 10.1021/acs.jctc.1c00471
   
   for ddCOSMO and CPCM-X implicit solvation:
   * M. Stahn, S. Ehlert, S. Grimme, J. Phys. Chem. A,
     2023, XX, XXXX-XXXX. DOI: 10.1021/acs.jpca.3c04382
   
   for DFT-D4:
   * E. Caldeweyher, C. Bannwarth and S. Grimme, J. Chem. Phys., 2017,
     147, 034112. DOI: 10.1063/1.4993215
   * E. Caldeweyher, S. Ehlert, A. Hansen, H. Neugebauer, S. Spicher,
     C. Bannwarth and S. Grimme, J. Chem. Phys., 2019, 150, 154122.
     DOI: 10.1063/1.5090222
   * E. Caldeweyher, J.-M. Mewes, S. Ehlert and S. Grimme, Phys. Chem. Chem. Phys.
     2020, 22, 8499-8512. DOI: 10.1039/D0CP00502A
   
   for sTDA-xTB:
   * S. Grimme and C. Bannwarth, J. Chem. Phys., 2016, 145, 054103.
     DOI: 10.1063/1.4959605
   
   in the mass-spec context:
   * V. Asgeirsson, C. Bauer and S. Grimme, Chem. Sci., 2017, 8, 4879.
     DOI: 10.1039/c7sc00601b
   * J. Koopman and S. Grimme, ACS Omega 2019, 4, 12, 15120-15133.
     DOI: 10.1021/acsomega.9b02011
   
   for metadynamics refer to:
   * S. Grimme, J. Chem. Theory Comput., 2019, 155, 2847-2862
     DOI: 10.1021/acs.jctc.9b00143
   
   for SPH calculations refer to:
   * S. Spicher and S. Grimme, J. Chem. Theory Comput., 2021, 17, 1701-1714
     DOI: 10.1021/acs.jctc.0c01306
   
   for ONIOM refer to:
   * C. Plett, A. Katbashev, S. Ehlert, S. Grimme, M. Bursch,
     Phys. Chem. Chem. Phys., 2023, 25, 17860-17868. DOI: 10.1039/D3CP02178E
   
   for DIPRO refer to:
   * J. Kohn, N. Gildemeister, S. Grimme, D. Fazzi, A. Hansen,
     J. Chem. Phys., 2023, just accepted.
   
   for PTB refer to:
   * S. Grimme, M. Mueller, A. Hansen, J. Chem. Phys., 2023, 158, 124111.
     DOI: 10.1063/5.0137838
   
   with help from (in alphabetical order)
   P. Atkinson, C. Bannwarth, F. Bohle, G. Brandenburg, E. Caldeweyher
   M. Checinski, S. Dohm, S. Ehlert, S. Ehrlich, I. Gerasimov, C. Hölzer
   A. Katbashev, J. Kohn, J. Koopman, C. Lavigne, S. Lehtola, F. März, M. Müller,
   F. Musil, H. Neugebauer, J. Pisarek, C. Plett, P. Pracht, F. Pultar,
   J. Seibert, P. Shushkov, S. Spicher, M. Stahn, M. Steiner, T. Strunk,
   J. Stückrath, T. Rose, and J. Unsleber
   
 * started run on 2026/10/01 at 18:03:33.318     
   ID    Z sym.   atoms
    1    8 O      1, 3, 11
    2    6 C      2, 5, 10, 12, 17, 20, 21, 25, 26, 28, 30, 32, 34
    3    1 H      4, 6, 7, 9, 13, 15, 16, 18, 19, 22, 24, 27, 29, 31, 33
    4    7 N      8, 14, 23

           -------------------------------------------------
          |                Calculation Setup                |
           -------------------------------------------------

          program call               : /usr/bin/xtb input.xyz --opt --gfn 2 --chrg 0 --uhf 0
          hostname                   : fedora
          coordinate file            : input.xyz
          omp threads                :                    16


           -------------------------------------------------
          |                 G F N 2 - x T B                 |
           -------------------------------------------------

        Reference                      10.1021/acs.jctc.8b01176
      * Hamiltonian:
        H0-scaling (s, p, d)           1.850000    2.230000    2.230000
        zeta-weighting                 0.500000
      * Dispersion:
        s8                             2.700000
        a1                             0.520000
        a2                             5.000000
        s9                             5.000000
      * Repulsion:
        kExp                           1.500000    1.000000
        rExp                           1.000000
      * Coulomb:
        alpha                          2.000000
        third order                    shell-resolved
        anisotropic                    true
        a3                             3.000000
        a5                             4.000000
        cn-shift                       1.200000
        cn-exp                         4.000000
        max-rad                        5.000000


          ...................................................
          :                      SETUP                      :
          :.................................................:
          :  # basis functions                  91          :
          :  # atomic orbitals                  91          :
          :  # shells                           53          :
          :  # electrons                       100          :
          :  max. iterations                   250          :
          :  Hamiltonian                  GFN2-xTB          :
          :  restarted?                      false          :
          :  GBSA solvation                  false          :
          :  PC potential                    false          :
          :  electronic temp.          300.0000000     K    :
          :  accuracy                    1.0000000          :
          :  -> integral cutoff          0.2500000E+02      :
          :  -> integral neglect         0.1000000E-07      :
          :  -> SCF convergence          0.1000000E-05 Eh   :
          :  -> wf. convergence          0.1000000E-03 e    :
          :  Broyden damping             0.4000000          :
          :  net charge                          0          :
          :  unpaired electrons                  0          :
          ...................................................

 iter      E             dE          RMSdq      gap      omega  full diag
   1    -57.0890213 -0.570890E+02  0.411E+00    2.98       0.0  T
   2    -57.2178040 -0.128783E+00  0.240E+00    3.19       1.0  T
   3    -57.2255619 -0.775798E-02  0.134E+00    3.49       1.0  T
   4    -57.2270950 -0.153303E-02  0.543E-01    3.13       1.0  T
   5    -57.2357400 -0.864499E-02  0.119E-01    3.13       1.0  T
   6    -57.2359269 -0.186905E-03  0.580E-02    3.13       1.0  T
   7    -57.2359603 -0.334393E-04  0.255E-02    3.12       1.0  T
   8    -57.2359609 -0.597692E-06  0.115E-02    3.12       1.5  T
   9    -57.2359632 -0.226564E-05  0.334E-03    3.12       5.1  T
  10    -57.2359632 -0.470800E-07  0.148E-03    3.12      11.6  T
  11    -57.2359632 -0.168390E-07  0.638E-04    3.12      26.9  T
  12    -57.2359632 -0.456919E-08  0.224E-04    3.12      76.7  T

   *** convergence criteria satisfied after 12 iterations ***

         #    Occupation            Energy/Eh            Energy/eV
      -------------------------------------------------------------
         1        2.0000           -0.7452364             -20.2789
       ...           ...                  ...                  ...
        44        2.0000           -0.4239410             -11.5360
        45        2.0000           -0.4149165             -11.2905
        46        2.0000           -0.4138663             -11.2619
        47        2.0000           -0.4114884             -11.1972
        48        2.0000           -0.3800196             -10.3409
        49        2.0000           -0.3789886             -10.3128
        50        2.0000           -0.3594465              -9.7810 (HOMO)
        51                         -0.2446984              -6.6586 (LUMO)
        52                         -0.2383175              -6.4849
        53                         -0.2290313              -6.2323
        54                         -0.1950926              -5.3087
        55                         -0.1602425              -4.3604
       ...                                ...                  ...
        91                          0.7202248              19.5983
      -------------------------------------------------------------
                  HL-Gap            0.1147481 Eh            3.1225 eV
             Fermi-level           -0.3020724 Eh           -8.2198 eV

 SCC (total)                   0 d,  0 h,  0 min,  0.194 sec
 SCC setup                      ...        0 min,  0.000 sec (  0.103%)
 Dispersion                     ...        0 min,  0.000 sec (  0.105%)
 classical contributions        ...        0 min,  0.000 sec (  0.027%)
 integral evaluation            ...        0 min,  0.001 sec (  0.334%)
 iterations                     ...        0 min,  0.188 sec ( 96.776%)
 molecular gradient             ...        0 min,  0.005 sec (  2.422%)
 printout                       ...        0 min,  0.000 sec (  0.225%)

         :::::::::::::::::::::::::::::::::::::::::::::::::::::
         ::                     SUMMARY                     ::
         :::::::::::::::::::::::::::::::::::::::::::::::::::::
         :: total energy             -56.477968097750 Eh    ::
         :: gradient norm              0.000236326105 Eh/a0 ::
         :: HOMO-LUMO gap              3.122453601134 eV    ::
         ::.................................................::
         :: SCC energy               -57.235085318421 Eh    ::
         :: -> isotropic ES            0.096357187098 Eh    ::
         :: -> anisotropic ES          0.006004285481 Eh    ::
         :: -> anisotropic XC          0.019291334618 Eh    ::
         :: -> dispersion             -0.039824651072 Eh    ::
         :: repulsion energy           0.757117220671 Eh    ::
         :: add. restraining           0.000000000000 Eh    ::
         :: total charge              -0.000000000000 e     ::
         :::::::::::::::::::::::::::::::::::::::::::::::::::::

      ----------------------------------------------------------- 
     |                   =====================                   |
     |                        A N C O P T                        |
     |                   =====================                   |
     |               Approximate Normal Coordinate               |
     |                Rational Function Optimizer                |
      ----------------------------------------------------------- 
      ----------------------------------------------------------- 
     |                   =====================                   |
     |                        A N C O P T                        |
     |                   =====================                   |
     |               Approximate Normal Coordinate               |
     |                Rational Function Optimizer                |
      ----------------------------------------------------------- 

          ...................................................
          :                      SETUP                      :
          :.................................................:
          :   optimization level            normal          :
          :   max. optcycles                   200          :
          :   ANC micro-cycles                  20          :
          :   degrees of freedom                96          :
          :.................................................:
          :   RF solver                   davidson          :
          :   write xtbopt.log                true          :
          :   linear?                        false          :
          :   energy convergence         0.5000000E-05 Eh   :
          :   grad. convergence          0.1000000E-02 Eh/α :
          :   maxmium RF displ.          1.0000000          :
          :   Hlow (freq-cutoff)         0.1000000E-01      :
          :   Hmax (freq-cutoff)         5.0000000          :
          :   S6 in model hess.         20.0000000          :
          ...................................................

generating ANC from exact Hessian ...
Using Lindh-Hessian (1995)
 Shifting diagonal of input Hessian by    9.6282952402243997E-003
 Lowest  eigenvalues of input Hessian
    0.000000    0.000000    0.000000    0.000000    0.000000    0.000000
    0.010000    0.010829    0.011250    0.012332    0.012869    0.014812
    0.016099    0.018801    0.019568    0.020958    0.024706    0.027028
 Highest eigenvalues
    2.000522    2.011247    2.101507    2.209925    2.303078    2.355275


........................................................................
.............................. CYCLE    1 ..............................
........................................................................

 iter      E             dE          RMSdq      gap      omega  full diag
   1    -57.2359632 -0.572360E+02  0.105E-04    3.12       0.0  T
   2    -57.2359632 -0.659455E-10  0.617E-05    3.12     278.1  T
   3    -57.2359632 -0.173728E-10  0.394E-05    3.12     435.2  T
     SCC iter.                  ...        0 min,  0.025 sec
     gradient                   ...        0 min,  0.001 sec
 * total energy  :   -56.4779681 Eh     change       -0.4611493E-09 Eh
   gradient norm :     0.0002369 Eh/α   predicted     0.0000000E+00 (-100.00%)
   displ. norm   :     0.0019931 α      lambda       -0.1064847E-06
   maximum displ.:     0.0009593 α      in ANC's #1, #19, #39, ...

   *** GEOMETRY OPTIMIZATION CONVERGED AFTER 1 ITERATIONS ***

------------------------------------------------------------------------
 total energy gain   :        -0.0000000 Eh       -0.0000 kcal/mol
 total RMSD          :         0.0000000 a0        0.0000 Å
 total power (kW/mol):        -0.0000012 (step)   -0.0000 (real)
------------------------------------------------------------------------

 ANCopt (total)                0 d,  0 h,  0 min,  0.050 sec
 optimizer setup                ...        0 min,  0.000 sec (  0.395%)
 model hessian                  ...        0 min,  0.011 sec ( 22.392%)
 ANC generation                 ...        0 min,  0.010 sec ( 20.336%)
 coordinate transformation      ...        0 min,  0.000 sec (  0.031%)
 single point calculation       ...        0 min,  0.028 sec ( 55.951%)
 optimization log               ...        0 min,  0.000 sec (  0.158%)
 hessian update                 ...        0 min,  0.000 sec (  0.001%)
 rational function              ...        0 min,  0.000 sec (  0.252%)

================
 final structure:
================
34
 xtb: 6.7.1-6.fc44.fc44
O           -0.55138599450000        2.09590725720000       -1.05310043570000
C           -1.58144819330000        2.39989590260000       -0.28866912350000
O           -1.56541772790000        3.30773385880000        0.49681155600000
H           -0.68147482190000        1.22671546060000       -1.52480716790000
C           -2.82737678170000        1.50978034600000       -0.48722937290000
H           -3.05262215840000        1.47211862940000       -1.55963753780000
H           -3.66635576240000        1.95206877390000        0.04847204180000
N           -2.61853414560000        0.15501468600000       -0.00584275820000
H           -3.05190679420000       -0.10879737340000        0.86295587850000
C           -1.78571161060000       -0.70266234100000       -0.62224550660000
O           -1.15934990900000       -0.38686727820000       -1.62410404700000
C           -1.64749534140000       -2.06352581840000        0.04272558190000
H           -2.64275223130000       -2.44750896190000        0.30762289560000
N           -1.06452893920000       -2.97539242000000       -0.90987715650000
H           -0.64110436290000       -3.77242859880000       -0.45056345890000
H           -0.36058574540000       -2.49343510660000       -1.46020094610000
C           -0.83396599510000       -1.84902900910000        1.36270629730000
H           -0.35068582840000       -2.79443974020000        1.62122189340000
H           -1.52182888550000       -1.59229926050000        2.17132815280000
C            0.18080465730000       -0.76190761020000        1.22034831620000
C            0.05035985080000        0.52657290560000        1.65865193780000
H           -0.74002663100000        0.97207419110000        2.23388160940000
N            1.13269072950000        1.26757860570000        1.28249709060000
H            1.21833278080000        2.26205275250000        1.40668558980000
C            1.98116913780000        0.47752446260000        0.56599086660000
C            3.19598729560000        0.77586974730000       -0.03817913170000
H            3.60338244470000        1.77492907040000        0.00046437390000
C            3.85450241470000       -0.24492847540000       -0.68711380950000
H            4.79926935650000       -0.04792809730000       -1.17164879190000
C            3.32684359660000       -1.53877205430000       -0.72735165040000
H            3.88002757610000       -2.31355847090000       -1.23789858870000
C            2.12390635830000       -1.84124176500000       -0.13226211290000
H            1.73714661610000       -2.84954949790000       -0.16223156740000
C            1.42422251300000       -0.82439628300000        0.51827545690000

 Bond Distances (Angstroems)
 ---------------------------
O1-C2=1.3183         O1-H4=0.9975         C2-O1=1.3183         C2-O3=1.2006         C2-C5=1.5440         O3-C2=1.2006         
H4-O1=0.9975         C5-C2=1.5440         C5-H6=1.0965         C5-H7=1.0893         C5-N8=1.4528         H6-C5=1.0965         
H7-C5=1.0893         N8-C5=1.4528         N8-H9=1.0061         N8-C10=1.3450        H9-N8=1.0061         C10-N8=1.3450        
C10-O11=1.2230       C10-C12=1.5209       O11-C10=1.2230       C12-C10=1.5209       C12-H13=1.0992       C12-N14=1.4418       
C12-C17=1.5653       H13-C12=1.0992       N14-C12=1.4418       N14-H15=1.0127       N14-H16=1.0152       H15-N14=1.0127       
H16-N14=1.0152       C17-C12=1.5653       C17-H18=1.0928       C17-H19=1.0922       C17-C20=1.4939       H18-C17=1.0928       
H19-C17=1.0922       C20-C17=1.4939       C20-C21=1.3672       C20-C34=1.4293       C21-C20=1.3672       C21-H22=1.0743       
C21-N23=1.3646       H22-C21=1.0743       N23-C21=1.3646       N23-H24=1.0059       N23-C25=1.3629       H24-N23=1.0059       
C25-N23=1.3629       C25-C26=1.3892       C25-C34=1.4169       C26-C25=1.3892       C26-H27=1.0796       C26-C28=1.3772       
H27-C26=1.0796       C28-C26=1.3772       C28-H29=1.0799       C28-C30=1.3979       H29-C28=1.0799       C30-C28=1.3979       
C30-H31=1.0803       C30-C32=1.3757       H31-C30=1.0803       C32-C30=1.3757       C32-H33=1.0804       C32-C34=1.3953       
H33-C32=1.0804       C34-C20=1.4293       C34-C25=1.4169       C34-C32=1.3953       
 C  H  Rav=1.0864 sigma=0.0081  Rmin=1.0743  Rmax=1.0992    10
 C  C  Rav=1.4394 sigma=0.0685  Rmin=1.3672  Rmax=1.5653    12
 N  H  Rav=1.0100 sigma=0.0041  Rmin=1.0059  Rmax=1.0152     4
 N  C  Rav=1.3934 sigma=0.0447  Rmin=1.3450  Rmax=1.4528     5
 O  H  Rav=0.9975 sigma=0.0000  Rmin=0.9975  Rmax=0.9975     1
 O  C  Rav=1.2473 sigma=0.0510  Rmin=1.2006  Rmax=1.3183     3

 selected bond angles (degree)
 --------------------
H4-O1-C2=111.92                O3-C2-O1=122.91                C5-C2-O1=115.02                C5-C2-O3=122.06                
H6-C5-C2=108.14                H7-C5-C2=108.92                H7-C5-H6=109.68                N8-C5-C2=112.27                
N8-C5-H6=108.76                N8-C5-H7=109.05                H9-N8-C5=117.95                C10-N8-C5=122.13               
C10-N8-H9=119.69               O11-C10-N8=121.86              C12-C10-N8=115.24              C12-C10-O11=122.86             

 selected dihedral angles (degree)
 ---------------------------------
O3-C2-O1-H4=170.10            C5-C2-O1-H4=349.41            H6-C5-C2-O1=309.37            H6-C5-C2-O3=128.68            
H7-C5-C2-O1=190.24            H7-C5-C2-O3=  9.55            N8-C5-C2-O1= 69.36            N8-C5-C2-O3=248.67            
H9-N8-C5-C2=104.89            H9-N8-C5-H6=224.52            H9-N8-C5-H7=344.09            C10-N8-C5-C2=290.51           
C10-N8-C5-H6= 50.14           C10-N8-C5-H7=169.71           O11-C10-N8-C5=359.93          O11-C10-N8-H9=185.65          
C12-C10-N8-C5=177.91          C12-C10-N8-H9=  3.63          
           -------------------------------------------------
          |                Final Singlepoint                |
           -------------------------------------------------

          ...................................................
          :                      SETUP                      :
          :.................................................:
          :  # basis functions                  91          :
          :  # atomic orbitals                  91          :
          :  # shells                           53          :
          :  # electrons                       100          :
          :  max. iterations                   250          :
          :  Hamiltonian                  GFN2-xTB          :
          :  restarted?                      false          :
          :  GBSA solvation                  false          :
          :  PC potential                    false          :
          :  electronic temp.          300.0000000     K    :
          :  accuracy                    1.0000000          :
          :  -> integral cutoff          0.2500000E+02      :
          :  -> integral neglect         0.1000000E-07      :
          :  -> SCF convergence          0.1000000E-05 Eh   :
          :  -> wf. convergence          0.1000000E-03 e    :
          :  Broyden damping             0.4000000          :
          :  net charge                          0          :
          :  unpaired electrons                  0          :
          ...................................................

 iter      E             dE          RMSdq      gap      omega  full diag
   1    -57.2359632 -0.572360E+02  0.119E-05    3.12       0.0  T
   2    -57.2359632 -0.632383E-12  0.832E-06    3.12    2060.9  T
   3    -57.2359632 -0.103029E-11  0.510E-06    3.12    3362.6  T

   *** convergence criteria satisfied after 3 iterations ***

         #    Occupation            Energy/Eh            Energy/eV
      -------------------------------------------------------------
         1        2.0000           -0.7452373             -20.2789
       ...           ...                  ...                  ...
        44        2.0000           -0.4239407             -11.5360
        45        2.0000           -0.4149161             -11.2904
        46        2.0000           -0.4138659             -11.2619
        47        2.0000           -0.4114880             -11.1972
        48        2.0000           -0.3800191             -10.3408
        49        2.0000           -0.3789892             -10.3128
        50        2.0000           -0.3594464              -9.7810 (HOMO)
        51                         -0.2446987              -6.6586 (LUMO)
        52                         -0.2383173              -6.4849
        53                         -0.2290309              -6.2322
        54                         -0.1950919              -5.3087
        55                         -0.1602421              -4.3604
       ...                                ...                  ...
        91                          0.7202250              19.5983
      -------------------------------------------------------------
                  HL-Gap            0.1147477 Eh            3.1224 eV
             Fermi-level           -0.3020725 Eh           -8.2198 eV

 SCC (total)                   0 d,  0 h,  0 min,  0.075 sec
 SCC setup                      ...        0 min,  0.001 sec (  0.746%)
 Dispersion                     ...        0 min,  0.000 sec (  0.237%)
 classical contributions        ...        0 min,  0.007 sec (  9.787%)
 integral evaluation            ...        0 min,  0.003 sec (  3.533%)
 iterations                     ...        0 min,  0.039 sec ( 51.986%)
 molecular gradient             ...        0 min,  0.025 sec ( 33.184%)
 printout                       ...        0 min,  0.000 sec (  0.499%)

         :::::::::::::::::::::::::::::::::::::::::::::::::::::
         ::                     SUMMARY                     ::
         :::::::::::::::::::::::::::::::::::::::::::::::::::::
         :: total energy             -56.477968098232 Eh    ::
         :: gradient norm              0.000237040749 Eh/a0 ::
         :: HOMO-LUMO gap              3.122443674134 eV    ::
         ::.................................................::
         :: SCC energy               -57.235085318902 Eh    ::
         :: -> isotropic ES            0.096356425519 Eh    ::
         :: -> anisotropic ES          0.006004404815 Eh    ::
         :: -> anisotropic XC          0.019291207839 Eh    ::
         :: -> dispersion             -0.039824674838 Eh    ::
         :: repulsion energy           0.757117220671 Eh    ::
         :: add. restraining           0.000000000000 Eh    ::
         :: total charge              -0.000000000000 e     ::
         :::::::::::::::::::::::::::::::::::::::::::::::::::::

           -------------------------------------------------
          |                Property Printout                |
           -------------------------------------------------

    * Orbital Energies and Occupations

         #    Occupation            Energy/Eh            Energy/eV
      -------------------------------------------------------------
         1        2.0000           -0.7452373             -20.2789
       ...           ...                  ...                  ...
        38        2.0000           -0.4735666             -12.8864
        39        2.0000           -0.4644436             -12.6382
        40        2.0000           -0.4560776             -12.4105
        41        2.0000           -0.4521394             -12.3033
        42        2.0000           -0.4509378             -12.2706
        43        2.0000           -0.4263131             -11.6006
        44        2.0000           -0.4239407             -11.5360
        45        2.0000           -0.4149161             -11.2904
        46        2.0000           -0.4138659             -11.2619
        47        2.0000           -0.4114880             -11.1972
        48        2.0000           -0.3800191             -10.3408
        49        2.0000           -0.3789892             -10.3128
        50        2.0000           -0.3594464              -9.7810 (HOMO)
        51                         -0.2446987              -6.6586 (LUMO)
        52                         -0.2383173              -6.4849
        53                         -0.2290309              -6.2322
        54                         -0.1950919              -5.3087
        55                         -0.1602421              -4.3604
        56                         -0.0700342              -1.9057
        57                         -0.0256953              -0.6992
        58                          0.0284659               0.7746
        59                          0.0428252               1.1653
        60                          0.0540436               1.4706
        61                          0.0700089               1.9050
       ...                                ...                  ...
        91                          0.7202250              19.5983
      -------------------------------------------------------------
                  HL-Gap            0.1147477 Eh            3.1224 eV
             Fermi-level           -0.3020725 Eh           -8.2198 eV

     #   Z          covCN         q      C6AA      α(0)
     1   8 O        1.655    -0.376    20.394     6.096
     2   6 C        2.685     0.358    20.920     7.485
     3   8 O        0.856    -0.385    21.380     6.199
     4   1 H        0.800     0.367     0.551     1.166
     5   6 C        3.738    -0.038    21.337     6.591
     6   1 H        0.924     0.079     1.990     2.206
     7   1 H        0.925     0.077     2.014     2.219
     8   7 N        2.686    -0.170    24.689     7.380
     9   1 H        0.860     0.182     1.205     1.719
    10   6 C        2.761     0.275    22.349     7.742
    11   8 O        0.859    -0.442    22.528     6.364
    12   6 C        3.784     0.032    20.057     6.379
    13   1 H        0.923     0.038     2.481     2.463
    14   7 N        2.634    -0.339    28.733     7.961
    15   1 H        0.860     0.145     1.432     1.875
    16   1 H        0.860     0.171     1.266     1.763
    17   6 C        3.804    -0.067    21.775     6.643
    18   1 H        0.924     0.048     2.345     2.395
    19   1 H        0.924     0.027     2.633     2.537
    20   6 C        3.056    -0.043    29.007     8.833
    21   6 C        3.039    -0.011    28.259     8.719
    22   1 H        0.926     0.025     2.662     2.551
    23   7 N        2.777    -0.097    23.129     7.143
    24   1 H        0.860     0.173     1.257     1.756
    25   6 C        3.094     0.048    26.825     8.489
    26   6 C        2.909    -0.050    29.237     8.866
    27   1 H        0.926     0.028     2.616     2.529
    28   6 C        2.925    -0.035    28.880     8.813
    29   1 H        0.926     0.028     2.611     2.527
    30   6 C        2.920    -0.042    29.036     8.836
    31   1 H        0.926     0.025     2.654     2.548
    32   6 C        2.912    -0.037    28.914     8.817
    33   1 H        0.926     0.023     2.687     2.563
    34   6 C        3.116    -0.016    28.253     8.707

 Mol. C6AA /au·bohr⁶  :      13350.762743
 Mol. C8AA /au·bohr⁸  :     312616.573081
 Mol. α(0) /au        :        178.881161


Wiberg/Mayer (AO) data.
largest (>0.10) Wiberg bond orders for each atom

 ---------------------------------------------------------------------------
     #   Z sym  total        # sym  WBO       # sym  WBO       # sym  WBO
 ---------------------------------------------------------------------------
     1   8 O    2.231 --     2 C    1.201     4 H    0.769     3 O    0.181
     2   6 C    3.930 --     3 O    1.766     1 O    1.201     5 C    0.927
     3   8 O    2.056 --     2 C    1.766     1 O    0.181
     4   1 H    0.865 --     1 O    0.769
     5   6 C    3.963 --     8 N    0.987     7 H    0.974     6 H    0.956
                             2 C    0.927
     6   1 H    0.994 --     5 C    0.956
     7   1 H    0.994 --     5 C    0.974
     8   7 N    3.451 --    10 C    1.274     5 C    0.987     9 H    0.939
                            11 O    0.184
     9   1 H    0.967 --     8 N    0.939
    10   6 C    3.941 --    11 O    1.629     8 N    1.274    12 C    0.954
    11   8 O    2.032 --    10 C    1.629     8 N    0.184
    12   6 C    3.989 --    14 N    1.040    10 C    0.954    13 H    0.953
                            17 C    0.932
    13   1 H    0.998 --    12 C    0.953
    14   7 N    3.022 --    12 C    1.040    15 H    0.960    16 H    0.948
    15   1 H    0.978 --    14 N    0.960
    16   1 H    0.971 --    14 N    0.948
    17   6 C    3.995 --    20 C    1.018    19 H    0.976    18 H    0.966
                            12 C    0.932
    18   1 H    0.997 --    17 C    0.966
    19   1 H    0.999 --    17 C    0.976
    20   6 C    3.972 --    21 C    1.567    34 C    1.206    17 C    1.018
    21   6 C    3.952 --    20 C    1.567    23 N    1.208    22 H    0.969
    22   1 H    0.999 --    21 C    0.969
    23   7 N    3.556 --    21 C    1.208    25 C    1.182    24 H    0.942
    24   1 H    0.969 --    23 N    0.942
    25   6 C    3.959 --    26 C    1.336    34 C    1.246    23 N    1.182
    26   6 C    3.989 --    28 C    1.497    25 C    1.336    27 H    0.968
                            32 C    0.114
    27   1 H    0.999 --    26 C    0.968
    28   6 C    3.991 --    26 C    1.497    30 C    1.369    29 H    0.972
    29   1 H    0.999 --    28 C    0.972
    30   6 C    3.991 --    32 C    1.506    28 C    1.369    31 H    0.972
    31   1 H    0.999 --    30 C    0.972
    32   6 C    3.992 --    30 C    1.506    34 C    1.330    33 H    0.967
                            26 C    0.114
    33   1 H    0.999 --    32 C    0.967
    34   6 C    3.984 --    32 C    1.330    25 C    1.246    20 C    1.206
 ---------------------------------------------------------------------------

Topologies differ in total number of bonds
Writing topology from bond orders to xtbtopo.mol

molecular dipole:
                 x           y           z       tot (Debye)
 q only:       -0.848      -0.771       0.587
   full:       -0.939      -0.799       0.932       3.928
molecular quadrupole (traceless):
                xx          xy          yy          xz          yz          zz
 q only:       10.661       3.082      -8.960      -1.452      -4.058      -1.701
  q+dip:       13.638       2.977      -9.535      -5.519      -5.386      -4.103
   full:       13.078       2.413     -10.715      -3.384      -6.564      -2.363

           -------------------------------------------------
          |                Geometry Summary                 |
           -------------------------------------------------

      molecular mass/u    :      261.2770023
   center of mass at/Å    :        0.0000000       0.0000000       0.0000000
  moments of inertia/u·Å² :        0.9137695E+03   0.1347207E+04   0.1819833E+04
rotational constants/cm⁻¹ :        0.1844845E-01   0.1251302E-01   0.9263286E-02

 * 31 selected distances

     #   Z          #   Z                                           value/Å
     1   8 O        2   6 C                                       1.3182537
     2   6 C        3   8 O                                       1.2005861
     1   8 O        4   1 H                                       0.9974592 (min)
     5   6 C        6   1 H                                       1.0964549
     5   6 C        7   1 H                                       1.0892571
     5   6 C        8   7 N                                       1.4528382 (max)
     8   7 N        9   1 H                                       1.0060914
     8   7 N       10   6 C                                       1.3450487
    10   6 C       11   8 O                                       1.2230193
    12   6 C       13   1 H                                       1.0991588
    12   6 C       14   7 N                                       1.4418054
    14   7 N       15   1 H                                       1.0126817
    14   7 N       16   1 H                                       1.0152218
    17   6 C       18   1 H                                       1.0927908
    17   6 C       19   1 H                                       1.0922157
    20   6 C       21   6 C                                       1.3672265
    21   6 C       22   1 H                                       1.0742772
    21   6 C       23   7 N                                       1.3645594
    23   7 N       24   1 H                                       1.0058511
    23   7 N       25   6 C                                       1.3628950
    25   6 C       26   6 C                                       1.3891777
    26   6 C       27   1 H                                       1.0796221
    26   6 C       28   6 C                                       1.3772392
    28   6 C       29   1 H                                       1.0798926
    28   6 C       30   6 C                                       1.3978821
    30   6 C       31   1 H                                       1.0802615
    30   6 C       32   6 C                                       1.3757463
    32   6 C       33   1 H                                       1.0803546
    20   6 C       34   6 C                                       1.4293003
    25   6 C       34   6 C                                       1.4168501
    32   6 C       34   6 C                                       1.3952533

 * 6 distinct bonds (by element types)

   Z      Z             #   av. dist./Å        max./Å        min./Å
   1 H    6 C          10     1.0864285     1.0991588     1.0742772
   6 C    6 C           8     1.3935844     1.4293003     1.3672265
   1 H    7 N           4     1.0099615     1.0152218     1.0058511
   6 C    7 N           5     1.3934293     1.4528382     1.3450487
   1 H    8 O           1     0.9974592     0.9974592     0.9974592
   6 C    8 O           3     1.2472864     1.3182537     1.2005861


optimized geometry written to: xtbopt.xyz


           -------------------------------------------------
          | TOTAL ENERGY              -56.477968098232 Eh   |
          | GRADIENT NORM               0.000237040749 Eh/α |
          | HOMO-LUMO GAP               3.122443674134 eV   |
           -------------------------------------------------

------------------------------------------------------------------------
 * finished run on 2026/10/01 at 18:03:33.648     
------------------------------------------------------------------------
 total:
 * wall-time:     0 d,  0 h,  0 min,  0.330 sec
 *  cpu-time:     0 d,  0 h,  0 min,  4.557 sec
 * ratio c/w:    13.804 speedup
 SCF:
 * wall-time:     0 d,  0 h,  0 min,  0.194 sec
 *  cpu-time:     0 d,  0 h,  0 min,  2.727 sec
 * ratio c/w:    14.038 speedup
 ANC optimizer:
 * wall-time:     0 d,  0 h,  0 min,  0.127 sec
 *  cpu-time:     0 d,  0 h,  0 min,  1.707 sec
 * ratio c/w:    13.491 speedup


--- STDERR ---
normal termination of xtb
Note: The following floating-point exceptions are signalling: IEEE_UNDERFLOW_FLAG IEEE_DENORMAL
