34
 energy: -56.477968098232 gnorm: 0.000237040749 xtb: 6.7.1-6.fc44.fc44
O           -0.55138599450000        2.09590725720000       -1.05310043570000
C           -1.58144819330000        2.39989590260000       -0.28866912350000
O           -1.56541772790000        3.30773385880000        0.49681155600000
H           -0.68147482190000        1.22671546060000       -1.52480716790000
C           -2.82737678170000        1.50978034600000       -0.48722937290000
H           -3.05262215840000        1.47211862940000       -1.55963753780000
H           -3.66635576240000        1.95206877390000        0.04847204180000
N           -2.61853414560000        0.15501468600000       -0.00584275820000
H           -3.05190679420000       -0.10879737340000        0.86295587850000
C           -1.78571161060000       -0.70266234100000       -0.62224550660000
O           -1.15934990900000       -0.38686727820000       -1.62410404700000
C           -1.64749534140000       -2.06352581840000        0.04272558190000
H           -2.64275223130000       -2.44750896190000        0.30762289560000
N           -1.06452893920000       -2.97539242000000       -0.90987715650000
H           -0.64110436290000       -3.77242859880000       -0.45056345890000
H           -0.36058574540000       -2.49343510660000       -1.46020094610000
C           -0.83396599510000       -1.84902900910000        1.36270629730000
H           -0.35068582840000       -2.79443974020000        1.62122189340000
H           -1.52182888550000       -1.59229926050000        2.17132815280000
C            0.18080465730000       -0.76190761020000        1.22034831620000
C            0.05035985080000        0.52657290560000        1.65865193780000
H           -0.74002663100000        0.97207419110000        2.23388160940000
N            1.13269072950000        1.26757860570000        1.28249709060000
H            1.21833278080000        2.26205275250000        1.40668558980000
C            1.98116913780000        0.47752446260000        0.56599086660000
C            3.19598729560000        0.77586974730000       -0.03817913170000
H            3.60338244470000        1.77492907040000        0.00046437390000
C            3.85450241470000       -0.24492847540000       -0.68711380950000
H            4.79926935650000       -0.04792809730000       -1.17164879190000
C            3.32684359660000       -1.53877205430000       -0.72735165040000
H            3.88002757610000       -2.31355847090000       -1.23789858870000
C            2.12390635830000       -1.84124176500000       -0.13226211290000
H            1.73714661610000       -2.84954949790000       -0.16223156740000
C            1.42422251300000       -0.82439628300000        0.51827545690000
