34
frame_0009
O      -0.816813041800000      2.178910776800000      0.709481913400000
C      -1.723049737800000      2.341811417100000     -0.233251184300000
O      -1.658533171800000      3.212252323700000     -1.057179855600000
H      -0.949989905600000      1.329368442700000      1.219212918200000
C      -2.898447956200000      1.340305114300000     -0.193340475500000
H      -3.642200444600000      1.643589580000000     -0.928876327300000
H      -3.337337208000000      1.378803944500000      0.811913704000000
N      -2.468588885000000     -0.014077412800000     -0.480177499200000
H      -2.787250885800000     -0.470605591200000     -1.320866399600000
C      -1.703901752100000     -0.730612499100000      0.352729885000000
O      -1.288524945600000     -0.294997111200000      1.419734767200000
C      -1.366959465500000     -2.119230524200000     -0.168997231500000
H      -0.931217434100000     -2.680913729300000      0.671699969300000
N      -2.566857585700000     -2.722853782000000     -0.736466194200000
H      -3.247772542900000     -2.913311222500000     -0.008099869000000
H      -2.334547714700000     -3.607448464000000     -1.175909332000000
C      -0.308028886400000     -1.953006079000000     -1.285338506500000
H      -0.833431179900000     -1.750470557200000     -2.221004183800000
H       0.245993675900000     -2.887584026900000     -1.395368971500000
C       0.621802566500000     -0.823325079700000     -0.982489406700000
C       0.589114131600000      0.428963881900000     -1.527700741400000
H      -0.045848792600000      0.816019480100000     -2.302785809500000
N       1.540740831200000      1.220006084600000     -0.951641642200000
H       1.652157403100000      2.204283441900000     -1.124987580700000
C       2.195339438300000      0.500315125900000      0.003848726500000
C       3.223507436500000      0.865160117800000      0.863784370500000
H       3.626773865000000      1.866768513500000      0.854034208900000
C       3.702146924200000     -0.093902444500000      1.728916473200000
H       4.498799914600000      0.155860674900000      2.414077468200000
C       3.177607164500000     -1.389717257300000      1.740382887800000
H       3.584208296800000     -2.111273937200000      2.434034853500000
C       2.159415521500000     -1.758024190700000      0.891691370200000
H       1.762156937900000     -2.762356202900000      0.907825553800000
C       1.650639061300000     -0.806773407500000      0.008102519200000
