68
 energy: -106.565287538460 gnorm: 0.000548901107 xtb: 6.7.1-6.fc44.fc44
O            2.12242707130205       -1.51295450665093        1.32370605885764
O           -1.20564581642491       -4.15575010454264        1.53933159020185
O           -0.62146263653746        0.04924176870827       -0.71188541671211
O           -1.05508396441620        2.95508617208680       -2.63611336393835
O           -2.13895553846634        1.38777682725267        1.77379811947179
O            1.82290590030228        2.85644359207219        0.29231759197070
N            0.44538351249014       -3.42828180141486        0.21679987219614
N           -2.02379295803808       -1.28837456146623        0.43226911557120
N           -2.48677610253855        1.34043593031468       -2.05500702204944
N           -0.92162095415765        2.78457608140723        0.48522438478948
N            1.28104467696206        1.15125951719681        1.68807931986208
N            2.32076383453132       -0.35261761326062       -0.58319191182138
C            1.90399885063048       -1.41032564682421        0.11892207210465
C            1.13809667012330       -2.48800251499268       -0.65209506469010
C            2.09454775298230       -3.37116391889481       -1.47589825142487
C            1.44711308912740       -4.75200035567160       -1.43558852633091
C            0.88776502218634       -4.79496500912984       -0.02314668397299
C           -0.60412283398297       -3.22318080247952        1.03680006584809
C           -1.00350500801191       -1.77188456528153        1.34875248385667
C           -1.52186889610068       -1.69069252188777        2.77973254676944
C           -1.75533052259710       -0.30215025142725       -0.43201635402805
C           -2.96980850786342        0.36286221164936       -1.10533578771299
C           -3.85756185973841       -0.64465728278332       -1.83049586916608
C           -1.76924077301344        2.46405291098063       -1.78811987806446
C           -1.98865560710504        3.14172960306359       -0.42614635038146
C           -2.00078731108976        4.65596083644176       -0.61897399329169
C           -1.08225259478298        1.94071314765491        1.50503165630358
C            0.16001381871165        1.75197692123311        2.39852610675813
C            0.54658760239319        3.07822283360918        3.05684398360672
C            1.97399126406047        1.71350472535732        0.69182142434722
C            3.01191375898569        0.75972231170563        0.06507113722671
C            3.74284152682321        1.44024229724167       -1.08467750837720
C            2.74143604475339        1.28984044689776       -2.22752368548356
C            2.14945792075763       -0.10233089608121       -2.00398300778362
H            0.41075145618858       -1.98540904190709       -1.29914374296857
H            2.22199165985279       -3.00472879366309       -2.49182119783854
H            3.06957324177061       -3.40479964892835       -0.98649022563610
H            0.63786092924230       -4.81136497311696       -2.16484530131017
H            2.15610002735054       -5.55308713074471       -1.63076015091884
H            0.04407599797974       -5.47375802871911        0.10518750378560
H            1.66450074704492       -5.05747269906538        0.70293910284157
H           -2.97687510505584       -1.46337344160859        0.71010077508981
H           -0.14602129307068       -1.11465211521379        1.21645261167903
H           -2.28209136859188       -2.45257097702166        2.93724714507165
H           -1.94362897992273       -0.70420568974162        2.95805229057399
H           -0.70657409936043       -1.87272201382083        3.47473655148510
H           -2.23469572252714        0.94162127575510       -2.95315555433760
H           -3.53885518398828        0.86302328013020       -0.31484132405092
H           -4.30036881690046       -1.34995598737306       -1.13311365377403
H           -3.27859123646176       -1.20199796755345       -2.56503361690997
H           -4.65902380750067       -0.11994137919303       -2.34551473707216
H            0.01377339919122        3.12026236566593        0.26046289185064
H           -2.92582678419977        2.80633323205327        0.02683539239177
H           -2.07151722977499        5.15412677140581        0.34450846694850
H           -2.84772751757920        4.94639053071872       -1.23480200969111
H           -1.08687225704104        4.96341296788138       -1.12060246230473
H            1.52230036420969        0.19391214205143        1.92592739188086
H           -0.13016116657903        1.03843608341963        3.17547038890917
H            1.34208014677667        2.91041169676699        3.77953864140811
H           -0.31524573474490        3.49456325049464        3.57210848955519
H            0.89568046768906        3.78905506835662        2.31406627588585
H            3.66962454959405        0.37318728219996        0.85016309952256
H            4.67488661017534        0.91845929357936       -1.30463398240273
H            3.95209492935775        2.48252421646717       -0.85708778189264
H            3.20310134363895        1.38379657162650       -3.20800918412333
H            1.96314442116892        2.04547924379830       -2.13221366852582
H            1.09261678052020       -0.13347977578553       -2.27117029247454
H            2.69777740574023       -0.85455173420889       -2.57930093955514
