34
frame_0063
O       0.025061471600000      3.211737123300000     -0.660023954600000
C      -0.499818282000000      2.039448389600000     -1.031126974200000
O      -0.065755081200000      1.422911892700000     -1.960916677700000
H      -0.373783110900000      3.566472201200000      0.145683245800000
C      -1.709708507800000      1.578756714300000     -0.225006076800000
H      -2.567793528300000      2.206603477100000     -0.508375703800000
H      -1.537070531100000      1.681139472500000      0.852633212500000
N      -1.967668882700000      0.191853073800000     -0.491827887100000
H      -1.777706758200000     -0.132859847400000     -1.428962100100000
C      -2.083295936900000     -0.715598031600000      0.499083854400000
O      -2.281470368100000     -0.405999895600000      1.656543102800000
C      -1.900235114700000     -2.167795787500000      0.063282743100000
H      -2.703911926900000     -2.753662164000000      0.519402272400000
N      -1.972760666700000     -2.313495837000000     -1.379314905300000
H      -2.158502902400000     -3.279249055800000     -1.624413538900000
H      -1.075340830800000     -2.065550306000000     -1.790446019300000
C      -0.539151224000000     -2.626402049800000      0.664610257100000
H      -0.375231261200000     -3.674476376000000      0.400391094600000
H      -0.596002565900000     -2.540690228500000      1.749472870300000
C       0.569500933300000     -1.776502187900000      0.138957111300000
C       1.253604918300000     -1.948542798100000     -1.031952055000000
H       1.207286924400000     -2.759170531500000     -1.736553485700000
N       2.134104328100000     -0.919016489800000     -1.223491540100000
H       2.710675361700000     -0.787125544400000     -2.036133871300000
C       2.020279222600000     -0.041655969500000     -0.187574440500000
C       2.682787829500000      1.155082564700000      0.054589545300000
H       3.418017947000000      1.534072261100000     -0.638905767900000
C       2.357872692000000      1.841717412900000      1.203250322600000
H       2.848503005300000      2.779160531300000      1.420499735400000
C       1.404354116600000      1.346721455300000      2.098817726400000
H       1.184673364800000      1.912266339600000      2.993464477500000
C       0.748831698100000      0.157926006600000      1.868924826900000
H       0.009590384300000     -0.209868563200000      2.563574529200000
C       1.044748637000000     -0.550578489600000      0.703754740300000
