      -----------------------------------------------------------      
     |                   =====================                   |     
     |                           x T B                           |     
     |                   =====================                   |     
     |                         S. Grimme                         |     
     |          Mulliken Center for Theoretical Chemistry        |     
     |                    University of Bonn                     |     
      -----------------------------------------------------------      

   * xtb version 6.7.1-6.fc44.fc44 compiled by Fedora project on Sun Jan 18 23:32:34 UTC 2026

   xtb is free software: you can redistribute it and/or modify it under
   the terms of the GNU Lesser General Public License as published by
   the Free Software Foundation, either version 3 of the License, or
   (at your option) any later version.
   
   xtb is distributed in the hope that it will be useful,
   but WITHOUT ANY WARRANTY; without even the implied warranty of
   MERCHANTABILITY or FITNESS FOR A PARTICULAR PURPOSE.  See the
   GNU Lesser General Public License for more details.
   
   Cite this work as:
   * C. Bannwarth, E. Caldeweyher, S. Ehlert, A. Hansen, P. Pracht,
     J. Seibert, S. Spicher, S. Grimme, WIREs Comput. Mol. Sci., 2020, 11,
     e01493. DOI: 10.1002/wcms.1493
   
   for GFN2-xTB:
   * C. Bannwarth, S. Ehlert and S. Grimme., J. Chem. Theory Comput., 2019,
     15, 1652-1671. DOI: 10.1021/acs.jctc.8b01176
   for GFN1-xTB:
   * S. Grimme, C. Bannwarth, P. Shushkov, J. Chem. Theory Comput., 2017,
     13, 1989-2009. DOI: 10.1021/acs.jctc.7b00118
   for GFN0-xTB:
   * P. Pracht, E. Caldeweyher, S. Ehlert, S. Grimme, ChemRxiv, 2019, preprint.
     DOI: 10.26434/chemrxiv.8326202.v1
   for GFN-FF:
   * S. Spicher and S. Grimme, Angew. Chem. Int. Ed., 2020, 59, 15665-15673.
     DOI: 10.1002/anie.202004239
   
   for ALPB and GBSA implicit solvation:
   * S. Ehlert, M. Stahn, S. Spicher, S. Grimme, J. Chem. Theory Comput.,
     2021, 17, 4250-4261. DOI: 10.1021/acs.jctc.1c00471
   
   for ddCOSMO and CPCM-X implicit solvation:
   * M. Stahn, S. Ehlert, S. Grimme, J. Phys. Chem. A,
     2023, XX, XXXX-XXXX. DOI: 10.1021/acs.jpca.3c04382
   
   for DFT-D4:
   * E. Caldeweyher, C. Bannwarth and S. Grimme, J. Chem. Phys., 2017,
     147, 034112. DOI: 10.1063/1.4993215
   * E. Caldeweyher, S. Ehlert, A. Hansen, H. Neugebauer, S. Spicher,
     C. Bannwarth and S. Grimme, J. Chem. Phys., 2019, 150, 154122.
     DOI: 10.1063/1.5090222
   * E. Caldeweyher, J.-M. Mewes, S. Ehlert and S. Grimme, Phys. Chem. Chem. Phys.
     2020, 22, 8499-8512. DOI: 10.1039/D0CP00502A
   
   for sTDA-xTB:
   * S. Grimme and C. Bannwarth, J. Chem. Phys., 2016, 145, 054103.
     DOI: 10.1063/1.4959605
   
   in the mass-spec context:
   * V. Asgeirsson, C. Bauer and S. Grimme, Chem. Sci., 2017, 8, 4879.
     DOI: 10.1039/c7sc00601b
   * J. Koopman and S. Grimme, ACS Omega 2019, 4, 12, 15120-15133.
     DOI: 10.1021/acsomega.9b02011
   
   for metadynamics refer to:
   * S. Grimme, J. Chem. Theory Comput., 2019, 155, 2847-2862
     DOI: 10.1021/acs.jctc.9b00143
   
   for SPH calculations refer to:
   * S. Spicher and S. Grimme, J. Chem. Theory Comput., 2021, 17, 1701-1714
     DOI: 10.1021/acs.jctc.0c01306
   
   for ONIOM refer to:
   * C. Plett, A. Katbashev, S. Ehlert, S. Grimme, M. Bursch,
     Phys. Chem. Chem. Phys., 2023, 25, 17860-17868. DOI: 10.1039/D3CP02178E
   
   for DIPRO refer to:
   * J. Kohn, N. Gildemeister, S. Grimme, D. Fazzi, A. Hansen,
     J. Chem. Phys., 2023, just accepted.
   
   for PTB refer to:
   * S. Grimme, M. Mueller, A. Hansen, J. Chem. Phys., 2023, 158, 124111.
     DOI: 10.1063/5.0137838
   
   with help from (in alphabetical order)
   P. Atkinson, C. Bannwarth, F. Bohle, G. Brandenburg, E. Caldeweyher
   M. Checinski, S. Dohm, S. Ehlert, S. Ehrlich, I. Gerasimov, C. Hölzer
   A. Katbashev, J. Kohn, J. Koopman, C. Lavigne, S. Lehtola, F. März, M. Müller,
   F. Musil, H. Neugebauer, J. Pisarek, C. Plett, P. Pracht, F. Pultar,
   J. Seibert, P. Shushkov, S. Spicher, M. Stahn, M. Steiner, T. Strunk,
   J. Stückrath, T. Rose, and J. Unsleber
   
 * started run on 2026/10/01 at 18:03:48.976     
   ID    Z sym.   atoms
    1    8 O      1, 3, 11
    2    6 C      2, 5, 10, 12, 17, 20, 21, 25, 26, 28, 30, 32, 34
    3    1 H      4, 6, 7, 9, 13, 15, 16, 18, 19, 22, 24, 27, 29, 31, 33
    4    7 N      8, 14, 23

           -------------------------------------------------
          |                Calculation Setup                |
           -------------------------------------------------

          program call               : /usr/bin/xtb input.xyz --opt --gfn 2 --chrg 0 --uhf 0
          hostname                   : fedora
          coordinate file            : input.xyz
          omp threads                :                    16


           -------------------------------------------------
          |                 G F N 2 - x T B                 |
           -------------------------------------------------

        Reference                      10.1021/acs.jctc.8b01176
      * Hamiltonian:
        H0-scaling (s, p, d)           1.850000    2.230000    2.230000
        zeta-weighting                 0.500000
      * Dispersion:
        s8                             2.700000
        a1                             0.520000
        a2                             5.000000
        s9                             5.000000
      * Repulsion:
        kExp                           1.500000    1.000000
        rExp                           1.000000
      * Coulomb:
        alpha                          2.000000
        third order                    shell-resolved
        anisotropic                    true
        a3                             3.000000
        a5                             4.000000
        cn-shift                       1.200000
        cn-exp                         4.000000
        max-rad                        5.000000


          ...................................................
          :                      SETUP                      :
          :.................................................:
          :  # basis functions                  91          :
          :  # atomic orbitals                  91          :
          :  # shells                           53          :
          :  # electrons                       100          :
          :  max. iterations                   250          :
          :  Hamiltonian                  GFN2-xTB          :
          :  restarted?                      false          :
          :  GBSA solvation                  false          :
          :  PC potential                    false          :
          :  electronic temp.          300.0000000     K    :
          :  accuracy                    1.0000000          :
          :  -> integral cutoff          0.2500000E+02      :
          :  -> integral neglect         0.1000000E-07      :
          :  -> SCF convergence          0.1000000E-05 Eh   :
          :  -> wf. convergence          0.1000000E-03 e    :
          :  Broyden damping             0.4000000          :
          :  net charge                          0          :
          :  unpaired electrons                  0          :
          ...................................................

 iter      E             dE          RMSdq      gap      omega  full diag
   1    -57.0832492 -0.570832E+02  0.410E+00    3.05       0.0  T
   2    -57.2210842 -0.137835E+00  0.240E+00    3.22       1.0  T
   3    -57.2290969 -0.801271E-02  0.133E+00    3.52       1.0  T
   4    -57.2280736  0.102326E-02  0.561E-01    3.07       1.0  T
   5    -57.2381474 -0.100737E-01  0.110E-01    3.04       1.0  T
   6    -57.2382736 -0.126209E-03  0.594E-02    3.05       1.0  T
   7    -57.2383093 -0.357363E-04  0.249E-02    3.03       1.0  T
   8    -57.2383097 -0.413432E-06  0.108E-02    3.03       1.6  T
   9    -57.2383122 -0.249084E-05  0.339E-03    3.04       5.1  T
  10    -57.2383123 -0.381278E-07  0.146E-03    3.04      11.8  T
  11    -57.2383123 -0.177953E-07  0.616E-04    3.04      27.8  T
  12    -57.2383123 -0.475017E-08  0.221E-04    3.04      77.6  T

   *** convergence criteria satisfied after 12 iterations ***

         #    Occupation            Energy/Eh            Energy/eV
      -------------------------------------------------------------
         1        2.0000           -0.7590108             -20.6537
       ...           ...                  ...                  ...
        44        2.0000           -0.4131448             -11.2422
        45        2.0000           -0.4116277             -11.2010
        46        2.0000           -0.4023337             -10.9481
        47        2.0000           -0.3977828             -10.8242
        48        2.0000           -0.3792389             -10.3196
        49        2.0000           -0.3751367             -10.2080
        50        2.0000           -0.3592578              -9.7759 (HOMO)
        51                         -0.2476624              -6.7392 (LUMO)
        52                         -0.2276986              -6.1960
        53                         -0.2061084              -5.6085
        54                         -0.1936866              -5.2705
        55                         -0.1571480              -4.2762
       ...                                ...                  ...
        91                          0.7211864              19.6245
      -------------------------------------------------------------
                  HL-Gap            0.1115954 Eh            3.0367 eV
             Fermi-level           -0.3034601 Eh           -8.2576 eV

 SCC (total)                   0 d,  0 h,  0 min,  0.568 sec
 SCC setup                      ...        0 min,  0.003 sec (  0.516%)
 Dispersion                     ...        0 min,  0.011 sec (  1.853%)
 classical contributions        ...        0 min,  0.004 sec (  0.722%)
 integral evaluation            ...        0 min,  0.010 sec (  1.789%)
 iterations                     ...        0 min,  0.538 sec ( 94.718%)
 molecular gradient             ...        0 min,  0.002 sec (  0.340%)
 printout                       ...        0 min,  0.000 sec (  0.052%)

         :::::::::::::::::::::::::::::::::::::::::::::::::::::
         ::                     SUMMARY                     ::
         :::::::::::::::::::::::::::::::::::::::::::::::::::::
         :: total energy             -56.475425208856 Eh    ::
         :: gradient norm              0.000122571973 Eh/a0 ::
         :: HOMO-LUMO gap              3.036666254006 eV    ::
         ::.................................................::
         :: SCC energy               -57.237206393343 Eh    ::
         :: -> isotropic ES            0.100105095123 Eh    ::
         :: -> anisotropic ES          0.006250545624 Eh    ::
         :: -> anisotropic XC          0.019677949195 Eh    ::
         :: -> dispersion             -0.041719661725 Eh    ::
         :: repulsion energy           0.761781184487 Eh    ::
         :: add. restraining           0.000000000000 Eh    ::
         :: total charge               0.000000000000 e     ::
         :::::::::::::::::::::::::::::::::::::::::::::::::::::

      ----------------------------------------------------------- 
     |                   =====================                   |
     |                        A N C O P T                        |
     |                   =====================                   |
     |               Approximate Normal Coordinate               |
     |                Rational Function Optimizer                |
      ----------------------------------------------------------- 
      ----------------------------------------------------------- 
     |                   =====================                   |
     |                        A N C O P T                        |
     |                   =====================                   |
     |               Approximate Normal Coordinate               |
     |                Rational Function Optimizer                |
      ----------------------------------------------------------- 

          ...................................................
          :                      SETUP                      :
          :.................................................:
          :   optimization level            normal          :
          :   max. optcycles                   200          :
          :   ANC micro-cycles                  20          :
          :   degrees of freedom                96          :
          :.................................................:
          :   RF solver                   davidson          :
          :   write xtbopt.log                true          :
          :   linear?                        false          :
          :   energy convergence         0.5000000E-05 Eh   :
          :   grad. convergence          0.1000000E-02 Eh/α :
          :   maxmium RF displ.          1.0000000          :
          :   Hlow (freq-cutoff)         0.1000000E-01      :
          :   Hmax (freq-cutoff)         5.0000000          :
          :   S6 in model hess.         20.0000000          :
          ...................................................

generating ANC from exact Hessian ...
Using Lindh-Hessian (1995)
 Shifting diagonal of input Hessian by    9.4646214899781079E-003
 Lowest  eigenvalues of input Hessian
    0.000000    0.000000    0.000000    0.000000    0.000000    0.000000
    0.010000    0.010903    0.011272    0.011494    0.012405    0.014206
    0.014663    0.017079    0.019043    0.019688    0.022548    0.024541
 Highest eigenvalues
    1.997885    2.006078    2.099759    2.208301    2.326489    2.352388


........................................................................
.............................. CYCLE    1 ..............................
........................................................................

 iter      E             dE          RMSdq      gap      omega  full diag
   1    -57.2383123 -0.572383E+02  0.101E-04    3.04       0.0  T
   2    -57.2383123 -0.547473E-10  0.601E-05    3.04     285.2  T
   3    -57.2383123 -0.119655E-10  0.397E-05    3.04     432.4  T
     SCC iter.                  ...        0 min,  0.143 sec
     gradient                   ...        0 min,  0.009 sec
 * total energy  :   -56.4754252 Eh     change       -0.5192433E-09 Eh
   gradient norm :     0.0001239 Eh/α   predicted     0.0000000E+00 (-100.00%)
   displ. norm   :     0.0001859 α      lambda        0.0000000E+00
   maximum displ.:     0.0001155 α      in ANC's #96, #95, #45, ...

   *** GEOMETRY OPTIMIZATION CONVERGED AFTER 1 ITERATIONS ***

------------------------------------------------------------------------
 total energy gain   :        -0.0000000 Eh       -0.0000 kcal/mol
 total RMSD          :         0.0000000 a0        0.0000 Å
 total power (kW/mol):        -0.0000014 (step)   -0.0000 (real)
------------------------------------------------------------------------

 ANCopt (total)                0 d,  0 h,  0 min,  0.267 sec
 optimizer setup                ...        0 min,  0.000 sec (  0.084%)
 model hessian                  ...        0 min,  0.012 sec (  4.313%)
 ANC generation                 ...        0 min,  0.059 sec ( 22.293%)
 coordinate transformation      ...        0 min,  0.000 sec (  0.007%)
 single point calculation       ...        0 min,  0.195 sec ( 73.123%)
 optimization log               ...        0 min,  0.000 sec (  0.032%)
 hessian update                 ...        0 min,  0.000 sec (  0.000%)
 rational function              ...        0 min,  0.000 sec (  0.025%)

================
 final structure:
================
34
 xtb: 6.7.1-6.fc44.fc44
O            0.02506147160000        3.21173712330000       -0.66002395460000
C           -0.49981828200000        2.03944838960000       -1.03112697420000
O           -0.06575508120000        1.42291189270000       -1.96091667770000
H           -0.37378311090000        3.56647220120000        0.14568324580000
C           -1.70970850780000        1.57875671430000       -0.22500607680000
H           -2.56779352830000        2.20660347710000       -0.50837570380000
H           -1.53707053110000        1.68113947250000        0.85263321250000
N           -1.96766888270000        0.19185307380000       -0.49182788710000
H           -1.77770675820000       -0.13285984740000       -1.42896210010000
C           -2.08329593690000       -0.71559803160000        0.49908385440000
O           -2.28147036810000       -0.40599989560000        1.65654310280000
C           -1.90023511470000       -2.16779578750000        0.06328274310000
H           -2.70391192690000       -2.75366216400000        0.51940227240000
N           -1.97276066670000       -2.31349583700000       -1.37931490530000
H           -2.15850290240000       -3.27924905580000       -1.62441353890000
H           -1.07534083080000       -2.06555030600000       -1.79044601930000
C           -0.53915122400000       -2.62640204980000        0.66461025710000
H           -0.37523126120000       -3.67447637600000        0.40039109460000
H           -0.59600256590000       -2.54069022850000        1.74947287030000
C            0.56950093330000       -1.77650218790000        0.13895711130000
C            1.25360491830000       -1.94854279810000       -1.03195205500000
H            1.20728692440000       -2.75917053150000       -1.73655348570000
N            2.13410432810000       -0.91901648980000       -1.22349154010000
H            2.71067536170000       -0.78712554440000       -2.03613387130000
C            2.02027922260000       -0.04165596950000       -0.18757444050000
C            2.68278782950000        1.15508256470000        0.05458954530000
H            3.41801794700000        1.53407226110000       -0.63890576790000
C            2.35787269200000        1.84171741290000        1.20325032260000
H            2.84850300530000        2.77916053130000        1.42049973540000
C            1.40435411660000        1.34672145530000        2.09881772640000
H            1.18467336480000        1.91226633960000        2.99346447750000
C            0.74883169810000        0.15792600660000        1.86892482690000
H            0.00959038430000       -0.20986856320000        2.56357452920000
C            1.04474863700000       -0.55057848960000        0.70375474030000

 Bond Distances (Angstroems)
 ---------------------------
O1-C2=1.3370         O1-H4=0.9665         C2-O1=1.3370         C2-O3=1.1971         C2-C5=1.5251         O3-C2=1.1971         
H4-O1=0.9665         C5-C2=1.5251         C5-H6=1.1004         C5-H7=1.0962         C5-N8=1.4357         H6-C5=1.1004         
H7-C5=1.0962         N8-C5=1.4357         N8-H9=1.0098         N8-C10=1.3486        H9-N8=1.0098         C10-N8=1.3486        
C10-O11=1.2144       C10-C12=1.5272       O11-C10=1.2144       C12-C10=1.5272       C12-H13=1.0942       C12-N14=1.4517       
C12-C17=1.5571       H13-C12=1.0942       N14-C12=1.4517       N14-H15=1.0135       N14-H16=1.0178       H15-N14=1.0135       
H16-N14=1.0178       C17-C12=1.5571       C17-H18=1.0932       C17-H19=1.0897       C17-C20=1.4926       H18-C17=1.0932       
H19-C17=1.0897       C20-C17=1.4926       C20-C21=1.3670       C20-C34=1.4310       C21-C20=1.3670       C21-H22=1.0750       
C21-N23=1.3682       H22-C21=1.0750       N23-C21=1.3682       N23-H24=1.0051       N23-C25=1.3623       H24-N23=1.0051       
C25-N23=1.3623       C25-C26=1.3892       C25-C34=1.4160       C26-C25=1.3892       C26-H27=1.0794       C26-C28=1.3771       
H27-C26=1.0794       C28-C26=1.3771       C28-H29=1.0801       C28-C30=1.3987       H29-C28=1.0801       C30-C28=1.3987       
C30-H31=1.0810       C30-C32=1.3769       H31-C30=1.0810       C32-C30=1.3769       C32-H33=1.0790       C32-C34=1.3954       
H33-C32=1.0790       C34-C20=1.4310       C34-C25=1.4160       C34-C32=1.3954       
 C  H  Rav=1.0868 sigma=0.0084  Rmin=1.0750  Rmax=1.1004    10
 C  C  Rav=1.4378 sigma=0.0655  Rmin=1.3670  Rmax=1.5571    12
 N  H  Rav=1.0116 sigma=0.0047  Rmin=1.0051  Rmax=1.0178     4
 N  C  Rav=1.3933 sigma=0.0420  Rmin=1.3486  Rmax=1.4517     5
 O  H  Rav=0.9665 sigma=0.0000  Rmin=0.9665  Rmax=0.9665     1
 O  C  Rav=1.2495 sigma=0.0623  Rmin=1.1971  Rmax=1.3370     3

 selected bond angles (degree)
 --------------------
H4-O1-C2=113.03                O3-C2-O1=121.66                C5-C2-O1=115.44                C5-C2-O3=122.86                
H6-C5-C2=108.07                H7-C5-C2=111.50                H7-C5-H6=108.83                N8-C5-C2=109.64                
N8-C5-H6=111.30                N8-C5-H7=107.53                H9-N8-C5=116.70                C10-N8-C5=121.93               
C10-N8-H9=118.79               O11-C10-N8=122.87              C12-C10-N8=114.83              C12-C10-O11=122.27             

 selected dihedral angles (degree)
 ---------------------------------
O3-C2-O1-H4=184.59            C5-C2-O1-H4=  6.78            H6-C5-C2-O1= 72.66            H6-C5-C2-O3=254.88            
H7-C5-C2-O1=313.10            H7-C5-C2-O3=135.32            N8-C5-C2-O1=194.13            N8-C5-C2-O3= 16.35            
H9-N8-C5-C2=325.53            H9-N8-C5-H6= 85.04            H9-N8-C5-H7=204.14            C10-N8-C5-C2=127.08           
C10-N8-C5-H6=246.59           C10-N8-C5-H7=  5.69           O11-C10-N8-C5= 17.15          O11-C10-N8-H9=178.33          
C12-C10-N8-C5=199.07          C12-C10-N8-H9=  0.25          
           -------------------------------------------------
          |                Final Singlepoint                |
           -------------------------------------------------

          ...................................................
          :                      SETUP                      :
          :.................................................:
          :  # basis functions                  91          :
          :  # atomic orbitals                  91          :
          :  # shells                           53          :
          :  # electrons                       100          :
          :  max. iterations                   250          :
          :  Hamiltonian                  GFN2-xTB          :
          :  restarted?                      false          :
          :  GBSA solvation                  false          :
          :  PC potential                    false          :
          :  electronic temp.          300.0000000     K    :
          :  accuracy                    1.0000000          :
          :  -> integral cutoff          0.2500000E+02      :
          :  -> integral neglect         0.1000000E-07      :
          :  -> SCF convergence          0.1000000E-05 Eh   :
          :  -> wf. convergence          0.1000000E-03 e    :
          :  Broyden damping             0.4000000          :
          :  net charge                          0          :
          :  unpaired electrons                  0          :
          ...................................................

 iter      E             dE          RMSdq      gap      omega  full diag
   1    -57.2383123 -0.572383E+02  0.118E-05    3.04       0.0  T
   2    -57.2383123 -0.817124E-12  0.830E-06    3.04    2065.5  T
   3    -57.2383123 -0.112976E-11  0.490E-06    3.04    3502.0  T

   *** convergence criteria satisfied after 3 iterations ***

         #    Occupation            Energy/Eh            Energy/eV
      -------------------------------------------------------------
         1        2.0000           -0.7590133             -20.6538
       ...           ...                  ...                  ...
        44        2.0000           -0.4131439             -11.2422
        45        2.0000           -0.4116269             -11.2009
        46        2.0000           -0.4023334             -10.9480
        47        2.0000           -0.3977825             -10.8242
        48        2.0000           -0.3792378             -10.3196
        49        2.0000           -0.3751364             -10.2080
        50        2.0000           -0.3592568              -9.7759 (HOMO)
        51                         -0.2476646              -6.7393 (LUMO)
        52                         -0.2276975              -6.1960
        53                         -0.2061086              -5.6085
        54                         -0.1936854              -5.2704
        55                         -0.1571469              -4.2762
       ...                                ...                  ...
        91                          0.7211871              19.6245
      -------------------------------------------------------------
                  HL-Gap            0.1115922 Eh            3.0366 eV
             Fermi-level           -0.3034607 Eh           -8.2576 eV

 SCC (total)                   0 d,  0 h,  0 min,  0.054 sec
 SCC setup                      ...        0 min,  0.002 sec (  3.213%)
 Dispersion                     ...        0 min,  0.001 sec (  1.479%)
 classical contributions        ...        0 min,  0.000 sec (  0.023%)
 integral evaluation            ...        0 min,  0.001 sec (  1.042%)
 iterations                     ...        0 min,  0.034 sec ( 63.042%)
 molecular gradient             ...        0 min,  0.016 sec ( 30.440%)
 printout                       ...        0 min,  0.000 sec (  0.734%)

         :::::::::::::::::::::::::::::::::::::::::::::::::::::
         ::                     SUMMARY                     ::
         :::::::::::::::::::::::::::::::::::::::::::::::::::::
         :: total energy             -56.475425209397 Eh    ::
         :: gradient norm              0.000123889676 Eh/a0 ::
         :: HOMO-LUMO gap              3.036577621401 eV    ::
         ::.................................................::
         :: SCC energy               -57.237206393884 Eh    ::
         :: -> isotropic ES            0.100103362476 Eh    ::
         :: -> anisotropic ES          0.006250706301 Eh    ::
         :: -> anisotropic XC          0.019677860781 Eh    ::
         :: -> dispersion             -0.041719684385 Eh    ::
         :: repulsion energy           0.761781184487 Eh    ::
         :: add. restraining           0.000000000000 Eh    ::
         :: total charge               0.000000000000 e     ::
         :::::::::::::::::::::::::::::::::::::::::::::::::::::

           -------------------------------------------------
          |                Property Printout                |
           -------------------------------------------------

    * Orbital Energies and Occupations

         #    Occupation            Energy/Eh            Energy/eV
      -------------------------------------------------------------
         1        2.0000           -0.7590133             -20.6538
       ...           ...                  ...                  ...
        38        2.0000           -0.4670908             -12.7102
        39        2.0000           -0.4512310             -12.2786
        40        2.0000           -0.4483556             -12.2004
        41        2.0000           -0.4446103             -12.0985
        42        2.0000           -0.4407779             -11.9942
        43        2.0000           -0.4242125             -11.5434
        44        2.0000           -0.4131439             -11.2422
        45        2.0000           -0.4116269             -11.2009
        46        2.0000           -0.4023334             -10.9480
        47        2.0000           -0.3977825             -10.8242
        48        2.0000           -0.3792378             -10.3196
        49        2.0000           -0.3751364             -10.2080
        50        2.0000           -0.3592568              -9.7759 (HOMO)
        51                         -0.2476646              -6.7393 (LUMO)
        52                         -0.2276975              -6.1960
        53                         -0.2061086              -5.6085
        54                         -0.1936854              -5.2704
        55                         -0.1571469              -4.2762
        56                         -0.0678533              -1.8464
        57                         -0.0032365              -0.0881
        58                          0.0270782               0.7368
        59                          0.0339444               0.9237
        60                          0.0637249               1.7340
        61                          0.0744872               2.0269
       ...                                ...                  ...
        91                          0.7211871              19.6245
      -------------------------------------------------------------
                  HL-Gap            0.1115922 Eh            3.0366 eV
             Fermi-level           -0.3034607 Eh           -8.2576 eV

     #   Z          covCN         q      C6AA      α(0)
     1   8 O        1.659    -0.359    20.067     6.047
     2   6 C        2.689     0.356    20.964     7.493
     3   8 O        0.856    -0.368    21.058     6.153
     4   1 H        0.805     0.329     0.641     1.258
     5   6 C        3.741    -0.035    21.269     6.580
     6   1 H        0.923     0.073     2.055     2.242
     7   1 H        0.924     0.094     1.845     2.124
     8   7 N        2.690    -0.171    24.696     7.381
     9   1 H        0.860     0.203     1.090     1.635
    10   6 C        2.760     0.272    22.408     7.752
    11   8 O        0.859    -0.440    22.488     6.358
    12   6 C        3.786     0.025    20.164     6.396
    13   1 H        0.924     0.052     2.296     2.369
    14   7 N        2.630    -0.355    29.149     8.018
    15   1 H        0.860     0.145     1.436     1.877
    16   1 H        0.860     0.151     1.396     1.851
    17   6 C        3.808    -0.064    21.720     6.634
    18   1 H        0.924     0.033     2.541     2.493
    19   1 H        0.925     0.056     2.247     2.344
    20   6 C        3.054    -0.035    28.806     8.802
    21   6 C        3.036    -0.009    28.218     8.713
    22   1 H        0.926     0.024     2.666     2.553
    23   7 N        2.776    -0.101    23.220     7.157
    24   1 H        0.860     0.161     1.326     1.804
    25   6 C        3.089     0.048    26.822     8.489
    26   6 C        2.909    -0.050    29.250     8.868
    27   1 H        0.926     0.027     2.631     2.537
    28   6 C        2.924    -0.040    28.986     8.829
    29   1 H        0.926     0.025     2.652     2.547
    30   6 C        2.920    -0.050    29.234     8.867
    31   1 H        0.926     0.021     2.715     2.577
    32   6 C        2.911    -0.041    29.009     8.832
    33   1 H        0.926     0.044     2.396     2.421
    34   6 C        3.118    -0.023    28.396     8.728

 Mol. C6AA /au·bohr⁶  :      13325.982804
 Mol. C8AA /au·bohr⁸  :     312262.711955
 Mol. α(0) /au        :        178.727182


Wiberg/Mayer (AO) data.
largest (>0.10) Wiberg bond orders for each atom

 ---------------------------------------------------------------------------
     #   Z sym  total        # sym  WBO       # sym  WBO       # sym  WBO
 ---------------------------------------------------------------------------
     1   8 O    2.216 --     2 C    1.135     4 H    0.870     3 O    0.163
     2   6 C    3.920 --     3 O    1.788     1 O    1.135     5 C    0.956
     3   8 O    2.074 --     2 C    1.788     1 O    0.163
     4   1 H    0.892 --     1 O    0.870
     5   6 C    3.979 --     8 N    1.013     2 C    0.956     7 H    0.947
                             6 H    0.940
     6   1 H    0.994 --     5 C    0.940
     7   1 H    0.991 --     5 C    0.947
     8   7 N    3.435 --    10 C    1.250     5 C    1.013     9 H    0.916
                            11 O    0.191
     9   1 H    0.959 --     8 N    0.916
    10   6 C    3.948 --    11 O    1.682     8 N    1.250    12 C    0.945
    11   8 O    1.998 --    10 C    1.682     8 N    0.191
    12   6 C    3.983 --    14 N    1.026    13 H    0.958    10 C    0.945
                            17 C    0.940
    13   1 H    0.996 --    12 C    0.958
    14   7 N    3.019 --    12 C    1.026    15 H    0.964    16 H    0.948
    15   1 H    0.979 --    14 N    0.964
    16   1 H    0.977 --    14 N    0.948
    17   6 C    3.995 --    20 C    1.023    18 H    0.971    19 H    0.970
                            12 C    0.940
    18   1 H    0.998 --    17 C    0.971
    19   1 H    0.997 --    17 C    0.970
    20   6 C    3.976 --    21 C    1.573    34 C    1.201    17 C    1.023
    21   6 C    3.949 --    20 C    1.573    23 N    1.193    22 H    0.968
    22   1 H    0.999 --    21 C    0.968
    23   7 N    3.547 --    21 C    1.193    25 C    1.182    24 H    0.946
    24   1 H    0.973 --    23 N    0.946
    25   6 C    3.960 --    26 C    1.335    34 C    1.249    23 N    1.182
    26   6 C    3.989 --    28 C    1.496    25 C    1.335    27 H    0.968
                            32 C    0.114
    27   1 H    0.999 --    26 C    0.968
    28   6 C    3.991 --    26 C    1.496    30 C    1.369    29 H    0.972
    29   1 H    0.999 --    28 C    0.972
    30   6 C    3.990 --    32 C    1.504    28 C    1.369    31 H    0.972
    31   1 H    0.999 --    30 C    0.972
    32   6 C    3.992 --    30 C    1.504    34 C    1.331    33 H    0.966
                            26 C    0.114
    33   1 H    0.998 --    32 C    0.966
    34   6 C    3.984 --    32 C    1.331    25 C    1.249    20 C    1.201
 ---------------------------------------------------------------------------

Topologies differ in total number of bonds
Writing topology from bond orders to xtbtopo.mol

molecular dipole:
                 x           y           z       tot (Debye)
 q only:        0.065       0.142      -0.623
   full:        0.336      -0.065      -0.754       2.104
molecular quadrupole (traceless):
                xx          xy          yy          xz          yz          zz
 q only:       -2.969      -6.271      11.954       3.335       8.847      -8.986
  q+dip:       -6.041      -6.157      16.231      -0.631      12.957     -10.190
   full:       -4.895      -7.471      15.929       1.538      11.844     -11.034

           -------------------------------------------------
          |                Geometry Summary                 |
           -------------------------------------------------

      molecular mass/u    :      261.2770023
   center of mass at/Å    :        0.0000000      -0.0000000       0.0000000
  moments of inertia/u·Å² :        0.9226427E+03   0.1266384E+04   0.1484728E+04
rotational constants/cm⁻¹ :        0.1827103E-01   0.1331162E-01   0.1135402E-01

 * 31 selected distances

     #   Z          #   Z                                           value/Å
     1   8 O        2   6 C                                       1.3369657
     2   6 C        3   8 O                                       1.1970953
     1   8 O        4   1 H                                       0.9664772 (min)
     5   6 C        6   1 H                                       1.1003636
     5   6 C        7   1 H                                       1.0961719
     5   6 C        8   7 N                                       1.4357018
     8   7 N        9   1 H                                       1.0098241
     8   7 N       10   6 C                                       1.3486080
    10   6 C       11   8 O                                       1.2144284
    12   6 C       13   1 H                                       1.0941577
    12   6 C       14   7 N                                       1.4517496 (max)
    14   7 N       15   1 H                                       1.0135349
    14   7 N       16   1 H                                       1.0177762
    17   6 C       18   1 H                                       1.0932253
    17   6 C       19   1 H                                       1.0897274
    20   6 C       21   6 C                                       1.3669765
    21   6 C       22   1 H                                       1.0750470
    21   6 C       23   7 N                                       1.3681708
    23   7 N       24   1 H                                       1.0050956
    23   7 N       25   6 C                                       1.3622930
    25   6 C       26   6 C                                       1.3891524
    26   6 C       27   1 H                                       1.0794130
    26   6 C       28   6 C                                       1.3771199
    28   6 C       29   1 H                                       1.0801459
    28   6 C       30   6 C                                       1.3986637
    30   6 C       31   1 H                                       1.0809689
    30   6 C       32   6 C                                       1.3768788
    32   6 C       33   1 H                                       1.0790222
    20   6 C       34   6 C                                       1.4309948
    25   6 C       34   6 C                                       1.4160262
    32   6 C       34   6 C                                       1.3954093

 * 6 distinct bonds (by element types)

   Z      Z             #   av. dist./Å        max./Å        min./Å
   1 H    6 C          10     1.0868243     1.1003636     1.0750470
   6 C    6 C           8     1.3939027     1.4309948     1.3669765
   1 H    7 N           4     1.0115577     1.0177762     1.0050956
   6 C    7 N           5     1.3933046     1.4517496     1.3486080
   1 H    8 O           1     0.9664772     0.9664772     0.9664772
   6 C    8 O           3     1.2494965     1.3369657     1.1970953


optimized geometry written to: xtbopt.xyz


           -------------------------------------------------
          | TOTAL ENERGY              -56.475425209397 Eh   |
          | GRADIENT NORM               0.000123889676 Eh/α |
          | HOMO-LUMO GAP               3.036577621401 eV   |
           -------------------------------------------------

------------------------------------------------------------------------
 * finished run on 2026/10/01 at 18:03:49.905     
------------------------------------------------------------------------
 total:
 * wall-time:     0 d,  0 h,  0 min,  0.928 sec
 *  cpu-time:     0 d,  0 h,  0 min, 12.384 sec
 * ratio c/w:    13.338 speedup
 SCF:
 * wall-time:     0 d,  0 h,  0 min,  0.568 sec
 *  cpu-time:     0 d,  0 h,  0 min,  7.645 sec
 * ratio c/w:    13.461 speedup
 ANC optimizer:
 * wall-time:     0 d,  0 h,  0 min,  0.322 sec
 *  cpu-time:     0 d,  0 h,  0 min,  4.254 sec
 * ratio c/w:    13.209 speedup


--- STDERR ---
normal termination of xtb
Note: The following floating-point exceptions are signalling: IEEE_UNDERFLOW_FLAG IEEE_DENORMAL
