34
frame_0049
O      -1.037759687173017      2.243379645882463      0.745832036246201
C      -1.654314952015167      2.489002413657579     -0.455557030002155
O      -1.368146351243676      3.066974843434618     -1.233598319874780
H      -1.246201876166695      1.557572849671396      1.003941556172462
C      -3.157278961822160      1.595083303173629     -0.400578048220917
H      -3.786442019224062      2.152278314504127     -1.067083284059211
H      -3.390817154353611      1.745023772544021      0.536510329667270
N      -2.673108517727418      0.062936629271419     -0.635468980785581
H      -3.048057214563129     -0.310785701031431     -1.517350686698017
C      -2.213936032920721     -0.711486748531218      0.355721755207801
O      -1.773223897658760     -0.212498859541128      1.380978552450555
C      -1.890054013959218     -2.095697476246242     -0.107649919490398
H      -2.359640751366677     -2.613996389173673      0.519449689307612
N      -2.003867032095918     -2.382023056921327     -1.807836915568062
H      -2.551112165355694     -3.087458543620609     -1.739323589784279
H      -1.525175644326032     -1.942650444649589     -2.054255555990356
C      -0.387517092569989     -2.426582303273721      0.062096432951619
H      -0.026463012333832     -3.333370398054994     -0.489365087518522
H      -0.257404069639973     -2.395972031790933      1.082565771603373
C       0.526921688638884     -0.951184410321582     -0.012813730276304
C       0.560599016463787     -0.248733410878322     -1.163736878875227
H      -0.300905953018026      0.026590640434351     -1.867967717836077
N       1.539983836938830      0.536463105270446     -1.094856862263131
H       1.661135168874246      1.605756303400674     -1.777144190243915
C       2.189052055498221      0.228472073195554     -0.105847306462386
C       3.489211820373709      0.807068884063699      0.203217055085289
H       3.847076309127467      1.752842045266109     -0.203463616157104
C       4.103700292055759      0.257007041668365      1.074020078023961
H       5.166262580411932      0.435449386129815      1.711530215163154
C       3.806493186205770     -0.970107650222098      1.891148469255734
H       4.417194882706920     -1.497309836917578      2.771567037553188
C       2.429131474322736     -1.561169446206340      1.460439506015958
H       2.169801351813619     -2.373655441572583      1.665473986005414
C       1.784819413798316     -0.950058610871582      0.435651809383207
