34
 energy: -56.477615290683 gnorm: 0.000984112611 xtb: 6.7.1-6.fc44.fc44
O           -0.91202859952608        2.17078619411026        0.61539266033125
C           -1.71280657280734        2.39335785130586       -0.40915736148489
O           -1.44348768922303        3.15964172065755       -1.29296623933279
H           -1.21206054202684        1.39857939561482        1.16831378283063
C           -3.02487392832528        1.57939836468719       -0.39707470377261
H           -3.68161204959704        1.94460393787728       -1.18534360073448
H           -3.50663651829529        1.70876972957601        0.57933730109152
N           -2.74994732178630        0.17319004969735       -0.61455225472622
H           -2.98682185276364       -0.27017541552401       -1.49184429490749
C           -2.13100378248145       -0.59236590463927        0.29213964963222
O           -1.80763454617656       -0.18117133912117        1.40007161139116
C           -1.83601337804935       -2.01478759007451       -0.17420606573498
H           -2.45752921911512       -2.68475863533531        0.43171289564050
N           -2.22056727886971       -2.18640867761738       -1.57184327028013
H           -2.38963307107439       -3.16509180852603       -1.77244386918096
H           -1.45906406362541       -1.88887893285162       -2.17402957476547
C           -0.35040713063707       -2.30595699150007        0.12295024422441
H           -0.05909113489994       -3.22824205562110       -0.39319320727512
H           -0.24130370139980       -2.47776232834578        1.19510955263993
C            0.56630743866214       -1.17776932544073       -0.24836336005774
C            0.40992989026842       -0.19027582688184       -1.17944089279574
H           -0.37838865443122       -0.01310041088675       -1.88713312880252
N            1.47138816250457        0.67231890982244       -1.14188903832332
H            1.52888428957499        1.53197102213327       -1.66044494894893
C            2.33603676666118        0.26837880168320       -0.16981368299116
C            3.54348449335792        0.81283142032600        0.24964590055648
H            3.93308389948010        1.71356614477358       -0.20086383376039
C            4.21828692235256        0.16409877554240        1.25994450865642
H            5.15939322873109        0.56013390399053        1.61222136422851
C            3.70940572182015       -1.00071006822769        1.84226090247895
H            4.27124715123437       -1.47799638024627        2.63191471302329
C            2.51416602443660       -1.54471390877521        1.43127052638635
H            2.13191610524509       -2.44586439000772        1.88758592915154
C            1.80733761847830       -0.90843574043181        0.41097834559802
