68
 energy: -106.573615173108 gnorm: 0.000269417449 xtb: 6.7.1-6.fc44.fc44
O            1.24617382649028       -0.36899207701074        1.64447036387902
O            1.02398601719695       -0.91158182080952       -1.61114912224915
O           -3.39043020431561       -2.62354205841354       -0.16279035701589
O           -3.16251239341664        3.09440584528987        0.33468998232466
O           -1.26701434472085        1.63306739110431       -1.38894774112661
O            2.35908197200921        2.94583799802408        1.20656021182334
N            0.36034148653683       -2.43702618141168       -0.13048365888414
N           -2.16354598067122       -0.90304330142172       -0.96174428693557
N           -3.81014236538030        0.95854428616075        0.24699003010017
N           -0.54111481889463        2.12885680854345        0.68516077941642
N            1.96054921608794        1.74175664280607       -0.66073038420202
N            3.17206460381268       -0.45438799937131        0.50242502387409
C            2.00735949209801       -0.98142527890412        0.91330363659279
C            1.68301961925917       -2.41490154927356        0.49057105900848
C            1.54623871702287       -3.33174168055361        1.70970184029270
C            0.38893977576814       -4.25109896516833        1.32896042837287
C           -0.54915127913241       -3.29550383753420        0.60135339306248
C            0.13170398048243       -1.63486731917795       -1.17708539127376
C           -1.26938432020259       -1.67686216115613       -1.79943291049795
C           -1.24470592528292       -1.09411273130358       -3.20733191479804
C           -3.13895995450002       -1.43239142375184       -0.22117580922141
C           -3.91433539380155       -0.42240057415676        0.65955630331074
C           -5.38570737909163       -0.82932783899465        0.70338947367953
C           -2.94151130878514        1.93376255065501        0.60340083814226
C           -1.67170982534482        1.52405279390113        1.36751139007831
C           -1.73838131525120        2.04865470887935        2.79601511676089
C           -0.41823072845405        2.09965832582277       -0.64248288801618
C            0.92394744426118        2.63166547158857       -1.15620838797746
C            0.95906938184029        2.66843979678965       -2.67546505545000
C            2.54208695867478        1.94845942664054        0.53191559841005
C            3.53983544270561        0.87159332595658        0.97105390770819
C            4.92781759183195        1.10944262909011        0.37185263775961
C            4.89029788345776        0.29169393495369       -0.91647489860011
C            4.07112677906305       -0.94043743031670       -0.52896599432971
H            2.41661689810936       -2.79820915779053       -0.22392617418304
H            2.46946708025650       -3.86661092372819        1.92253820071439
H            1.27316727227449       -2.72980835347466        2.57792989484678
H            0.73201721505039       -5.03243762936393        0.64917449309603
H           -0.08226029589354       -4.71590341039941        2.19142693058332
H           -1.25603017944638       -3.79970272881438       -0.05564624319590
H           -1.11999328781920       -2.70133593851845        1.32321236822125
H           -2.04016261035544        0.11032151728360       -1.03794417270126
H           -1.63685622651040       -2.70860243502918       -1.81385614522453
H           -0.49604819466634       -1.60056017114785       -3.81056164091994
H           -1.00088631234860       -0.03645636215798       -3.15284982492546
H           -2.21968664227464       -1.20917467963194       -3.67302817873020
H           -4.58049621335755        1.29853001927892       -0.31436791606858
H           -3.49517202887543       -0.52887980404768        1.66895395648476
H           -5.84217930227922       -0.68595015360748       -0.27374841089100
H           -5.92570137980686       -0.23936245711765        1.43955244431710
H           -5.45614762408900       -1.88236181718794        0.96105376836768
H            0.20213942535615        2.51341329782035        1.25279588170445
H           -1.53555564199570        0.43569112117622        1.36684313311397
H           -2.56130799323693        1.58208094930551        3.33235544342469
H           -1.89566763389027        3.12445429184547        2.78083151507763
H           -0.80863697709677        1.82457376387053        3.31325922822162
H            1.94574757681616        0.81298451101104       -1.07013564294726
H            1.10900487690188        3.62193886997102       -0.72579814347880
H            0.86299716769456        1.65742534173159       -3.06460508026511
H            1.89411277342712        3.09952551912387       -3.02336495600032
H            0.12870405705386        3.26212863103268       -3.04615121393673
H            3.54838454001574        0.89236290903991        2.06610532627496
H            5.69372343633687        0.72450320818701        1.04614159913696
H            5.11515115650556        2.16692028551725        0.19881779716490
H            5.88375398507517        0.02644275213198       -1.27191094667637
H            4.37643113143713        0.85038762456211       -1.69825026743434
H            3.50703458594902       -1.33111077180158       -1.37814144145675
H            4.71723693860467       -1.72912588410378       -0.12463934918052
