34
frame_0026
O      -4.627686085400000      2.002097085200000     -0.320768865900000
C      -4.658323009400000      1.548754143200000     -1.558090324500000
O      -5.666856377700000      1.214789985700000     -2.112729764600000
H      -3.698646089200000      2.192985963900000     -0.009725867800000
C      -3.287917649000000      1.511446507000000     -2.271539038500000
H      -2.914498564200000      2.543220764800000     -2.307964543600000
H      -3.434835570200000      1.142837057200000     -3.285818889200000
N      -2.309849026200000      0.677379558400000     -1.601449341900000
H      -1.999116788800000     -0.184072815400000     -2.031415327200000
C      -1.724477813900000      1.001968270500000     -0.443883385100000
O      -2.045139606400000      1.984632509700000      0.217114097500000
C      -0.642079705200000      0.025865216700000      0.004669295000000
H      -1.117125706500000     -0.636555087200000      0.740577573300000
N      -0.222161536200000     -0.798473115100000     -1.118982464900000
H       0.334808093600000     -1.577795517900000     -0.785625948100000
H       0.374918848200000     -0.255464553600000     -1.736741709600000
C       0.497765302200000      0.793715470600000      0.710349150900000
H       0.049789187600000      1.443060036600000      1.463162710100000
H       1.007014998200000      1.421376089600000     -0.025123300600000
C       1.466834880000000     -0.148677564300000      1.340387626400000
C       1.392071258500000     -0.680145272300000      2.595374033700000
H       0.669428088000000     -0.490872793700000      3.365964347800000
N       2.426321167200000     -1.551417096800000      2.802444631300000
H       2.600384125600000     -2.057614207000000      3.653560809800000
C       3.196275403400000     -1.602612406200000      1.677672508600000
C       4.343204169100000     -2.335822542600000      1.400799245700000
H       4.770838115100000     -2.999292772200000      2.138035649800000
C       4.914207232600000     -2.183035714100000      0.156330107100000
H       5.806292748100000     -2.737754602800000     -0.093077237500000
C       4.364404243900000     -1.316476294300000     -0.792763145900000
H       4.847398827100000     -1.219889114800000     -1.753987545700000
C       3.229011636600000     -0.587095032100000     -0.524338080200000
H       2.824322396700000      0.088436888600000     -1.264586135100000
C       2.620516731900000     -0.727100669100000      0.724015825200000
