      -----------------------------------------------------------      
     |                   =====================                   |     
     |                           x T B                           |     
     |                   =====================                   |     
     |                         S. Grimme                         |     
     |          Mulliken Center for Theoretical Chemistry        |     
     |                    University of Bonn                     |     
      -----------------------------------------------------------      

   * xtb version 6.7.1-6.fc44.fc44 compiled by Fedora project on Sun Jan 18 23:32:34 UTC 2026

   xtb is free software: you can redistribute it and/or modify it under
   the terms of the GNU Lesser General Public License as published by
   the Free Software Foundation, either version 3 of the License, or
   (at your option) any later version.
   
   xtb is distributed in the hope that it will be useful,
   but WITHOUT ANY WARRANTY; without even the implied warranty of
   MERCHANTABILITY or FITNESS FOR A PARTICULAR PURPOSE.  See the
   GNU Lesser General Public License for more details.
   
   Cite this work as:
   * C. Bannwarth, E. Caldeweyher, S. Ehlert, A. Hansen, P. Pracht,
     J. Seibert, S. Spicher, S. Grimme, WIREs Comput. Mol. Sci., 2020, 11,
     e01493. DOI: 10.1002/wcms.1493
   
   for GFN2-xTB:
   * C. Bannwarth, S. Ehlert and S. Grimme., J. Chem. Theory Comput., 2019,
     15, 1652-1671. DOI: 10.1021/acs.jctc.8b01176
   for GFN1-xTB:
   * S. Grimme, C. Bannwarth, P. Shushkov, J. Chem. Theory Comput., 2017,
     13, 1989-2009. DOI: 10.1021/acs.jctc.7b00118
   for GFN0-xTB:
   * P. Pracht, E. Caldeweyher, S. Ehlert, S. Grimme, ChemRxiv, 2019, preprint.
     DOI: 10.26434/chemrxiv.8326202.v1
   for GFN-FF:
   * S. Spicher and S. Grimme, Angew. Chem. Int. Ed., 2020, 59, 15665-15673.
     DOI: 10.1002/anie.202004239
   
   for ALPB and GBSA implicit solvation:
   * S. Ehlert, M. Stahn, S. Spicher, S. Grimme, J. Chem. Theory Comput.,
     2021, 17, 4250-4261. DOI: 10.1021/acs.jctc.1c00471
   
   for ddCOSMO and CPCM-X implicit solvation:
   * M. Stahn, S. Ehlert, S. Grimme, J. Phys. Chem. A,
     2023, XX, XXXX-XXXX. DOI: 10.1021/acs.jpca.3c04382
   
   for DFT-D4:
   * E. Caldeweyher, C. Bannwarth and S. Grimme, J. Chem. Phys., 2017,
     147, 034112. DOI: 10.1063/1.4993215
   * E. Caldeweyher, S. Ehlert, A. Hansen, H. Neugebauer, S. Spicher,
     C. Bannwarth and S. Grimme, J. Chem. Phys., 2019, 150, 154122.
     DOI: 10.1063/1.5090222
   * E. Caldeweyher, J.-M. Mewes, S. Ehlert and S. Grimme, Phys. Chem. Chem. Phys.
     2020, 22, 8499-8512. DOI: 10.1039/D0CP00502A
   
   for sTDA-xTB:
   * S. Grimme and C. Bannwarth, J. Chem. Phys., 2016, 145, 054103.
     DOI: 10.1063/1.4959605
   
   in the mass-spec context:
   * V. Asgeirsson, C. Bauer and S. Grimme, Chem. Sci., 2017, 8, 4879.
     DOI: 10.1039/c7sc00601b
   * J. Koopman and S. Grimme, ACS Omega 2019, 4, 12, 15120-15133.
     DOI: 10.1021/acsomega.9b02011
   
   for metadynamics refer to:
   * S. Grimme, J. Chem. Theory Comput., 2019, 155, 2847-2862
     DOI: 10.1021/acs.jctc.9b00143
   
   for SPH calculations refer to:
   * S. Spicher and S. Grimme, J. Chem. Theory Comput., 2021, 17, 1701-1714
     DOI: 10.1021/acs.jctc.0c01306
   
   for ONIOM refer to:
   * C. Plett, A. Katbashev, S. Ehlert, S. Grimme, M. Bursch,
     Phys. Chem. Chem. Phys., 2023, 25, 17860-17868. DOI: 10.1039/D3CP02178E
   
   for DIPRO refer to:
   * J. Kohn, N. Gildemeister, S. Grimme, D. Fazzi, A. Hansen,
     J. Chem. Phys., 2023, just accepted.
   
   for PTB refer to:
   * S. Grimme, M. Mueller, A. Hansen, J. Chem. Phys., 2023, 158, 124111.
     DOI: 10.1063/5.0137838
   
   with help from (in alphabetical order)
   P. Atkinson, C. Bannwarth, F. Bohle, G. Brandenburg, E. Caldeweyher
   M. Checinski, S. Dohm, S. Ehlert, S. Ehrlich, I. Gerasimov, C. Hölzer
   A. Katbashev, J. Kohn, J. Koopman, C. Lavigne, S. Lehtola, F. März, M. Müller,
   F. Musil, H. Neugebauer, J. Pisarek, C. Plett, P. Pracht, F. Pultar,
   J. Seibert, P. Shushkov, S. Spicher, M. Stahn, M. Steiner, T. Strunk,
   J. Stückrath, T. Rose, and J. Unsleber
   
 * started run on 2026/10/01 at 18:03:21.922     
   ID    Z sym.   atoms
    1    8 O      1, 3, 11
    2    6 C      2, 5, 10, 12, 17, 20, 21, 25, 26, 28, 30, 32, 34
    3    1 H      4, 6, 7, 9, 13, 15, 16, 18, 19, 22, 24, 27, 29, 31, 33
    4    7 N      8, 14, 23

           -------------------------------------------------
          |                Calculation Setup                |
           -------------------------------------------------

          program call               : /usr/bin/xtb input.xyz --opt --gfn 2 --chrg 0 --uhf 0
          hostname                   : fedora
          coordinate file            : input.xyz
          omp threads                :                    16


           -------------------------------------------------
          |                 G F N 2 - x T B                 |
           -------------------------------------------------

        Reference                      10.1021/acs.jctc.8b01176
      * Hamiltonian:
        H0-scaling (s, p, d)           1.850000    2.230000    2.230000
        zeta-weighting                 0.500000
      * Dispersion:
        s8                             2.700000
        a1                             0.520000
        a2                             5.000000
        s9                             5.000000
      * Repulsion:
        kExp                           1.500000    1.000000
        rExp                           1.000000
      * Coulomb:
        alpha                          2.000000
        third order                    shell-resolved
        anisotropic                    true
        a3                             3.000000
        a5                             4.000000
        cn-shift                       1.200000
        cn-exp                         4.000000
        max-rad                        5.000000


          ...................................................
          :                      SETUP                      :
          :.................................................:
          :  # basis functions                  91          :
          :  # atomic orbitals                  91          :
          :  # shells                           53          :
          :  # electrons                       100          :
          :  max. iterations                   250          :
          :  Hamiltonian                  GFN2-xTB          :
          :  restarted?                      false          :
          :  GBSA solvation                  false          :
          :  PC potential                    false          :
          :  electronic temp.          300.0000000     K    :
          :  accuracy                    1.0000000          :
          :  -> integral cutoff          0.2500000E+02      :
          :  -> integral neglect         0.1000000E-07      :
          :  -> SCF convergence          0.1000000E-05 Eh   :
          :  -> wf. convergence          0.1000000E-03 e    :
          :  Broyden damping             0.4000000          :
          :  net charge                          0          :
          :  unpaired electrons                  0          :
          ...................................................

 iter      E             dE          RMSdq      gap      omega  full diag
   1    -57.0878953 -0.570879E+02  0.409E+00    3.03       0.0  T
   2    -57.2193997 -0.131504E+00  0.237E+00    3.49       1.0  T
   3    -57.2279692 -0.856953E-02  0.131E+00    3.58       1.0  T
   4    -57.2282817 -0.312467E-03  0.506E-01    3.49       1.0  T
   5    -57.2361763 -0.789468E-02  0.117E-01    3.53       1.0  T
   6    -57.2363493 -0.172945E-03  0.589E-02    3.54       1.0  T
   7    -57.2363888 -0.395005E-04  0.257E-02    3.53       1.0  T
   8    -57.2363894 -0.605849E-06  0.113E-02    3.53       1.5  T
   9    -57.2363914 -0.205917E-05  0.343E-03    3.53       5.0  T
  10    -57.2363915 -0.609767E-07  0.153E-03    3.53      11.2  T
  11    -57.2363915 -0.141106E-07  0.674E-04    3.53      25.5  T
  12    -57.2363915 -0.456220E-08  0.228E-04    3.53      75.2  T

   *** convergence criteria satisfied after 12 iterations ***

         #    Occupation            Energy/Eh            Energy/eV
      -------------------------------------------------------------
         1        2.0000           -0.7351305             -20.0039
       ...           ...                  ...                  ...
        44        2.0000           -0.4270970             -11.6219
        45        2.0000           -0.4264469             -11.6042
        46        2.0000           -0.4216947             -11.4749
        47        2.0000           -0.4033807             -10.9765
        48        2.0000           -0.3995449             -10.8722
        49        2.0000           -0.3916739             -10.6580
        50        2.0000           -0.3711777             -10.1003 (HOMO)
        51                         -0.2413919              -6.5686 (LUMO)
        52                         -0.2347958              -6.3891
        53                         -0.2302525              -6.2655
        54                         -0.2071705              -5.6374
        55                         -0.1684758              -4.5845
       ...                                ...                  ...
        91                          0.7086724              19.2840
      -------------------------------------------------------------
                  HL-Gap            0.1297858 Eh            3.5317 eV
             Fermi-level           -0.3062848 Eh           -8.3344 eV

 SCC (total)                   0 d,  0 h,  0 min,  0.211 sec
 SCC setup                      ...        0 min,  0.004 sec (  1.820%)
 Dispersion                     ...        0 min,  0.010 sec (  4.781%)
 classical contributions        ...        0 min,  0.001 sec (  0.442%)
 integral evaluation            ...        0 min,  0.007 sec (  3.205%)
 iterations                     ...        0 min,  0.187 sec ( 88.736%)
 molecular gradient             ...        0 min,  0.002 sec (  0.721%)
 printout                       ...        0 min,  0.000 sec (  0.141%)

         :::::::::::::::::::::::::::::::::::::::::::::::::::::
         ::                     SUMMARY                     ::
         :::::::::::::::::::::::::::::::::::::::::::::::::::::
         :: total energy             -56.479320215323 Eh    ::
         :: gradient norm              0.000055671627 Eh/a0 ::
         :: HOMO-LUMO gap              3.531652268437 eV    ::
         ::.................................................::
         :: SCC energy               -57.236419273847 Eh    ::
         :: -> isotropic ES            0.097836474632 Eh    ::
         :: -> anisotropic ES          0.004372573099 Eh    ::
         :: -> anisotropic XC          0.019176815713 Eh    ::
         :: -> dispersion             -0.033973310295 Eh    ::
         :: repulsion energy           0.757099058525 Eh    ::
         :: add. restraining           0.000000000000 Eh    ::
         :: total charge              -0.000000000000 e     ::
         :::::::::::::::::::::::::::::::::::::::::::::::::::::

      ----------------------------------------------------------- 
     |                   =====================                   |
     |                        A N C O P T                        |
     |                   =====================                   |
     |               Approximate Normal Coordinate               |
     |                Rational Function Optimizer                |
      ----------------------------------------------------------- 
      ----------------------------------------------------------- 
     |                   =====================                   |
     |                        A N C O P T                        |
     |                   =====================                   |
     |               Approximate Normal Coordinate               |
     |                Rational Function Optimizer                |
      ----------------------------------------------------------- 

          ...................................................
          :                      SETUP                      :
          :.................................................:
          :   optimization level            normal          :
          :   max. optcycles                   200          :
          :   ANC micro-cycles                  20          :
          :   degrees of freedom                96          :
          :.................................................:
          :   RF solver                   davidson          :
          :   write xtbopt.log                true          :
          :   linear?                        false          :
          :   energy convergence         0.5000000E-05 Eh   :
          :   grad. convergence          0.1000000E-02 Eh/α :
          :   maxmium RF displ.          1.0000000          :
          :   Hlow (freq-cutoff)         0.1000000E-01      :
          :   Hmax (freq-cutoff)         5.0000000          :
          :   S6 in model hess.         20.0000000          :
          ...................................................

generating ANC from exact Hessian ...
Using Lindh-Hessian (1995)
 Shifting diagonal of input Hessian by    9.6293021984662358E-003
 Lowest  eigenvalues of input Hessian
    0.000000    0.000000    0.000000    0.000000    0.000000    0.000000
    0.010000    0.010276    0.010631    0.012393    0.012532    0.013761
    0.015786    0.018407    0.019060    0.019993    0.023221    0.026523
 Highest eigenvalues
    2.001443    2.010207    2.098146    2.206308    2.307812    2.367903


........................................................................
.............................. CYCLE    1 ..............................
........................................................................

 iter      E             dE          RMSdq      gap      omega  full diag
   1    -57.2363915 -0.572364E+02  0.100E-04    3.53       0.0  T
   2    -57.2363915 -0.529710E-10  0.590E-05    3.53     290.5  T
   3    -57.2363915 -0.832756E-11  0.384E-05    3.53     446.7  T
     SCC iter.                  ...        0 min,  0.082 sec
     gradient                   ...        0 min,  0.038 sec
 * total energy  :   -56.4793202 Eh     change       -0.6962608E-09 Eh
   gradient norm :     0.0000546 Eh/α   predicted     0.0000000E+00 (-100.00%)
   displ. norm   :     0.0000818 α      lambda        0.0000000E+00
   maximum displ.:     0.0000250 α      in ANC's #96, #41, #63, ...

   *** GEOMETRY OPTIMIZATION CONVERGED AFTER 1 ITERATIONS ***

------------------------------------------------------------------------
 total energy gain   :        -0.0000000 Eh       -0.0000 kcal/mol
 total RMSD          :         0.0000000 a0        0.0000 Å
 total power (kW/mol):        -0.0000018 (step)   -0.0000 (real)
------------------------------------------------------------------------

 ANCopt (total)                0 d,  0 h,  0 min,  0.146 sec
 optimizer setup                ...        0 min,  0.000 sec (  0.097%)
 model hessian                  ...        0 min,  0.006 sec (  3.787%)
 ANC generation                 ...        0 min,  0.007 sec (  4.689%)
 coordinate transformation      ...        0 min,  0.000 sec (  0.009%)
 single point calculation       ...        0 min,  0.133 sec ( 91.114%)
 optimization log               ...        0 min,  0.000 sec (  0.055%)
 hessian update                 ...        0 min,  0.000 sec (  0.000%)
 rational function              ...        0 min,  0.000 sec (  0.044%)

================
 final structure:
================
34
 xtb: 6.7.1-6.fc44.fc44
O           -4.62768608540000        2.00209708520000       -0.32076886590000
C           -4.65832300940000        1.54875414320000       -1.55809032450000
O           -5.66685637770000        1.21478998570000       -2.11272976460000
H           -3.69864608920000        2.19298596390000       -0.00972586780000
C           -3.28791764900000        1.51144650700000       -2.27153903850000
H           -2.91449856420000        2.54322076480000       -2.30796454360000
H           -3.43483557020000        1.14283705720000       -3.28581888920000
N           -2.30984902620000        0.67737955840000       -1.60144934190000
H           -1.99911678880000       -0.18407281540000       -2.03141532720000
C           -1.72447781390000        1.00196827050000       -0.44388338510000
O           -2.04513960640000        1.98463250970000        0.21711409750000
C           -0.64207970520000        0.02586521670000        0.00466929500000
H           -1.11712570650000       -0.63655508720000        0.74057757330000
N           -0.22216153620000       -0.79847311510000       -1.11898246490000
H            0.33480809360000       -1.57779551790000       -0.78562594810000
H            0.37491884820000       -0.25546455360000       -1.73674170960000
C            0.49776530220000        0.79371547060000        0.71034915090000
H            0.04978918760000        1.44306003660000        1.46316271010000
H            1.00701499820000        1.42137608960000       -0.02512330060000
C            1.46683488000000       -0.14867756430000        1.34038762640000
C            1.39207125850000       -0.68014527230000        2.59537403370000
H            0.66942808800000       -0.49087279370000        3.36596434780000
N            2.42632116720000       -1.55141709680000        2.80244463130000
H            2.60038412560000       -2.05761420700000        3.65356080980000
C            3.19627540340000       -1.60261240620000        1.67767250860000
C            4.34320416910000       -2.33582254260000        1.40079924570000
H            4.77083811510000       -2.99929277220000        2.13803564980000
C            4.91420723260000       -2.18303571410000        0.15633010710000
H            5.80629274810000       -2.73775460280000       -0.09307723750000
C            4.36440424390000       -1.31647629430000       -0.79276314590000
H            4.84739882710000       -1.21988911480000       -1.75398754570000
C            3.22901163660000       -0.58709503210000       -0.52433808020000
H            2.82432239670000        0.08843688860000       -1.26458613510000
C            2.62051673190000       -0.72710066910000        0.72401582520000

 Bond Distances (Angstroems)
 ---------------------------
O1-C2=1.3181         O1-H4=0.9981         C2-O1=1.3181         C2-O3=1.1985         C2-C5=1.5454         O3-C2=1.1985         
H4-O1=0.9981         C5-C2=1.5454         C5-H6=1.0979         C5-H7=1.0891         C5-N8=1.4496         H6-C5=1.0979         
H7-C5=1.0891         N8-C5=1.4496         N8-H9=1.0117         N8-C10=1.3372        H9-N8=1.0117         C10-N8=1.3372        
C10-O11=1.2269       C10-C12=1.5250       O11-C10=1.2269       C12-C10=1.5250       C12-H13=1.0982       C12-N14=1.4555       
C12-C17=1.5449       H13-C12=1.0982       N14-C12=1.4555       N14-H15=1.0142       N14-H16=1.0164       H15-N14=1.0142       
H16-N14=1.0164       C17-C12=1.5449       C17-H18=1.0904       C17-H19=1.0928       C17-C20=1.4914       H18-C17=1.0904       
H19-C17=1.0928       C20-C17=1.4914       C20-C21=1.3649       C20-C34=1.4302       C21-C20=1.3649       C21-H22=1.0732       
C21-N23=1.3681       H22-C21=1.0732       N23-C21=1.3681       N23-H24=1.0055       N23-C25=1.3640       H24-N23=1.0055       
C25-N23=1.3640       C25-C26=1.3891       C25-C34=1.4169       C26-C25=1.3891       C26-H27=1.0801       C26-C28=1.3777       
H27-C26=1.0801       C28-C26=1.3777       C28-H29=1.0797       C28-C30=1.3979       H29-C28=1.0797       C30-C28=1.3979       
C30-H31=1.0801       C30-C32=1.3759       H31-C30=1.0801       C32-C30=1.3759       C32-H33=1.0808       C32-C34=1.3958       
H33-C32=1.0808       C34-C20=1.4302       C34-C25=1.4169       C34-C32=1.3958       
 C  H  Rav=1.0862 sigma=0.0082  Rmin=1.0732  Rmax=1.0982    10
 C  C  Rav=1.4379 sigma=0.0661  Rmin=1.3649  Rmax=1.5454    12
 N  H  Rav=1.0119 sigma=0.0041  Rmin=1.0055  Rmax=1.0164     4
 N  C  Rav=1.3949 sigma=0.0483  Rmin=1.3372  Rmax=1.4555     5
 O  H  Rav=0.9981 sigma=0.0000  Rmin=0.9981  Rmax=0.9981     1
 O  C  Rav=1.2478 sigma=0.0510  Rmin=1.1985  Rmax=1.3181     3

 selected bond angles (degree)
 --------------------
H4-O1-C2=112.33                O3-C2-O1=123.36                C5-C2-O1=114.90                C5-C2-O3=121.72                
H6-C5-C2=107.11                H7-C5-C2=108.57                H7-C5-H6=109.45                N8-C5-C2=113.50                
N8-C5-H6=109.06                N8-C5-H7=109.07                H9-N8-C5=120.05                C10-N8-C5=123.77               
C10-N8-H9=116.11               O11-C10-N8=123.12              C12-C10-N8=114.20              C12-C10-O11=122.66             

 selected dihedral angles (degree)
 ---------------------------------
O3-C2-O1-H4=177.44            C5-C2-O1-H4=355.85            H6-C5-C2-O1=299.27            H6-C5-C2-O3=117.71            
H7-C5-C2-O1=181.17            H7-C5-C2-O3=359.61            N8-C5-C2-O1= 59.70            N8-C5-C2-O3=238.14            
H9-N8-C5-C2=111.38            H9-N8-C5-H6=230.71            H9-N8-C5-H7=350.20            C10-N8-C5-C2=288.27           
C10-N8-C5-H6= 47.59           C10-N8-C5-H7=167.09           O11-C10-N8-C5=  6.41          O11-C10-N8-H9=183.41          
C12-C10-N8-C5=185.04          C12-C10-N8-H9=  2.04          
           -------------------------------------------------
          |                Final Singlepoint                |
           -------------------------------------------------

          ...................................................
          :                      SETUP                      :
          :.................................................:
          :  # basis functions                  91          :
          :  # atomic orbitals                  91          :
          :  # shells                           53          :
          :  # electrons                       100          :
          :  max. iterations                   250          :
          :  Hamiltonian                  GFN2-xTB          :
          :  restarted?                      false          :
          :  GBSA solvation                  false          :
          :  PC potential                    false          :
          :  electronic temp.          300.0000000     K    :
          :  accuracy                    1.0000000          :
          :  -> integral cutoff          0.2500000E+02      :
          :  -> integral neglect         0.1000000E-07      :
          :  -> SCF convergence          0.1000000E-05 Eh   :
          :  -> wf. convergence          0.1000000E-03 e    :
          :  Broyden damping             0.4000000          :
          :  net charge                          0          :
          :  unpaired electrons                  0          :
          ...................................................

 iter      E             dE          RMSdq      gap      omega  full diag
   1    -57.2363915 -0.572364E+02  0.121E-05    3.53       0.0  T
   2    -57.2363915 -0.817124E-12  0.860E-06    3.53    1995.1  T
   3    -57.2363915 -0.123634E-11  0.508E-06    3.53    3374.3  T

   *** convergence criteria satisfied after 3 iterations ***

         #    Occupation            Energy/Eh            Energy/eV
      -------------------------------------------------------------
         1        2.0000           -0.7351331             -20.0040
       ...           ...                  ...                  ...
        44        2.0000           -0.4270965             -11.6219
        45        2.0000           -0.4264463             -11.6042
        46        2.0000           -0.4216946             -11.4749
        47        2.0000           -0.4033811             -10.9766
        48        2.0000           -0.3995452             -10.8722
        49        2.0000           -0.3916732             -10.6580
        50        2.0000           -0.3711771             -10.1002 (HOMO)
        51                         -0.2413912              -6.5686 (LUMO)
        52                         -0.2347958              -6.3891
        53                         -0.2302542              -6.2655
        54                         -0.2071696              -5.6374
        55                         -0.1684750              -4.5844
       ...                                ...                  ...
        91                          0.7086728              19.2840
      -------------------------------------------------------------
                  HL-Gap            0.1297859 Eh            3.5317 eV
             Fermi-level           -0.3062842 Eh           -8.3344 eV

 SCC (total)                   0 d,  0 h,  0 min,  0.055 sec
 SCC setup                      ...        0 min,  0.005 sec (  8.231%)
 Dispersion                     ...        0 min,  0.006 sec ( 10.957%)
 classical contributions        ...        0 min,  0.004 sec (  7.408%)
 integral evaluation            ...        0 min,  0.001 sec (  1.025%)
 iterations                     ...        0 min,  0.031 sec ( 56.295%)
 molecular gradient             ...        0 min,  0.008 sec ( 15.433%)
 printout                       ...        0 min,  0.000 sec (  0.621%)

         :::::::::::::::::::::::::::::::::::::::::::::::::::::
         ::                     SUMMARY                     ::
         :::::::::::::::::::::::::::::::::::::::::::::::::::::
         :: total energy             -56.479320216042 Eh    ::
         :: gradient norm              0.000054489346 Eh/a0 ::
         :: HOMO-LUMO gap              3.531654060138 eV    ::
         ::.................................................::
         :: SCC energy               -57.236419274567 Eh    ::
         :: -> isotropic ES            0.097835223344 Eh    ::
         :: -> anisotropic ES          0.004372619986 Eh    ::
         :: -> anisotropic XC          0.019176646546 Eh    ::
         :: -> dispersion             -0.033973326588 Eh    ::
         :: repulsion energy           0.757099058525 Eh    ::
         :: add. restraining           0.000000000000 Eh    ::
         :: total charge              -0.000000000000 e     ::
         :::::::::::::::::::::::::::::::::::::::::::::::::::::

           -------------------------------------------------
          |                Property Printout                |
           -------------------------------------------------

    * Orbital Energies and Occupations

         #    Occupation            Energy/Eh            Energy/eV
      -------------------------------------------------------------
         1        2.0000           -0.7351331             -20.0040
       ...           ...                  ...                  ...
        38        2.0000           -0.4679038             -12.7323
        39        2.0000           -0.4644648             -12.6387
        40        2.0000           -0.4638778             -12.6228
        41        2.0000           -0.4557873             -12.4026
        42        2.0000           -0.4469320             -12.1616
        43        2.0000           -0.4361545             -11.8684
        44        2.0000           -0.4270965             -11.6219
        45        2.0000           -0.4264463             -11.6042
        46        2.0000           -0.4216946             -11.4749
        47        2.0000           -0.4033811             -10.9766
        48        2.0000           -0.3995452             -10.8722
        49        2.0000           -0.3916732             -10.6580
        50        2.0000           -0.3711771             -10.1002 (HOMO)
        51                         -0.2413912              -6.5686 (LUMO)
        52                         -0.2347958              -6.3891
        53                         -0.2302542              -6.2655
        54                         -0.2071696              -5.6374
        55                         -0.1684750              -4.5844
        56                         -0.0815983              -2.2204
        57                         -0.0216791              -0.5899
        58                          0.0117018               0.3184
        59                          0.0268701               0.7312
        60                          0.0630085               1.7145
        61                          0.0813640               2.2140
       ...                                ...                  ...
        91                          0.7086728              19.2840
      -------------------------------------------------------------
                  HL-Gap            0.1297859 Eh            3.5317 eV
             Fermi-level           -0.3062842 Eh           -8.3344 eV

     #   Z          covCN         q      C6AA      α(0)
     1   8 O        1.655    -0.375    20.369     6.092
     2   6 C        2.684     0.358    20.924     7.486
     3   8 O        0.856    -0.377    21.223     6.177
     4   1 H        0.800     0.364     0.556     1.172
     5   6 C        3.737    -0.040    21.368     6.597
     6   1 H        0.924     0.076     2.023     2.224
     7   1 H        0.925     0.078     1.998     2.211
     8   7 N        2.687    -0.164    24.540     7.357
     9   1 H        0.860     0.205     1.079     1.628
    10   6 C        2.754     0.261    22.595     7.784
    11   8 O        0.859    -0.459    22.895     6.415
    12   6 C        3.789     0.028    20.117     6.388
    13   1 H        0.923     0.056     2.249     2.345
    14   7 N        2.631    -0.355    29.161     8.020
    15   1 H        0.860     0.156     1.359     1.826
    16   1 H        0.860     0.149     1.409     1.860
    17   6 C        3.805    -0.065    21.739     6.637
    18   1 H        0.924     0.060     2.194     2.317
    19   1 H        0.924     0.041     2.442     2.444
    20   6 C        3.056    -0.033    28.769     8.796
    21   6 C        3.033    -0.009    28.200     8.710
    22   1 H        0.926     0.034     2.535     2.490
    23   7 N        2.778    -0.103    23.263     7.163
    24   1 H        0.860     0.159     1.341     1.814
    25   6 C        3.086     0.043    26.934     8.507
    26   6 C        2.908    -0.052    29.302     8.876
    27   1 H        0.926     0.024     2.671     2.556
    28   6 C        2.924    -0.036    28.899     8.816
    29   1 H        0.926     0.029     2.602     2.523
    30   6 C        2.919    -0.042    29.052     8.839
    31   1 H        0.926     0.026     2.641     2.541
    32   6 C        2.912    -0.038    28.941     8.822
    33   1 H        0.926     0.021     2.725     2.582
    34   6 C        3.117    -0.020    28.348     8.721

 Mol. C6AA /au·bohr⁶  :      13330.032056
 Mol. C8AA /au·bohr⁸  :     312418.092530
 Mol. α(0) /au        :        178.735116


Wiberg/Mayer (AO) data.
largest (>0.10) Wiberg bond orders for each atom

 ---------------------------------------------------------------------------
     #   Z sym  total        # sym  WBO       # sym  WBO       # sym  WBO
 ---------------------------------------------------------------------------
     1   8 O    2.233 --     2 C    1.200     4 H    0.770     3 O    0.183
     2   6 C    3.932 --     3 O    1.774     1 O    1.200     5 C    0.924
     3   8 O    2.067 --     2 C    1.774     1 O    0.183
     4   1 H    0.867 --     1 O    0.770
     5   6 C    3.963 --     8 N    0.991     7 H    0.974     6 H    0.952
                             2 C    0.924
     6   1 H    0.994 --     5 C    0.952
     7   1 H    0.994 --     5 C    0.974
     8   7 N    3.478 --    10 C    1.309     5 C    0.991     9 H    0.915
                            11 O    0.193
     9   1 H    0.958 --     8 N    0.915
    10   6 C    3.947 --    11 O    1.605     8 N    1.309    12 C    0.950
    11   8 O    2.009 --    10 C    1.605     8 N    0.193
    12   6 C    3.982 --    14 N    1.020    17 C    0.958    10 C    0.950
                            13 H    0.944
    13   1 H    0.997 --    12 C    0.944
    14   7 N    3.029 --    12 C    1.020    16 H    0.960    15 H    0.958
    15   1 H    0.975 --    14 N    0.958
    16   1 H    0.978 --    14 N    0.960
    17   6 C    3.993 --    20 C    1.018    19 H    0.971    18 H    0.967
                            12 C    0.958
    18   1 H    0.996 --    17 C    0.967
    19   1 H    0.998 --    17 C    0.971
    20   6 C    3.975 --    21 C    1.579    34 C    1.205    17 C    1.018
    21   6 C    3.950 --    20 C    1.579    23 N    1.197    22 H    0.970
    22   1 H    0.998 --    21 C    0.970
    23   7 N    3.545 --    21 C    1.197    25 C    1.178    24 H    0.947
    24   1 H    0.974 --    23 N    0.947
    25   6 C    3.958 --    26 C    1.338    34 C    1.245    23 N    1.178
    26   6 C    3.989 --    28 C    1.494    25 C    1.338    27 H    0.968
                            32 C    0.113
    27   1 H    0.999 --    26 C    0.968
    28   6 C    3.991 --    26 C    1.494    30 C    1.370    29 H    0.972
    29   1 H    0.999 --    28 C    0.972
    30   6 C    3.991 --    32 C    1.505    28 C    1.370    31 H    0.972
    31   1 H    0.999 --    30 C    0.972
    32   6 C    3.992 --    30 C    1.505    34 C    1.330    33 H    0.968
                            26 C    0.113
    33   1 H    0.999 --    32 C    0.968
    34   6 C    3.983 --    32 C    1.330    25 C    1.245    20 C    1.205
 ---------------------------------------------------------------------------

Topologies differ in total number of bonds
Writing topology from bond orders to xtbtopo.mol

molecular dipole:
                 x           y           z       tot (Debye)
 q only:        1.954      -0.948       0.169
   full:        2.752      -1.170       0.424       7.676
molecular quadrupole (traceless):
                xx          xy          yy          xz          yz          zz
 q only:      -31.501       6.187       9.358      -1.285      -6.280      22.143
  q+dip:      -40.024       5.009      11.032      -4.046     -11.996      28.992
   full:      -40.172       6.523      12.438      -3.198     -11.188      27.734

           -------------------------------------------------
          |                Geometry Summary                 |
           -------------------------------------------------

      molecular mass/u    :      261.2770023
   center of mass at/Å    :        0.0000000       0.0000000      -0.0000000
  moments of inertia/u·Å² :        0.4387854E+03   0.3513611E+04   0.3769706E+04
rotational constants/cm⁻¹ :        0.3841886E-01   0.4797808E-02   0.4471869E-02

 * 32 selected distances

     #   Z          #   Z                                           value/Å
     1   8 O        2   6 C                                       1.3181135
     2   6 C        3   8 O                                       1.1984560
     1   8 O        4   1 H                                       0.9981492 (min)
     5   6 C        6   1 H                                       1.0978738
     5   6 C        7   1 H                                       1.0891380
     5   6 C        8   7 N                                       1.4495884
     8   7 N        9   1 H                                       1.0116944
     8   7 N       10   6 C                                       1.3371524
    10   6 C       11   8 O                                       1.2269356
    12   6 C       13   1 H                                       1.0981942
    12   6 C       14   7 N                                       1.4554926
    14   7 N       15   1 H                                       1.0142413
    14   7 N       16   1 H                                       1.0163611
    17   6 C       18   1 H                                       1.0904400
    17   6 C       19   1 H                                       1.0928006
    17   6 C       20   6 C                                       1.4913582 (max)
    20   6 C       21   6 C                                       1.3649318
    21   6 C       22   1 H                                       1.0732413
    21   6 C       23   7 N                                       1.3680885
    23   7 N       24   1 H                                       1.0054513
    23   7 N       25   6 C                                       1.3640246
    25   6 C       26   6 C                                       1.3891371
    26   6 C       27   1 H                                       1.0800839
    26   6 C       28   6 C                                       1.3777126
    28   6 C       29   1 H                                       1.0796916
    28   6 C       30   6 C                                       1.3978508
    30   6 C       31   1 H                                       1.0800766
    30   6 C       32   6 C                                       1.3759236
    32   6 C       33   1 H                                       1.0807794
    20   6 C       34   6 C                                       1.4301992
    25   6 C       34   6 C                                       1.4168558
    32   6 C       34   6 C                                       1.3957992

 * 6 distinct bonds (by element types)

   Z      Z             #   av. dist./Å        max./Å        min./Å
   1 H    6 C          10     1.0862319     1.0981942     1.0732413
   6 C    6 C           9     1.4044187     1.4913582     1.3649318
   1 H    7 N           4     1.0119370     1.0163611     1.0054513
   6 C    7 N           5     1.3948693     1.4554926     1.3371524
   1 H    8 O           1     0.9981492     0.9981492     0.9981492
   6 C    8 O           3     1.2478350     1.3181135     1.1984560


optimized geometry written to: xtbopt.xyz


           -------------------------------------------------
          | TOTAL ENERGY              -56.479320216042 Eh   |
          | GRADIENT NORM               0.000054489346 Eh/α |
          | HOMO-LUMO GAP               3.531654060138 eV   |
           -------------------------------------------------

------------------------------------------------------------------------
 * finished run on 2026/10/01 at 18:03:22.373     
------------------------------------------------------------------------
 total:
 * wall-time:     0 d,  0 h,  0 min,  0.451 sec
 *  cpu-time:     0 d,  0 h,  0 min,  6.277 sec
 * ratio c/w:    13.932 speedup
 SCF:
 * wall-time:     0 d,  0 h,  0 min,  0.212 sec
 *  cpu-time:     0 d,  0 h,  0 min,  2.943 sec
 * ratio c/w:    13.913 speedup
 ANC optimizer:
 * wall-time:     0 d,  0 h,  0 min,  0.202 sec
 *  cpu-time:     0 d,  0 h,  0 min,  2.859 sec
 * ratio c/w:    14.151 speedup


--- STDERR ---
normal termination of xtb
Note: The following floating-point exceptions are signalling: IEEE_UNDERFLOW_FLAG IEEE_DENORMAL
