34
frame_0015
O      -2.657066275600000      2.800231915700000     -0.447636419700000
C      -2.013675645300000      2.586934783300000     -1.576482370500000
O      -2.256150218400000      3.171970576200000     -2.594765059100000
H      -2.347735307900000      2.192249093600000      0.284657220300000
C      -0.875754507200000      1.544923278600000     -1.493529515100000
H      -0.129396073100000      1.929717895300000     -0.785619402300000
H      -0.419911270400000      1.452126171400000     -2.478428789200000
N      -1.303883281200000      0.234074097100000     -1.048141311300000
H      -1.321098580900000     -0.536035453200000     -1.701710274200000
C      -1.669298304700000     -0.045128978600000      0.205197490700000
O      -1.839550796800000      0.814829398300000      1.065116712100000
C      -1.845499021200000     -1.525971870200000      0.515834868700000
H      -2.847440617800000     -1.639667535500000      0.942196407900000
N      -1.750287417200000     -2.322647498800000     -0.696782397000000
H      -2.246782304400000     -3.198674561200000     -0.586414568800000
H      -0.773120089500000     -2.548339571600000     -0.873320674900000
C      -0.800889160100000     -1.909072977700000      1.601876676600000
H      -1.021851034000000     -2.917286443300000      1.959904811900000
H      -0.901714694000000     -1.209704335700000      2.431730559100000
C       0.580377939400000     -1.859322760200000      1.040705960400000
C       1.254907785000000     -2.892607817100000      0.452343868500000
H       0.972288169000000     -3.925561512400000      0.361754665800000
N       2.460581816800000     -2.458774860600000     -0.029712908200000
H       3.153809153300000     -3.035556930200000     -0.474195391200000
C       2.589882351000000     -1.126280521200000      0.239137550700000
C       3.624332623900000     -0.246400914300000     -0.053842473800000
H       4.510876142800000     -0.582024042600000     -0.571562928300000
C       3.477848587000000      1.063813236600000      0.345504008800000
H       4.261008181900000      1.776259184800000      0.133743187300000
C       2.335869234800000      1.489944812500000      1.030154582800000
H       2.266761967700000      2.523450831900000      1.336275212700000
C       1.308380393900000      0.622821845700000      1.326004209200000
H       0.436249355700000      0.961918274400000      1.863016879900000
C       1.419621683200000     -0.706669343500000      0.915986608000000
