34
 energy: -56.480728449346 gnorm: 0.000062151860 xtb: 6.7.1-6.fc44.fc44
O           -2.65706627560000        2.80023191570000       -0.44763641970000
C           -2.01367564530000        2.58693478330000       -1.57648237050000
O           -2.25615021840000        3.17197057620000       -2.59476505910000
H           -2.34773530790000        2.19224909360000        0.28465722030000
C           -0.87575450720000        1.54492327860000       -1.49352951510000
H           -0.12939607310000        1.92971789530000       -0.78561940230000
H           -0.41991127040000        1.45212617140000       -2.47842878920000
N           -1.30388328120000        0.23407409710000       -1.04814131130000
H           -1.32109858090000       -0.53603545320000       -1.70171027420000
C           -1.66929830470000       -0.04512897860000        0.20519749070000
O           -1.83955079680000        0.81482939830000        1.06511671210000
C           -1.84549902120000       -1.52597187020000        0.51583486870000
H           -2.84744061780000       -1.63966753550000        0.94219640790000
N           -1.75028741720000       -2.32264749880000       -0.69678239700000
H           -2.24678230440000       -3.19867456120000       -0.58641456880000
H           -0.77312008950000       -2.54833957160000       -0.87332067490000
C           -0.80088916010000       -1.90907297770000        1.60187667660000
H           -1.02185103400000       -2.91728644330000        1.95990481190000
H           -0.90171469400000       -1.20970433570000        2.43173055910000
C            0.58037793940000       -1.85932276020000        1.04070596040000
C            1.25490778500000       -2.89260781710000        0.45234386850000
H            0.97228816900000       -3.92556151240000        0.36175466580000
N            2.46058181680000       -2.45877486060000       -0.02971290820000
H            3.15380915330000       -3.03555693020000       -0.47419539120000
C            2.58988235100000       -1.12628052120000        0.23913755070000
C            3.62433262390000       -0.24640091430000       -0.05384247380000
H            4.51087614280000       -0.58202404260000       -0.57156292830000
C            3.47784858700000        1.06381323660000        0.34550400880000
H            4.26100818190000        1.77625918480000        0.13374318730000
C            2.33586923480000        1.48994481250000        1.03015458280000
H            2.26676196770000        2.52345083190000        1.33627521270000
C            1.30838039390000        0.62282184570000        1.32600420920000
H            0.43624935570000        0.96191827440000        1.86301687990000
C            1.41962168320000       -0.70666934350000        0.91598660800000
