34
frame_0049
O      -0.933368375600000      2.181236724300000      0.575358044900000
C      -1.763147017700000      2.401272284600000     -0.426201702200000
O      -1.529233879700000      3.182190060900000     -1.307064601000000
H      -1.214277221900000      1.408533210100000      1.137741752200000
C      -3.061135230500000      1.566096264600000     -0.390260525600000
H      -3.735682883700000      1.917268326900000     -1.169778934900000
H      -3.529379934500000      1.694481890500000      0.593020441400000
N      -2.770584331300000      0.162591728900000     -0.603871264000000
H      -3.013020846800000     -0.288992991400000     -1.475814775200000
C      -2.133552538900000     -0.591879201700000      0.299132200400000
O      -1.796118705700000     -0.170400197500000      1.399148443700000
C      -1.840614565600000     -2.017418869800000     -0.160102331500000
H      -2.462541220900000     -2.681780626900000      0.450999812400000
N      -2.230974340000000     -2.195005354000000     -1.555774975000000
H      -2.417328434800000     -3.172534316100000     -1.746768914900000
H      -1.466938389600000     -1.915551397100000     -2.162656070800000
C      -0.355140774900000     -2.311035448500000      0.133880110500000
H      -0.067149645500000     -3.234678441700000     -0.381673582000000
H      -0.243323318600000     -2.481535180400000      1.205829319100000
C       0.561913492100000     -1.185242866100000     -0.241782459200000
C       0.403799413500000     -0.200924983200000     -1.175859042600000
H      -0.386515667600000     -0.026431541400000     -1.882065637600000
N       1.465448357500000      0.661561981100000     -1.143261361100000
H       1.523996585500000      1.518213650300000     -1.666721998600000
C       2.332082774700000      0.260739122600000     -0.171611647700000
C       3.539884075100000      0.807116033400000      0.244344855900000
H       3.928736011400000      1.706311201500000     -0.209866337100000
C       4.215985926600000      0.162076695600000      1.256142753200000
H       5.157198334800000      0.559350709600000      1.606452134200000
C       3.708077747900000     -1.000792297000000      1.843156833300000
H       4.271006472500000     -1.474988869400000      2.633863168200000
C       2.512561141900000     -1.546626059600000      1.435776106600000
H       2.130558807200000     -2.445550174800000      1.896669828000000
C       1.803991092700000     -0.913918586100000      0.414333017000000
