34
 energy: -56.477626143774 gnorm: 0.000106653587 xtb: 6.7.1-6.fc44.fc44
O           -0.93336837560000        2.18123672430000        0.57535804490000
C           -1.76314701770000        2.40127228460000       -0.42620170220000
O           -1.52923387970000        3.18219006090000       -1.30706460100000
H           -1.21427722190000        1.40853321010000        1.13774175220000
C           -3.06113523050000        1.56609626460000       -0.39026052560000
H           -3.73568288370000        1.91726832690000       -1.16977893490000
H           -3.52937993450000        1.69448189050000        0.59302044140000
N           -2.77058433130000        0.16259172890000       -0.60387126400000
H           -3.01302084680000       -0.28899299140000       -1.47581477520000
C           -2.13355253890000       -0.59187920170000        0.29913220040000
O           -1.79611870570000       -0.17040019750000        1.39914844370000
C           -1.84061456560000       -2.01741886980000       -0.16010233150000
H           -2.46254122090000       -2.68178062690000        0.45099981240000
N           -2.23097434000000       -2.19500535400000       -1.55577497500000
H           -2.41732843480000       -3.17253431610000       -1.74676891490000
H           -1.46693838960000       -1.91555139710000       -2.16265607080000
C           -0.35514077490000       -2.31103544850000        0.13388011050000
H           -0.06714964550000       -3.23467844170000       -0.38167358200000
H           -0.24332331860000       -2.48153518040000        1.20582931910000
C            0.56191349210000       -1.18524286610000       -0.24178245920000
C            0.40379941350000       -0.20092498320000       -1.17585904260000
H           -0.38651566760000       -0.02643154140000       -1.88206563760000
N            1.46544835750000        0.66156198110000       -1.14326136110000
H            1.52399658550000        1.51821365030000       -1.66672199860000
C            2.33208277470000        0.26073912260000       -0.17161164770000
C            3.53988407510000        0.80711603340000        0.24434485590000
H            3.92873601140000        1.70631120150000       -0.20986633710000
C            4.21598592660000        0.16207669560000        1.25614275320000
H            5.15719833480000        0.55935070960000        1.60645213420000
C            3.70807774790000       -1.00079229700000        1.84315683330000
H            4.27100647250000       -1.47498886940000        2.63386316820000
C            2.51256114190000       -1.54662605960000        1.43577610660000
H            2.13055880720000       -2.44555017480000        1.89666982800000
C            1.80399109270000       -0.91391858610000        0.41433301700000
