68
frame_0006
O       0.977069324689240     -0.447426810713339      1.493519213677003
O       0.844068224224996     -1.038170550090863     -1.782092153524953
O      -3.292199039706385     -2.623925038419638      0.126482561473652
O      -3.153378900136060      3.243602488656101      0.113659720395998
O      -1.476692476435324      1.794722831394844     -1.465793011379998
O       2.097620875783389      2.680886888874863      1.335189838273289
N       0.366237224869799     -2.672880994730319     -0.440734517300007
N      -2.230104558795776     -0.754584726644024     -0.914653078874097
N      -3.707240718484088      0.991361730615396      0.168612191322275
N      -0.503936769316440      2.170434114899874      0.677489946465069
N       1.918004819421350      1.731426053940211     -0.761830992393895
N       3.223725377090221     -0.582617537690608      0.446870854458010
C       1.945883734887302     -0.808271964809117      0.771744180993664
C       1.698232840737776     -2.545388055169690      0.395056979967412
C       1.652469502204956     -3.389965015270769      1.621839566435595
C       0.535179724741392     -4.522065338057415      1.268847130584671
C      -0.371664058089020     -3.488650583781487      0.453233243956086
C      -0.011673159354410     -1.658457031655882     -1.193129311150833
C      -1.374397085431921     -1.916881424303473     -1.885924745924196
C      -1.241342291517819     -1.116334206326685     -3.245098743987189
C      -3.127106967064849     -1.361414124865860     -0.132235932517806
C      -4.025022426214115     -0.197742232307080      0.879154983005455
C      -5.292483518204007     -0.851754741347167      0.959773798415716
C      -3.051023218267184      2.015615368829305      0.573116522605923
C      -1.551056916892201      1.784388905703330      1.260582918040274
C      -1.678703591012073      2.058000487476525      2.808080643730782
C      -0.520845507744590      2.357499619074329     -0.775866639020296
C       0.804336013291435      2.624139577073552     -1.145461883571489
C       0.824391967826014      2.887628847199125     -2.926085169961218
C       2.489491098288308      1.832653166885062      0.531183038097836
C       3.466323818309847      0.908982605566213      0.899001942905351
C       4.616198621081688      1.146571382040900      0.136756648747062
C       5.320550072492845     -0.107492692245846      0.031034204200332
C       4.386435111494316     -1.262479842354904     -0.148932295142055
H       2.419838593093816     -2.717014022441698     -0.306185631853372
H       2.587904739702270     -3.869860812531900      1.989561269158365
H       0.860705266046860     -2.713302619261757      2.424091418989747
H       1.081178068329613     -5.168931828382711      0.434859981382012
H       0.060303176236686     -5.068458060561591      1.968860674621755
H      -0.684866728702426     -4.193360911206436     -0.502301710582509
H      -1.234445813178442     -3.249871476174769      0.673645094584610
H      -2.005597479170745     -0.108626709873619     -0.931710187853938
H      -1.623843496421703     -2.867196709093038     -1.640131068325930
H      -2.300524004389696     -1.363258291751506     -3.447475998200975
H      -0.666908400423141     -1.664384763611179     -3.746572290253180
H      -1.070670596405475      0.035625247472993     -3.100056322704822
H      -4.561818019031912      1.422355532289412     -0.311484140589043
H      -3.430961042403832     -0.311721111691754      1.749217502550990
H      -5.850363121594180     -0.213626182092679      1.552557136910624
H      -5.406025131170847     -1.719607116400252      1.263502015053262
H      -5.793346042587702     -0.761940172892195      0.011464788633893
H       0.213185243840557      2.709758089737690      1.282050621447987
H      -1.455957976737047      0.727824192262733      1.456228336859158
H      -2.485686778287584      1.798872256981458      3.370270967298595
H      -2.113935890100840      3.490949303239953      2.608240825760954
H      -1.095247728563906      2.410369714736559      3.163029873795807
H       1.922474015064222      0.883366547115874     -1.168927328254265
H       0.981593149114264      3.427182244989451     -0.821443428961873
H       1.914006122680219      3.102338513425326     -3.161322187706230
H       0.285692807749699      3.418150679604425     -3.012839710903991
H       0.816871988109029      1.534698048886385     -3.217327942577389
H       3.594924671678171      0.971562044459930      1.900827128779842
H       5.448472596062261      1.798069202046282      0.695486071361346
H       4.555502081161173      1.595589990832331     -0.835475538729512
H       6.090519915364225     -0.490140083292255      1.178348553419632
H       6.409617060669059     -0.402597513630943     -0.585742521445739
H       3.931077735579638     -1.163448521886351     -1.399554951108557
H       4.419657347394951     -2.112433850194306      0.075939048464134
