68
 energy: -106.573014688812 gnorm: 0.000720414348 xtb: 6.7.1-6.fc44.fc44
O            1.08533606981652       -0.34123274441327        1.33868694446155
O            0.90613984311469       -0.84004870132153       -1.59806375519898
O           -3.25345828983618       -2.58341886684599        0.12688883465399
O           -3.26242668696435        3.16104424039418        0.18934097303409
O           -1.29887976873153        1.64031004923226       -1.40398569593996
O            2.16680951026463        2.81563175145856        1.25634782893379
N            0.38494604696295       -2.55852267626957       -0.28116149175328
N           -2.19467406471601       -0.89036949939331       -0.92966272229579
N           -3.81211978017590        0.99778019761592        0.27140318801572
N           -0.60040681009552        2.32058422006028        0.63038980741243
N            1.91762760898497        1.73962761644862       -0.71672434725093
N            3.16435544591824       -0.50983868668899        0.51291596313536
C            1.93933080453231       -0.99915215984835        0.76983968523436
C            1.67805043584104       -2.45643474598906        0.38258332899693
C            1.51492663104191       -3.34329983039510        1.61654928633634
C            0.57581319975037       -4.43784976890573        1.11948942295621
C           -0.39751449050737       -3.67600575969077        0.22071434663774
C            0.07547351845908       -1.66299024531155       -1.22560446761131
C           -1.35165052310968       -1.70371139424439       -1.78586303556354
C           -1.38061503257785       -1.14556907348202       -3.20336169957140
C           -3.06927160120033       -1.39114422186436       -0.05723591990542
C           -3.84229076596675       -0.35057807969508        0.78621785510833
C           -5.29323591142238       -0.80902124710136        0.92864410071044
C           -2.99051932432997        2.03675181829322        0.55064227991501
C           -1.71645653710109        1.74440243882348        1.35730289538743
C           -1.81803382833520        2.40318662902936        2.72773874266878
C           -0.45834614500429        2.16161814767740       -0.68498133450802
C            0.89505758544791        2.64455255692532       -1.21929801913903
C            0.92230619437836        2.64677220490633       -2.73855149981062
C            2.42467698721237        1.87998650724660        0.51816442888376
C            3.49518332239604        0.85716460599116        0.89363411964501
C            4.80903687811731        1.13907678710846        0.15993308735948
C            5.45755653962477       -0.23892463461506        0.08233632973598
C            4.26757095951103       -1.16399105138711       -0.16860481718354
H            2.45301902045014       -2.83532425106412       -0.29170936437839
H            2.46644255129103       -3.72593540689454        1.98096577879997
H            1.03544848886659       -2.76279738155821        2.40611253267517
H            1.13517133501129       -5.17189049911051        0.53690944567445
H            0.06468405041295       -4.95273539060692        1.92940164622797
H           -0.75605455403072       -4.29630246903522       -0.60407107674961
H           -1.26593330176988       -3.32218439953979        0.78088324729914
H           -2.06266526985985        0.11919088072468       -1.03863841804560
H           -1.74174739272210       -2.72557855369565       -1.75343648172635
H           -2.38381831418618       -1.22222118848977       -3.61385978574943
H           -0.69019040608946       -1.69431120116205       -3.83881757080690
H           -1.08680561629242       -0.09959454233498       -3.17849307751502
H           -4.59123964041580        1.25102828053796       -0.32250846132478
H           -3.37699258248164       -0.36883020503388        1.77976838167595
H           -5.82222953033112       -0.18701076996356        1.64620599494441
H           -5.30921453332173       -1.84212800248761        1.26425628548248
H           -5.79970388918517       -0.75376293073060       -0.03274169268277
H            0.16984227292855        2.70032629238917        1.17007766109234
H           -1.54013841621680        0.66673377813092        1.45970954601227
H           -2.62967925390626        1.96160671209227        3.30090128543411
H           -2.01422892933240        3.46540746256872        2.60396353142137
H           -0.88745629085704        2.26773081767816        3.27264160860164
H            1.91768754309509        0.82554658722559       -1.15824864066178
H            1.10829460905016        3.63869087511337       -0.81145609324292
H            1.87523651643756        3.02274904597533       -3.10174501377783
H            0.11954254538428        3.27197397064639       -3.11792920845160
H            0.77293018511050        1.63297999094938       -3.10227731076747
H            3.62468032181600        0.91632458905435        1.98219413870539
H            5.41844806499131        1.86998698152053        0.68534287758494
H            4.59514949978961        1.51326000668288       -0.84221149487974
H            5.92710567775528       -0.48551789235957        1.03495820895025
H            6.20523887026442       -0.30940530301281       -0.70460422602902
H            4.05131832608980       -1.24372136528605       -1.24076639939817
H            4.44823349843010       -2.16232889411714        0.23557950413985
