68
 energy: -106.573894676338 gnorm: 0.000847771066 xtb: 6.7.1-6.fc44.fc44
O            1.09643466082739       -0.43179447165633        1.27357994683350
O            0.86594902952336       -0.82936318498603       -1.71613757827910
O           -3.25229682695336       -2.56445130731453        0.14780079923746
O           -3.24466422906513        3.17295817086522        0.16432902269471
O           -1.30489651154389        1.62808405008041       -1.44623254692979
O            2.13935578501062        2.81664626830244        1.25143697851601
N            0.42030531410058       -2.54664972987494       -0.37466755830441
N           -2.23009947736313       -0.88892515103356       -0.96785380676342
N           -3.83903032944619        1.02004074772318        0.21443990178813
N           -0.60410609239342        2.27025617330709        0.59920977425968
N            1.92434828073047        1.71715390527399       -0.71153366290059
N            3.20064345850027       -0.49711696642509        0.49729025853584
C            1.98185196977468       -1.03130885275522        0.69043376305899
C            1.77386151755617       -2.45338507936562        0.15621286852240
C            1.82828946839313       -3.49315155114548        1.28226642674260
C            0.35765466006908       -3.67438265540724        1.65409056902854
C           -0.34104695695169       -3.57782621824664        0.30210625100643
C            0.05560421820740       -1.65030197194570       -1.29837340451825
C           -1.38859919078120       -1.71579718046004       -1.81239174890496
C           -1.45270217288557       -1.19466557035721       -3.24372481896213
C           -3.09343793626080       -1.37359653085748       -0.07788122467975
C           -3.90039088088005       -0.32924497371205        0.72434604699864
C           -5.35876893872332       -0.78271685220373        0.78509366294458
C           -2.99867635745759        2.03865967448577        0.51141593460573
C           -1.73272419764563        1.70669281402372        1.31595560907417
C           -1.82255580967989        2.34469962892931        2.69667406716865
C           -0.45986709475059        2.12788305722995       -0.71788387482529
C            0.90074294945673        2.60564768882465       -1.24119753388184
C            0.94535330084492        2.57850411389740       -2.75975073814638
C            2.41533059979570        1.87466296147212        0.52700348590395
C            3.48005002559536        0.86079695185525        0.94203372724634
C            4.83392537198036        1.18827764793912        0.30554701271235
C            5.50756188628137       -0.17750105756955        0.21987019537245
C            4.35014477086055       -1.10357986008030       -0.15026651593666
H            2.48563807212518       -2.65940913783301       -0.64824018829493
H            2.24630854828681       -4.42904580046208        0.90800120375474
H            2.43162508879073       -3.14992093874547        2.12133899041148
H            0.16069039213317       -4.61621720383569        2.16088006567154
H            0.03583934945093       -2.84933715372621        2.28931627332455
H           -0.24207621250654       -4.52224442314709       -0.25005680390087
H           -1.39704834634786       -3.32734750748054        0.38996859884106
H           -2.10308825919277        0.11899714162020       -1.09917121008867
H           -1.75839404340583       -2.74423784327980       -1.75147522003059
H           -2.46550590967736       -1.28202154660573       -3.62727536742515
H           -0.77830259085219       -1.75971255926907       -3.88170566990826
H           -1.15709923331120       -0.14878569767827       -3.25350601508577
H           -4.61152961713744        1.29590608040176       -0.37785557101189
H           -3.49068665369108       -0.35263210683835        1.74220270560997
H           -5.92588159525488       -0.15566238440645        1.46829577626232
H           -5.39732459751974       -1.81381461637180        1.12512475373711
H           -5.80857789984672       -0.73055528319362       -0.20455405017180
H            0.15868060692771        2.65746705898398        1.14386159765784
H           -1.58084695290036        0.62365679817418        1.40060775439317
H           -2.62963028317921        1.89480273064282        3.27021049084574
H           -2.01808247863352        3.40936536779376        2.59092312551902
H           -0.88687300538381        2.20144268657905        3.23210569849663
H            1.94818973156149        0.80513964220746       -1.15594965552450
H            1.10187087560037        3.60877159734631       -0.84903531690953
H            0.14275340788164        3.19036945242764       -3.16027498223840
H            0.80623278237055        1.55614562743622       -3.10288102891595
H            1.89951813535705        2.95372796078192       -3.12035557511754
H            3.53697301002583        0.89144402546426        2.03794216008140
H            5.39555899678645        1.90776641672335        0.89568586648900
H            4.67969850475755        1.59692718804967       -0.69449559104536
H            5.91261818495054       -0.45699708652690        1.19290524883651
H            6.30908379991326       -0.20736641972337       -0.51464710028026
H            4.20387675741386       -1.12664983443498       -1.23721792988629
H            4.51405484508028       -2.12154935651495        0.20967335247200
