34
frame_0045
O      -0.514211519200000      1.489339471100000     -1.594066058000000
C      -0.524728112500000      2.194684972500000     -0.478279697200000
O       0.270968342400000      3.057684175400000     -0.239978844100000
H      -1.235259266300000      0.799683538100000     -1.600351626100000
C      -1.688745934700000      1.871382899100000      0.484719582900000
H      -2.621789572200000      2.069908493300000     -0.057750318800000
H      -1.619783665100000      2.538208878500000      1.343045874800000
N      -1.714430032500000      0.498580676500000      0.956690077300000
H      -1.404233892200000      0.325823842600000      1.898211267900000
C      -2.024541775700000     -0.536899240900000      0.162546365500000
O      -2.254639934700000     -0.394278351500000     -1.032833035100000
C      -2.045141882300000     -1.902974992600000      0.836954030600000
H      -2.618743183600000     -1.837176810700000      1.772239945100000
N      -2.733899678300000     -2.825947393500000     -0.034904210100000
H      -2.438249425700000     -3.781383662800000      0.122310799300000
H      -2.558860367400000     -2.576943938100000     -1.003230207000000
C      -0.570044239900000     -2.286235191500000      1.178851018600000
H      -0.485369170000000     -3.375714153800000      1.144557263300000
H      -0.337414779000000     -1.970735515000000      2.196848340500000
C       0.401581643200000     -1.650404271300000      0.237774218200000
C       0.605187728900000     -1.948793684800000     -1.079508676600000
H       0.161988460500000     -2.722782222900000     -1.677122220700000
N       1.521020322400000     -1.090648790900000     -1.619314543600000
H       1.803171982300000     -1.070953831900000     -2.583817460300000
C       1.920751256600000     -0.203960863900000     -0.662854983000000
C       2.813021063300000      0.858071390700000     -0.731584650600000
H       3.315605968800000      1.101737251500000     -1.655088100600000
C       3.017617699800000      1.594573872100000      0.413075144900000
H       3.693964443600000      2.434764990000000      0.393379362000000
C       2.359330232800000      1.281392292700000      1.605249070000000
H       2.548548167200000      1.884625040800000      2.480680071800000
C       1.474573115100000      0.231297104600000      1.680067183300000
H       0.979925132400000     -0.003875229400000      2.613399940600000
C       1.238685138400000     -0.528915612800000      0.533278621900000
