37
frame_0027
O      -3.344213281600000      1.949139398400000      1.210364427800000
C      -3.565764124100000      0.935097406300000      0.612611323300000
O      -3.736932758300000      0.895390401600000     -0.698278956700000
H      -3.862508333700000     -0.030254300700000     -1.035434024800000
C      -3.683926299400000     -0.430743204300000      1.320236765600000
H      -4.671037683200000     -0.847309668600000      1.084822830600000
H      -3.595117054700000     -0.280436376800000      2.395168092800000
N      -2.662670976000000     -1.368512176900000      0.893440263900000
H      -1.852657204500000     -1.525750493500000      1.494828981000000
C      -2.669017297000000     -1.938354807700000     -0.314043180400000
O      -3.515335579800000     -1.710210040100000     -1.170679782000000
C      -1.499632345700000     -2.897614380000000     -0.548241200000000
H      -1.664427455600000     -3.434784762300000     -1.481712242800000
H      -1.446145349000000     -3.604871339700000      0.286143006800000
N      -0.250323334900000     -2.172313016200000     -0.627437988100000
H       0.175660712400000     -1.976842704600000     -1.524258161600000
C       0.386792465300000     -1.680170273000000      0.444145622200000
O      -0.029212638800000     -1.788373195300000      1.588385749400000
C       1.655334697800000     -0.911698539300000      0.099703314800000
N       2.152581927100000     -1.328710005000000     -1.204514988700000
H       2.625758708900000     -2.223567880100000     -1.135018782500000
H       2.825893768400000     -0.650228898000000     -1.546558573200000
H       2.375543288500000     -1.065458882500000      0.919518420400000
C       1.278456907500000      0.585338333600000      0.062844939800000
H       0.584300724600000      0.749065897200000     -0.763312194900000
H       0.777476110100000      0.836722510500000      0.999112239100000
C       2.508011790400000      1.430242036900000     -0.111945197900000
C       2.858580014800000      1.928457936500000     -1.360483240800000
H       2.213058060600000      1.747177800900000     -2.208564132000000
C       4.018772021700000      2.666641647700000     -1.523612709300000
H       4.277441508900000      3.051093962900000     -2.499320401200000
C       4.843275075900000      2.912458008300000     -0.439796779000000
H       5.747701239400000      3.488646366900000     -0.566216577200000
C       4.500571855900000      2.421434272600000      0.809283937800000
H       5.137705566300000      2.615107361500000      1.659594696300000
C       3.341976296700000      1.683929674100000      0.970885706300000
H       3.074785302500000      1.304755760800000      1.946939884500000
