68
 energy: -106.573014688811 gnorm: 0.000720413830 xtb: 6.7.1-6.fc44.fc44
O            1.08533606920701       -0.34123274514590        1.33868694510691
O            0.90613984391158       -0.84004870157533       -1.59806375507040
O           -3.25345828882592       -2.58341886685145        0.12688883550176
O           -3.26242668810753        3.16104424072834        0.18934097337585
O           -1.29887976924377        1.64031005016258       -1.40398569684186
O            2.16680950842096        2.81563175081395        1.25634783018373
N            0.38494604723283       -2.55852267652698       -0.28116149190789
N           -2.19467406369689       -0.89036949935975       -0.92966272156839
N           -3.81211977992059        0.99778019751945        0.27140318716175
N           -0.60040681037256        2.32058422010609        0.63038980672877
N            1.91762760865643        1.73962761688350       -0.71672434679241
N            3.16435544538795       -0.50983868668854        0.51291596376843
C            1.93933080414518       -0.99915216020273        0.76983968579027
C            1.67805043593489       -2.45643474646568        0.38258332923715
C            1.51492663088577       -3.34329983135504        1.61654928612999
C            0.57581319966596       -4.43784976961364        1.11948942218114
C           -0.39751449048356       -3.67600575999288        0.22071434608857
C            0.07547351903333       -1.66299024539456       -1.22560446771778
C           -1.35165052271475       -1.70371139409676       -1.78586303550370
C           -1.38061503229720       -1.14556907289694       -3.20336169938027
C           -3.06927160022319       -1.39114422184768       -0.05723591918363
C           -3.84229076496602       -0.35057807934424        0.78621785535455
C           -5.29323591008040       -0.80902124720400        0.92864410231290
C           -2.99051932468604        2.03675181857893        0.55064227947800
C           -1.71645653731480        1.74440243893329        1.35730289471057
C           -1.81803382857982        2.40318662914993        2.72773874194907
C           -0.45834614540585        2.16161814800748       -0.68498133511277
C            0.89505758530422        2.64455255706278       -1.21929801943538
C            0.92230619536567        2.64677220415847       -2.73855150016571
C            2.42467698612623        1.87998650717871        0.51816442965975
C            3.49518332162227        0.85716460611140        0.89363412004645
C            4.80903687683534        1.13907678751643        0.15993308699980
C            5.45755653879381       -0.23892463396226        0.08233632970258
C            4.26757095903307       -1.16399105127402       -0.16860481650926
H            2.45301902068943       -2.83532425122053       -0.29170936422043
H            2.46644255103128       -3.72593540800387        1.98096577835708
H            1.03544848868269       -2.76279738289158        2.40611253271339
H            1.13517133488968       -5.17189049948856        0.53690944453424
H            0.06468405026046       -4.95273539162123        1.92940164515749
H           -0.75605455408089       -4.29630246909451       -0.60407107752158
H           -1.26593330180466       -3.32218439990749        0.78088324683830
H           -2.06266526987349        0.11919088084461       -1.03863841796590
H           -1.74174739244044       -2.72557855348351       -1.75343648192180
H           -2.38381831404550       -1.22222118752682       -3.61385978529347
H           -0.69019040605182       -1.69431120051026       -3.83881757105065
H           -1.08680561589640       -0.09959454167439       -3.17849307711254
H           -4.59123964115845        1.25102827997738       -0.32250846118308
H           -3.37699258082145       -0.36883020390238        1.77976838166252
H           -5.82222952851896       -0.18701077066748        1.64620599745797
H           -5.30921453125947       -1.84212800285585        1.26425628646755
H           -5.79970388910486       -0.75376293052379       -0.03274169046849
H            0.16984227257121        2.70032629255234        1.17007766045572
H           -1.54013841659105        0.66673377821695        1.45970954513499
H           -2.62967925910897        1.96160671714518        3.30090128168202
H           -2.01422892207353        3.46540746434183        2.60396353075276
H           -0.88745629301894        2.26773081177546        3.27264161067916
H            1.91768754379138        0.82554658793830       -1.15824864074387
H            1.10829460892366        3.63869087559893       -0.81145609423644
H            1.87523651725439        3.02274904632273       -3.10174501357962
H            0.11954254589059        3.27197396897340       -3.11792920977046
H            0.77293018785762        1.63297998983220       -3.10227731107943
H            3.62468032151203        0.91632458930423        1.98219413906497
H            5.41844806347818        1.86998698248244        0.68534287665433
H            4.59514949799689        1.51326000661541       -0.84221149527341
H            5.92710567716094       -0.48551789111676        1.03495820914234
H            6.20523886920583       -0.30940530246441       -0.70460422622618
H            4.05131832524219       -1.24372136576561       -1.24076639853571
H            4.44823349824298       -2.16232889376005        0.23557950517486
