34
frame_0071
O      -4.119868842400000      1.109967228200000     -1.904803326900000
C      -3.415773794400000      2.200787127200000     -2.139299852000000
O      -3.350472444300000      2.724693867200000     -3.214606647100000
H      -4.021286914500000      0.793500649100000     -0.966067884900000
C      -2.688847657900000      2.778026695600000     -0.904477323000000
H      -3.448540760500000      2.991464095700000     -0.142161860200000
H      -2.190329826900000      3.702936425400000     -1.190894884600000
N      -1.709614319600000      1.862142224800000     -0.342431428000000
H      -0.735222021200000      2.074859253600000     -0.479496209400000
C      -2.054764256300000      0.764941972200000      0.353275468900000
O      -3.224353062300000      0.420111942700000      0.488087753000000
C      -0.900744403600000     -0.038898236300000      0.945658378300000
H      -0.133413570500000      0.642388285700000      1.330680624900000
N      -1.325587968600000     -0.902514769800000      2.025275761000000
H      -1.637722083000000     -0.354499060400000      2.819550265500000
H      -2.116005873800000     -1.460711141100000      1.715671959200000
C      -0.284405423400000     -0.900065124200000     -0.182796663200000
H      -0.084443651400000     -0.273782403400000     -1.054908559400000
H      -1.006922455700000     -1.667819827700000     -0.463996552600000
C       0.979177608500000     -1.533737569300000      0.289007275900000
C       1.130384907600000     -2.781820432100000      0.816982467300000
H       0.393150105300000     -3.547858510000000      0.957562838500000
N       2.431962283500000     -2.984016690800000      1.182896199000000
H       2.796646174600000     -3.823806451300000      1.598495390700000
C       3.152332189200000     -1.859319167100000      0.906031954600000
C       4.499154335600000     -1.578207782000000      1.096533935700000
H       5.165194171200000     -2.309717285400000      1.530251452700000
C       4.953090187500000     -0.334943554800000      0.712901140300000
H       5.994177068000000     -0.082016402500000      0.847665520600000
C       4.091460355500000      0.609400964300000      0.147993007500000
H       4.488866917300000      1.571128207700000     -0.142072694200000
C       2.756420974400000      0.335719908600000     -0.044791638400000
H       2.103348788300000      1.072862724000000     -0.490252545200000
C       2.265094927500000     -0.912511370500000      0.337741631100000
