      -----------------------------------------------------------      
     |                   =====================                   |     
     |                           x T B                           |     
     |                   =====================                   |     
     |                         S. Grimme                         |     
     |          Mulliken Center for Theoretical Chemistry        |     
     |                    University of Bonn                     |     
      -----------------------------------------------------------      

   * xtb version 6.7.1-6.fc44.fc44 compiled by Fedora project on Sun Jan 18 23:32:34 UTC 2026

   xtb is free software: you can redistribute it and/or modify it under
   the terms of the GNU Lesser General Public License as published by
   the Free Software Foundation, either version 3 of the License, or
   (at your option) any later version.
   
   xtb is distributed in the hope that it will be useful,
   but WITHOUT ANY WARRANTY; without even the implied warranty of
   MERCHANTABILITY or FITNESS FOR A PARTICULAR PURPOSE.  See the
   GNU Lesser General Public License for more details.
   
   Cite this work as:
   * C. Bannwarth, E. Caldeweyher, S. Ehlert, A. Hansen, P. Pracht,
     J. Seibert, S. Spicher, S. Grimme, WIREs Comput. Mol. Sci., 2020, 11,
     e01493. DOI: 10.1002/wcms.1493
   
   for GFN2-xTB:
   * C. Bannwarth, S. Ehlert and S. Grimme., J. Chem. Theory Comput., 2019,
     15, 1652-1671. DOI: 10.1021/acs.jctc.8b01176
   for GFN1-xTB:
   * S. Grimme, C. Bannwarth, P. Shushkov, J. Chem. Theory Comput., 2017,
     13, 1989-2009. DOI: 10.1021/acs.jctc.7b00118
   for GFN0-xTB:
   * P. Pracht, E. Caldeweyher, S. Ehlert, S. Grimme, ChemRxiv, 2019, preprint.
     DOI: 10.26434/chemrxiv.8326202.v1
   for GFN-FF:
   * S. Spicher and S. Grimme, Angew. Chem. Int. Ed., 2020, 59, 15665-15673.
     DOI: 10.1002/anie.202004239
   
   for ALPB and GBSA implicit solvation:
   * S. Ehlert, M. Stahn, S. Spicher, S. Grimme, J. Chem. Theory Comput.,
     2021, 17, 4250-4261. DOI: 10.1021/acs.jctc.1c00471
   
   for ddCOSMO and CPCM-X implicit solvation:
   * M. Stahn, S. Ehlert, S. Grimme, J. Phys. Chem. A,
     2023, XX, XXXX-XXXX. DOI: 10.1021/acs.jpca.3c04382
   
   for DFT-D4:
   * E. Caldeweyher, C. Bannwarth and S. Grimme, J. Chem. Phys., 2017,
     147, 034112. DOI: 10.1063/1.4993215
   * E. Caldeweyher, S. Ehlert, A. Hansen, H. Neugebauer, S. Spicher,
     C. Bannwarth and S. Grimme, J. Chem. Phys., 2019, 150, 154122.
     DOI: 10.1063/1.5090222
   * E. Caldeweyher, J.-M. Mewes, S. Ehlert and S. Grimme, Phys. Chem. Chem. Phys.
     2020, 22, 8499-8512. DOI: 10.1039/D0CP00502A
   
   for sTDA-xTB:
   * S. Grimme and C. Bannwarth, J. Chem. Phys., 2016, 145, 054103.
     DOI: 10.1063/1.4959605
   
   in the mass-spec context:
   * V. Asgeirsson, C. Bauer and S. Grimme, Chem. Sci., 2017, 8, 4879.
     DOI: 10.1039/c7sc00601b
   * J. Koopman and S. Grimme, ACS Omega 2019, 4, 12, 15120-15133.
     DOI: 10.1021/acsomega.9b02011
   
   for metadynamics refer to:
   * S. Grimme, J. Chem. Theory Comput., 2019, 155, 2847-2862
     DOI: 10.1021/acs.jctc.9b00143
   
   for SPH calculations refer to:
   * S. Spicher and S. Grimme, J. Chem. Theory Comput., 2021, 17, 1701-1714
     DOI: 10.1021/acs.jctc.0c01306
   
   for ONIOM refer to:
   * C. Plett, A. Katbashev, S. Ehlert, S. Grimme, M. Bursch,
     Phys. Chem. Chem. Phys., 2023, 25, 17860-17868. DOI: 10.1039/D3CP02178E
   
   for DIPRO refer to:
   * J. Kohn, N. Gildemeister, S. Grimme, D. Fazzi, A. Hansen,
     J. Chem. Phys., 2023, just accepted.
   
   for PTB refer to:
   * S. Grimme, M. Mueller, A. Hansen, J. Chem. Phys., 2023, 158, 124111.
     DOI: 10.1063/5.0137838
   
   with help from (in alphabetical order)
   P. Atkinson, C. Bannwarth, F. Bohle, G. Brandenburg, E. Caldeweyher
   M. Checinski, S. Dohm, S. Ehlert, S. Ehrlich, I. Gerasimov, C. Hölzer
   A. Katbashev, J. Kohn, J. Koopman, C. Lavigne, S. Lehtola, F. März, M. Müller,
   F. Musil, H. Neugebauer, J. Pisarek, C. Plett, P. Pracht, F. Pultar,
   J. Seibert, P. Shushkov, S. Spicher, M. Stahn, M. Steiner, T. Strunk,
   J. Stückrath, T. Rose, and J. Unsleber
   
 * started run on 2026/10/01 at 17:52:31.732     
   ID    Z sym.   atoms
    1    8 O      1-6
    2    7 N      7-12
    3    6 C      13-34
    4    1 H      35-68

           -------------------------------------------------
          |                Calculation Setup                |
           -------------------------------------------------

          program call               : /usr/bin/xtb input.xyz --opt --gfn 2 --chrg 0 --uhf 0
          hostname                   : fedora
          coordinate file            : input.xyz
          omp threads                :                    16


molecular fragmentation (1/2 indicates fragments):
11111111111111111111111111111111111111111111112111111111111111111111
# atoms in fragment 1/2:    67     1
 fragment masses (1/2) :      477.53        1.01
CMA distance (Bohr)    :   9.580
constraining FC (au)   :  0.0500

           -------------------------------------------------
          |                 G F N 2 - x T B                 |
           -------------------------------------------------

        Reference                      10.1021/acs.jctc.8b01176
      * Hamiltonian:
        H0-scaling (s, p, d)           1.850000    2.230000    2.230000
        zeta-weighting                 0.500000
      * Dispersion:
        s8                             2.700000
        a1                             0.520000
        a2                             5.000000
        s9                             5.000000
      * Repulsion:
        kExp                           1.500000    1.000000
        rExp                           1.000000
      * Coulomb:
        alpha                          2.000000
        third order                    shell-resolved
        anisotropic                    true
        a3                             3.000000
        a5                             4.000000
        cn-shift                       1.200000
        cn-exp                         4.000000
        max-rad                        5.000000


          ...................................................
          :                      SETUP                      :
          :.................................................:
          :  # basis functions                 170          :
          :  # atomic orbitals                 170          :
          :  # shells                          102          :
          :  # electrons                       188          :
          :  max. iterations                   250          :
          :  Hamiltonian                  GFN2-xTB          :
          :  restarted?                      false          :
          :  GBSA solvation                  false          :
          :  PC potential                    false          :
          :  electronic temp.          300.0000000     K    :
          :  accuracy                    1.0000000          :
          :  -> integral cutoff          0.2500000E+02      :
          :  -> integral neglect         0.1000000E-07      :
          :  -> SCF convergence          0.1000000E-05 Eh   :
          :  -> wf. convergence          0.1000000E-03 e    :
          :  Broyden damping             0.4000000          :
          :  net charge                          0          :
          :  unpaired electrons                  0          :
          ...................................................

 iter      E             dE          RMSdq      gap      omega  full diag
   1   -107.0700637 -0.107070E+03  0.422E+00    3.46       0.0  T
   2   -107.4326371 -0.362573E+00  0.235E+00    3.16       1.0  T
   3   -107.4509280 -0.182909E-01  0.128E+00    2.97       1.0  T
   4   -107.4528704 -0.194242E-02  0.316E-01    2.95       1.0  T
   5   -107.4571693 -0.429894E-02  0.954E-02    2.96       1.0  T
   6   -107.4572798 -0.110432E-03  0.478E-02    3.00       1.0  T
   7   -107.4573198 -0.400107E-04  0.222E-02    2.99       1.0  T
   8   -107.4573268 -0.707273E-05  0.858E-03    3.00       1.4  T
   9   -107.4573282 -0.139816E-05  0.345E-03    3.00       3.5  T
  10   -107.4573285 -0.234874E-06  0.149E-03    3.00       8.1  T
  11   -107.4573285 -0.395585E-07  0.584E-04    3.00      20.8  T
  12   -107.4573285 -0.667075E-08  0.207E-04    3.00      58.5  T

   *** convergence criteria satisfied after 12 iterations ***

         #    Occupation            Energy/Eh            Energy/eV
      -------------------------------------------------------------
         1        2.0000           -0.7861113             -21.3912
       ...           ...                  ...                  ...
        88        2.0000           -0.3896974             -10.6042
        89        2.0000           -0.3844837             -10.4623
        90        2.0000           -0.3825497             -10.4097
        91        2.0000           -0.3716767             -10.1138
        92        2.0000           -0.3649331              -9.9303
        93        2.0000           -0.3561674              -9.6918
        94        2.0000           -0.3442949              -9.3687 (HOMO)
        95                         -0.2341314              -6.3710 (LUMO)
        96                         -0.2302011              -6.2641
        97                         -0.2263998              -6.1607
        98                         -0.1924131              -5.2358
        99                         -0.1808589              -4.9214
       ...                                ...                  ...
       170                          1.6978112              46.1998
      -------------------------------------------------------------
                  HL-Gap            0.1101635 Eh            2.9977 eV
             Fermi-level           -0.2892131 Eh           -7.8699 eV

 SCC (total)                   0 d,  0 h,  0 min,  0.103 sec
 SCC setup                      ...        0 min,  0.004 sec (  3.421%)
 Dispersion                     ...        0 min,  0.001 sec (  0.570%)
 classical contributions        ...        0 min,  0.003 sec (  3.260%)
 integral evaluation            ...        0 min,  0.016 sec ( 15.504%)
 iterations                     ...        0 min,  0.073 sec ( 70.839%)
 molecular gradient             ...        0 min,  0.006 sec (  6.026%)
 printout                       ...        0 min,  0.000 sec (  0.366%)

         :::::::::::::::::::::::::::::::::::::::::::::::::::::
         ::                     SUMMARY                     ::
         :::::::::::::::::::::::::::::::::::::::::::::::::::::
         :: total energy            -105.659270471119 Eh    ::
         :: gradient norm              1.483321962498 Eh/a0 ::
         :: HOMO-LUMO gap              2.997702249969 eV    ::
         ::.................................................::
         :: SCC energy              -107.452911918377 Eh    ::
         :: -> isotropic ES            0.246636971505 Eh    ::
         :: -> anisotropic ES         -0.004800423063 Eh    ::
         :: -> anisotropic XC          0.029372254528 Eh    ::
         :: -> dispersion             -0.085163107581 Eh    ::
         :: repulsion energy           1.793641447258 Eh    ::
         :: add. restraining           0.000000000000 Eh    ::
         :: total charge               0.000000000000 e     ::
         :::::::::::::::::::::::::::::::::::::::::::::::::::::

      ----------------------------------------------------------- 
     |                   =====================                   |
     |                        A N C O P T                        |
     |                   =====================                   |
     |               Approximate Normal Coordinate               |
     |                Rational Function Optimizer                |
      ----------------------------------------------------------- 
      ----------------------------------------------------------- 
     |                   =====================                   |
     |                        A N C O P T                        |
     |                   =====================                   |
     |               Approximate Normal Coordinate               |
     |                Rational Function Optimizer                |
      ----------------------------------------------------------- 

          ...................................................
          :                      SETUP                      :
          :.................................................:
          :   optimization level            normal          :
          :   max. optcycles                   204          :
          :   ANC micro-cycles                  20          :
          :   degrees of freedom               198          :
          :.................................................:
          :   RF solver                   davidson          :
          :   write xtbopt.log                true          :
          :   linear?                        false          :
          :   energy convergence         0.5000000E-05 Eh   :
          :   grad. convergence          0.1000000E-02 Eh/α :
          :   maxmium RF displ.          1.0000000          :
          :   Hlow (freq-cutoff)         0.1000000E-01      :
          :   Hmax (freq-cutoff)         5.0000000          :
          :   S6 in model hess.         20.0000000          :
          ...................................................

generating ANC from exact Hessian ...
Using Lindh-Hessian (1995)
 Shifting diagonal of input Hessian by    9.7887651055878905E-003
 Lowest  eigenvalues of input Hessian
    0.000000    0.000000    0.000000    0.000000    0.000000    0.000000
    0.010000    0.010242    0.010518    0.011027    0.011363    0.011395
    0.011585    0.012345    0.012642    0.012965    0.013312    0.013864
 Highest eigenvalues
    2.410458    2.476342    2.756433    2.870091    3.164693    3.329147


........................................................................
.............................. CYCLE    1 ..............................
........................................................................

 iter      E             dE          RMSdq      gap      omega  full diag
   1   -107.4573285 -0.107457E+03  0.648E-05    3.00       0.0  T
   2   -107.4573285 -0.431584E-10  0.363E-05    3.00     333.7  T
   3   -107.4573285 -0.352429E-11  0.203E-05    3.00     598.2  T
     SCC iter.                  ...        0 min,  0.012 sec
     gradient                   ...        0 min,  0.006 sec
 * total energy  :  -105.6592705 Eh     change       -0.6974545E-09 Eh
   gradient norm :     1.4833207 Eh/α   predicted     0.0000000E+00 (-100.00%)
   displ. norm   :     0.5859663 α      lambda       -0.7864636E+00
   maximum displ.:     0.2161968 α      in ANC's #197, #198, #143, ...

........................................................................
.............................. CYCLE    2 ..............................
........................................................................

 iter      E             dE          RMSdq      gap      omega  full diag
   1   -107.5075830 -0.107508E+03  0.894E-01    2.65       0.0  T
   2   -107.5483646 -0.407816E-01  0.540E-01    3.74       1.0  T
   3   -107.5579157 -0.955118E-02  0.234E-01    3.60       1.0  T
   4   -107.5579452 -0.294615E-04  0.108E-01    3.64       1.0  T
   5   -107.5580622 -0.117041E-03  0.256E-02    3.62       1.0  T
   6   -107.5580856 -0.233618E-04  0.800E-03    3.62       1.5  T
   7   -107.5580869 -0.132186E-05  0.376E-03    3.62       3.2  T
   8   -107.5580871 -0.201756E-06  0.153E-03    3.62       7.9  T
   9   -107.5580872 -0.406732E-07  0.703E-04    3.62      17.3  T
  10   -107.5580872 -0.739549E-08  0.213E-04    3.62      57.0  T
     SCC iter.                  ...        0 min,  0.059 sec
     gradient                   ...        0 min,  0.006 sec
 * total energy  :  -106.1918999 Eh     change       -0.5326294E+00 Eh
   gradient norm :     0.6114081 Eh/α   predicted    -0.5282729E+00 (  -0.82%)
   displ. norm   :     0.6214684 α      lambda       -0.3410096E+00
   maximum displ.:     0.1462060 α      in ANC's #84, #143, #148, ...

........................................................................
.............................. CYCLE    3 ..............................
........................................................................

 iter      E             dE          RMSdq      gap      omega  full diag
   1   -107.6966307 -0.107697E+03  0.543E-01    3.76       0.0  T
   2   -107.7032794 -0.664879E-02  0.304E-01    3.96       1.0  T
   3   -107.7039485 -0.669075E-03  0.163E-01    3.96       1.0  T
   4   -107.7040180 -0.694744E-04  0.382E-02    3.96       1.0  T
   5   -107.7040551 -0.371280E-04  0.110E-02    3.96       1.1  T
   6   -107.7040572 -0.207884E-05  0.385E-03    3.96       3.2  T
   7   -107.7040573 -0.867724E-07  0.167E-03    3.96       7.3  T
   8   -107.7040573 -0.237503E-07  0.511E-04    3.96      23.7  T
   9   -107.7040573 -0.234229E-08  0.241E-04    3.96      50.4  T
     SCC iter.                  ...        0 min,  0.033 sec
     gradient                   ...        0 min,  0.006 sec
 * total energy  :  -106.4483414 Eh     change       -0.2564415E+00 Eh
   gradient norm :     0.2875145 Eh/α   predicted    -0.2363579E+00 (  -7.83%)
   displ. norm   :     0.5993214 α      lambda       -0.1506636E+00
   maximum displ.:     0.2023202 α      in ANC's #84, #59, #143, ...

........................................................................
.............................. CYCLE    4 ..............................
........................................................................

 iter      E             dE          RMSdq      gap      omega  full diag
   1   -107.7812634 -0.107781E+03  0.455E-01    4.08       0.0  T
   2   -107.7839473 -0.268387E-02  0.254E-01    4.06       1.0  T
   3   -107.7841249 -0.177616E-03  0.125E-01    4.06       1.0  T
   4   -107.7842143 -0.894030E-04  0.216E-02    4.05       1.0  T
   5   -107.7842261 -0.118255E-04  0.780E-03    4.05       1.6  T
   6   -107.7842268 -0.695447E-06  0.272E-03    4.05       4.5  T
   7   -107.7842269 -0.684810E-07  0.107E-03    4.05      11.3  T
   8   -107.7842269 -0.135306E-07  0.311E-04    4.05      39.0  T
   9   -107.7842269 -0.849695E-09  0.139E-04    4.05      87.4  T
     SCC iter.                  ...        0 min,  0.032 sec
     gradient                   ...        0 min,  0.006 sec
 * total energy  :  -106.5398738 Eh     change       -0.9153241E-01 Eh
   gradient norm :     0.1050099 Eh/α   predicted    -0.1023901E+00 (  11.86%)
   displ. norm   :     0.5422826 α      lambda       -0.4095561E-01
   maximum displ.:     0.1790791 α      in ANC's #59, #60, #91, ...

........................................................................
.............................. CYCLE    5 ..............................
........................................................................

 iter      E             dE          RMSdq      gap      omega  full diag
   1   -107.7751143 -0.107775E+03  0.323E-01    4.09       0.0  T
   2   -107.7753715 -0.257238E-03  0.187E-01    4.08       1.0  T
   3   -107.7753493  0.222567E-04  0.438E-02    4.07       1.0  T
   4   -107.7754065 -0.572460E-04  0.781E-03    4.07       1.6  T
   5   -107.7754073 -0.721110E-06  0.395E-03    4.07       3.1  T
   6   -107.7754073 -0.683860E-07  0.101E-03    4.07      12.0  T
   7   -107.7754073 -0.111522E-07  0.390E-04    4.07      31.1  T
   8   -107.7754073 -0.170800E-08  0.152E-04    4.07      80.0  T
     SCC iter.                  ...        0 min,  0.030 sec
     gradient                   ...        0 min,  0.006 sec
 * total energy  :  -106.5615213 Eh     change       -0.2164752E-01 Eh
   gradient norm :     0.0689349 Eh/α   predicted    -0.2649983E-01 (  22.42%)
   displ. norm   :     0.4046149 α      lambda       -0.1433208E-01
   maximum displ.:     0.1306486 α      in ANC's #29, #84, #28, ...

........................................................................
.............................. CYCLE    6 ..............................
........................................................................

 iter      E             dE          RMSdq      gap      omega  full diag
   1   -107.7900293 -0.107790E+03  0.184E-01    4.09       0.0  T
   2   -107.7901032 -0.738903E-04  0.106E-01    4.11       1.0  T
   3   -107.7900976  0.564218E-05  0.235E-02    4.11       1.0  T
   4   -107.7901134 -0.158613E-04  0.408E-03    4.11       3.0  T
   5   -107.7901136 -0.184903E-06  0.200E-03    4.11       6.1  T
   6   -107.7901136 -0.319135E-07  0.620E-04    4.11      19.5  T
   7   -107.7901136 -0.394016E-08  0.201E-04    4.11      60.2  T
     SCC iter.                  ...        0 min,  0.036 sec
     gradient                   ...        0 min,  0.037 sec
 * total energy  :  -106.5699155 Eh     change       -0.8394207E-02 Eh
   gradient norm :     0.0420109 Eh/α   predicted    -0.8339280E-02 (  -0.65%)
   displ. norm   :     0.3012663 α      lambda       -0.4388400E-02
   maximum displ.:     0.1197239 α      in ANC's #19, #29, #14, ...

........................................................................
.............................. CYCLE    7 ..............................
........................................................................

 iter      E             dE          RMSdq      gap      omega  full diag
   1   -107.8034787 -0.107803E+03  0.102E-01    4.10       0.0  T
   2   -107.8035014 -0.227234E-04  0.592E-02    4.11       1.0  T
   3   -107.8034997  0.171592E-05  0.124E-02    4.12       1.0  T
   4   -107.8035050 -0.526927E-05  0.279E-03    4.12       4.4  T
   5   -107.8035051 -0.826724E-07  0.129E-03    4.12       9.4  T
   6   -107.8035051 -0.996380E-08  0.388E-04    4.12      31.3  T
   7   -107.8035051 -0.211138E-08  0.131E-04    4.12      92.9  T
     SCC iter.                  ...        0 min,  0.024 sec
     gradient                   ...        0 min,  0.006 sec
 * total energy  :  -106.5725436 Eh     change       -0.2628039E-02 Eh
   gradient norm :     0.0231886 Eh/α   predicted    -0.2393352E-02 (  -8.93%)
   displ. norm   :     0.2477358 α      lambda       -0.1928370E-02
   maximum displ.:     0.0834036 α      in ANC's #19, #29, #13, ...

........................................................................
.............................. CYCLE    8 ..............................
........................................................................

 iter      E             dE          RMSdq      gap      omega  full diag
   1   -107.8112803 -0.107811E+03  0.850E-02    4.11       0.0  T
   2   -107.8113026 -0.222659E-04  0.492E-02    4.12       1.0  T
   3   -107.8113010  0.162393E-05  0.139E-02    4.12       1.0  T
   4   -107.8113062 -0.523955E-05  0.265E-03    4.12       4.6  T
   5   -107.8113063 -0.641312E-07  0.132E-03    4.12       9.2  T
   6   -107.8113063 -0.808571E-08  0.345E-04    4.12      35.1  T
   7   -107.8113063 -0.231363E-08  0.118E-04    4.12     102.4  T
     SCC iter.                  ...        0 min,  0.103 sec
     gradient                   ...        0 min,  0.006 sec
 * total energy  :  -106.5731311 Eh     change       -0.5875553E-03 Eh
   gradient norm :     0.0185191 Eh/α   predicted    -0.1023365E-02 (  74.17%)
   displ. norm   :     0.1534360 α      lambda       -0.1241388E-02
   maximum displ.:     0.0642278 α      in ANC's #31, #36, #30, ...

........................................................................
.............................. CYCLE    9 ..............................
........................................................................

 iter      E             dE          RMSdq      gap      omega  full diag
   1   -107.8111058 -0.107811E+03  0.688E-02    4.12       0.0  T
   2   -107.8111151 -0.926245E-05  0.396E-02    4.12       1.0  T
   3   -107.8111146  0.458862E-06  0.815E-03    4.12       1.5  T
   4   -107.8111166 -0.195162E-05  0.197E-03    4.12       6.1  T
   5   -107.8111166 -0.402302E-07  0.984E-04    4.12      12.3  T
   6   -107.8111166 -0.369921E-08  0.194E-04    4.12      62.7  T
     SCC iter.                  ...        0 min,  0.032 sec
     gradient                   ...        0 min,  0.006 sec
 * total energy  :  -106.5735289 Eh     change       -0.3978176E-03 Eh
   gradient norm :     0.0136859 Eh/α   predicted    -0.6353145E-03 (  59.70%)
   displ. norm   :     0.0836729 α      lambda       -0.5621178E-03
   maximum displ.:     0.0217029 α      in ANC's #59, #38, #42, ...

........................................................................
.............................. CYCLE   10 ..............................
........................................................................

 iter      E             dE          RMSdq      gap      omega  full diag
   1   -107.8129383 -0.107813E+03  0.408E-02    4.12       0.0  T
   2   -107.8129447 -0.634605E-05  0.238E-02    4.11       1.0  T
   3   -107.8129447 -0.398524E-07  0.623E-03    4.11       1.9  T
   4   -107.8129452 -0.475912E-06  0.112E-03    4.11      10.9  T
   5   -107.8129452 -0.227822E-07  0.588E-04    4.11      20.6  T
   6   -107.8129452 -0.230497E-08  0.136E-04    4.11      89.0  T
     SCC iter.                  ...        0 min,  0.056 sec
     gradient                   ...        0 min,  0.006 sec
 * total energy  :  -106.5737813 Eh     change       -0.2524071E-03 Eh
   gradient norm :     0.0082888 Eh/α   predicted    -0.2830313E-03 (  12.13%)
   displ. norm   :     0.0690756 α      lambda       -0.2113087E-03
   maximum displ.:     0.0239625 α      in ANC's #24, #7, #16, ...

........................................................................
.............................. CYCLE   11 ..............................
........................................................................

 iter      E             dE          RMSdq      gap      omega  full diag
   1   -107.8126145 -0.107813E+03  0.233E-02    4.11       0.0  T
   2   -107.8126159 -0.136093E-05  0.136E-02    4.11       1.0  T
   3   -107.8126157  0.158126E-06  0.341E-03    4.11       3.6  T
   4   -107.8126161 -0.362190E-06  0.643E-04    4.11      18.9  T
   5   -107.8126161 -0.521624E-08  0.317E-04    4.11      38.2  T
     SCC iter.                  ...        0 min,  0.017 sec
     gradient                   ...        0 min,  0.006 sec
 * total energy  :  -106.5739043 Eh     change       -0.1229350E-03 Eh
   gradient norm :     0.0061504 Eh/α   predicted    -0.1061593E-03 ( -13.65%)
   displ. norm   :     0.0907396 α      lambda       -0.1245048E-03
   maximum displ.:     0.0447383 α      in ANC's #24, #7, #27, ...

........................................................................
.............................. CYCLE   12 ..............................
........................................................................

 iter      E             dE          RMSdq      gap      omega  full diag
   1   -107.8120295 -0.107812E+03  0.206E-02    4.11       0.0  T
   2   -107.8120311 -0.163071E-05  0.119E-02    4.11       1.0  T
   3   -107.8120310  0.102474E-06  0.396E-03    4.11       3.1  T
   4   -107.8120314 -0.357076E-06  0.651E-04    4.11      18.6  T
   5   -107.8120314 -0.635198E-08  0.320E-04    4.11      37.9  T
     SCC iter.                  ...        0 min,  0.017 sec
     gradient                   ...        0 min,  0.006 sec
 * total energy  :  -106.5739888 Eh     change       -0.8456222E-04 Eh
   gradient norm :     0.0050968 Eh/α   predicted    -0.6277230E-04 ( -25.77%)
   displ. norm   :     0.1094079 α      lambda       -0.9694806E-04
   maximum displ.:     0.0558397 α      in ANC's #24, #7, #27, ...

........................................................................
.............................. CYCLE   13 ..............................
........................................................................

 iter      E             dE          RMSdq      gap      omega  full diag
   1   -107.8125057 -0.107813E+03  0.215E-02    4.10       0.0  T
   2   -107.8125074 -0.164089E-05  0.125E-02    4.10       1.0  T
   3   -107.8125072  0.146079E-06  0.426E-03    4.10       2.8  T
   4   -107.8125077 -0.440946E-06  0.634E-04    4.10      19.1  T
   5   -107.8125077 -0.324573E-08  0.317E-04    4.10      38.3  T
     SCC iter.                  ...        0 min,  0.016 sec
     gradient                   ...        0 min,  0.006 sec
 * total energy  :  -106.5740467 Eh     change       -0.5790134E-04 Eh
   gradient norm :     0.0043894 Eh/α   predicted    -0.4905956E-04 ( -15.27%)
   displ. norm   :     0.0723255 α      lambda       -0.5199446E-04
   maximum displ.:     0.0406868 α      in ANC's #24, #5, #7, ...

........................................................................
.............................. CYCLE   14 ..............................
........................................................................

 iter      E             dE          RMSdq      gap      omega  full diag
   1   -107.8126349 -0.107813E+03  0.162E-02    4.10       0.0  T
   2   -107.8126355 -0.596295E-06  0.960E-03    4.10       1.3  T
   3   -107.8126355  0.495186E-07  0.213E-03    4.10       5.7  T
   4   -107.8126356 -0.129408E-06  0.402E-04    4.10      30.2  T
   5   -107.8126356 -0.186452E-08  0.189E-04    4.10      64.0  T
     SCC iter.                  ...        0 min,  0.022 sec
     gradient                   ...        0 min,  0.006 sec
 * total energy  :  -106.5740787 Eh     change       -0.3190300E-04 Eh
   gradient norm :     0.0037482 Eh/α   predicted    -0.2613599E-04 ( -18.08%)
   displ. norm   :     0.0661295 α      lambda       -0.4648666E-04
   maximum displ.:     0.0329675 α      in ANC's #24, #5, #4, ...

........................................................................
.............................. CYCLE   15 ..............................
........................................................................

 iter      E             dE          RMSdq      gap      omega  full diag
   1   -107.8129931 -0.107813E+03  0.123E-02    4.10       0.0  T
   2   -107.8129940 -0.940943E-06  0.719E-03    4.10       1.7  T
   3   -107.8129940 -0.792559E-08  0.265E-03    4.10       4.6  T
   4   -107.8129941 -0.739652E-07  0.385E-04    4.10      31.5  T
   5   -107.8129941 -0.443535E-08  0.189E-04    4.10      64.3  T
     SCC iter.                  ...        0 min,  0.016 sec
     gradient                   ...        0 min,  0.006 sec
 * total energy  :  -106.5741062 Eh     change       -0.2753731E-04 Eh
   gradient norm :     0.0028846 Eh/α   predicted    -0.2334595E-04 ( -15.22%)
   displ. norm   :     0.0537515 α      lambda       -0.3051185E-04
   maximum displ.:     0.0242609 α      in ANC's #24, #5, #6, ...

........................................................................
.............................. CYCLE   16 ..............................
........................................................................

 iter      E             dE          RMSdq      gap      omega  full diag
   1   -107.8129301 -0.107813E+03  0.108E-02    4.10       0.0  T
   2   -107.8129311 -0.977950E-06  0.642E-03    4.10       1.9  T
   3   -107.8129311 -0.364969E-07  0.285E-03    4.10       4.3  T
   4   -107.8129312 -0.108091E-06  0.347E-04    4.10      34.9  T
   5   -107.8129312 -0.267089E-08  0.165E-04    4.10      73.6  T
     SCC iter.                  ...        0 min,  0.045 sec
     gradient                   ...        0 min,  0.006 sec
 * total energy  :  -106.5741225 Eh     change       -0.1628690E-04 Eh
   gradient norm :     0.0028661 Eh/α   predicted    -0.1530146E-04 (  -6.05%)
   displ. norm   :     0.0376091 α      lambda       -0.1764694E-04
   maximum displ.:     0.0190382 α      in ANC's #5, #14, #3, ...

........................................................................
.............................. CYCLE   17 ..............................
........................................................................

 iter      E             dE          RMSdq      gap      omega  full diag
   1   -107.8130685 -0.107813E+03  0.750E-03    4.10       0.0  T
   2   -107.8130690 -0.418241E-06  0.442E-03    4.10       2.7  T
   3   -107.8130690 -0.877974E-08  0.174E-03    4.10       7.0  T
   4   -107.8130690 -0.315495E-07  0.259E-04    4.10      46.8  T
   5   -107.8130690 -0.188575E-08  0.114E-04    4.10     106.0  T
     SCC iter.                  ...        0 min,  0.017 sec
     gradient                   ...        0 min,  0.006 sec
 * total energy  :  -106.5741330 Eh     change       -0.1052382E-04 Eh
   gradient norm :     0.0021172 Eh/α   predicted    -0.8839085E-05 ( -16.01%)
   displ. norm   :     0.0421225 α      lambda       -0.1486714E-04
   maximum displ.:     0.0207886 α      in ANC's #5, #3, #24, ...

........................................................................
.............................. CYCLE   18 ..............................
........................................................................

 iter      E             dE          RMSdq      gap      omega  full diag
   1   -107.8126324 -0.107813E+03  0.771E-03    4.10       0.0  T
   2   -107.8126325 -0.150107E-06  0.453E-03    4.10       2.7  T
   3   -107.8126325  0.227403E-07  0.121E-03    4.10      10.0  T
   4   -107.8126326 -0.490914E-07  0.215E-04    4.10      56.4  T
   5   -107.8126326 -0.354689E-09  0.980E-05    4.10     123.8  T
     SCC iter.                  ...        0 min,  0.016 sec
     gradient                   ...        0 min,  0.006 sec
 * total energy  :  -106.5741418 Eh     change       -0.8778140E-05 Eh
   gradient norm :     0.0017010 Eh/α   predicted    -0.7447809E-05 ( -15.16%)
   displ. norm   :     0.0539893 α      lambda       -0.9357965E-05
   maximum displ.:     0.0239643 α      in ANC's #5, #3, #24, ...

........................................................................
.............................. CYCLE   19 ..............................
........................................................................

 iter      E             dE          RMSdq      gap      omega  full diag
   1   -107.8126556 -0.107813E+03  0.966E-03    4.10       0.0  T
   2   -107.8126559 -0.294100E-06  0.567E-03    4.10       2.1  T
   3   -107.8126558  0.145169E-07  0.155E-03    4.10       7.8  T
   4   -107.8126559 -0.525890E-07  0.276E-04    4.10      44.0  T
   5   -107.8126559 -0.106260E-08  0.142E-04    4.10      85.3  T
     SCC iter.                  ...        0 min,  0.018 sec
     gradient                   ...        0 min,  0.006 sec
 * total energy  :  -106.5741480 Eh     change       -0.6181275E-05 Eh
   gradient norm :     0.0018317 Eh/α   predicted    -0.4688528E-05 ( -24.15%)
   displ. norm   :     0.0245438 α      lambda       -0.5231879E-05
   maximum displ.:     0.0122462 α      in ANC's #3, #5, #1, ...

........................................................................
.............................. CYCLE   20 ..............................
........................................................................

 iter      E             dE          RMSdq      gap      omega  full diag
   1   -107.8129870 -0.107813E+03  0.537E-03    4.10       0.0  T
   2   -107.8129872 -0.180189E-06  0.312E-03    4.10       3.9  T
   3   -107.8129872 -0.220409E-08  0.114E-03    4.10      10.7  T
   4   -107.8129872 -0.150297E-07  0.177E-04    4.10      68.5  T
   5   -107.8129872 -0.789569E-09  0.798E-05    4.10     151.9  T
     SCC iter.                  ...        0 min,  0.016 sec
     gradient                   ...        0 min,  0.006 sec
 * total energy  :  -106.5741522 Eh     change       -0.4244648E-05 Eh
   gradient norm :     0.0012333 Eh/α   predicted    -0.2619539E-05 ( -38.29%)
   displ. norm   :     0.0251235 α      lambda       -0.3779307E-05
   maximum displ.:     0.0104108 α      in ANC's #3, #1, #7, ...
 * RMSD in coord.:     0.3051246 α      energy gain  -0.9148817E+00 Eh

generating ANC from exact Hessian ...
Using Lindh-Hessian (1995)
 Shifting diagonal of input Hessian by    9.6540915683642203E-003
 Lowest  eigenvalues of input Hessian
    0.000000    0.000000    0.000000    0.000000    0.000000    0.000000
    0.010000    0.010235    0.010731    0.011223    0.011556    0.011569
    0.011813    0.012345    0.012736    0.013433    0.013576    0.014064
 Highest eigenvalues
    2.284908    2.310476    2.316204    2.321580    2.338657    2.349900


........................................................................
.............................. CYCLE   21 ..............................
........................................................................

 iter      E             dE          RMSdq      gap      omega  full diag
   1   -107.8130910 -0.107813E+03  0.504E-03    4.10       0.0  T
   2   -107.8130910 -0.557837E-07  0.295E-03    4.10       4.1  T
   3   -107.8130910  0.409725E-08  0.666E-04    4.10      18.2  T
   4   -107.8130911 -0.111599E-07  0.116E-04    4.10     104.5  T
     SCC iter.                  ...        0 min,  0.014 sec
     gradient                   ...        0 min,  0.006 sec
 * total energy  :  -106.5741552 Eh     change       -0.2966566E-05 Eh
   gradient norm :     0.0009133 Eh/α   predicted     0.0000000E+00 (-100.00%)
   displ. norm   :     0.0120457 α      lambda       -0.2356270E-05
   maximum displ.:     0.0050638 α      in ANC's #7, #2, #3, ...

   *** GEOMETRY OPTIMIZATION CONVERGED AFTER 21 ITERATIONS ***

------------------------------------------------------------------------
 total energy gain   :        -0.9148847 Eh     -574.0988 kcal/mol
 total RMSD          :         0.3051246 a0        0.1615 Å
 total power (kW/mol):      -114.3823546 (step)-2513.9805 (real)
------------------------------------------------------------------------

 ANCopt (total)                0 d,  0 h,  0 min,  0.955 sec
 optimizer setup                ...        0 min,  0.000 sec (  0.015%)
 model hessian                  ...        0 min,  0.055 sec (  5.720%)
 ANC generation                 ...        0 min,  0.006 sec (  0.636%)
 coordinate transformation      ...        0 min,  0.001 sec (  0.055%)
 single point calculation       ...        0 min,  0.878 sec ( 91.886%)
 optimization log               ...        0 min,  0.003 sec (  0.275%)
 hessian update                 ...        0 min,  0.008 sec (  0.791%)
 rational function              ...        0 min,  0.004 sec (  0.429%)

================
 final structure:
================
68
 xtb: 6.7.1-6.fc44.fc44
O            1.13486615202587       -0.67269799492559        1.53258463307427
O            0.92703826378983       -0.88030330191564       -1.59990874799236
O           -3.21665303941712       -2.55864941376366        0.16559661130680
O           -3.19461577596685        3.18666116608849        0.11857023335015
O           -1.22183058609506        1.61992415319822       -1.42257338462800
O            2.25024257922100        2.85913117550618        1.27450732843220
N            0.45286595835789       -2.65473729075737       -0.34531567709499
N           -2.16451980420455       -0.90387391949585       -0.95229852957804
N           -3.77336146419781        1.02966934366419        0.18827892582155
N           -0.55657500106577        2.30456235752099        0.62054795451150
N            1.96065076001606        1.66625628800468       -0.62064043956560
N            3.13484255845159       -0.54075453242456        0.53020121166387
C            1.97884160549535       -1.17130004911421        0.80843947061811
C            1.79141516428691       -2.57811073704915        0.23115317748481
C            1.80027533257927       -3.63483811671345        1.34296268026156
C            0.31835163820236       -3.80660093828881        1.66887614533881
C           -0.34028856517996       -3.68449013322633        0.29880153060767
C            0.10682194808982       -1.71854485069951       -1.23392095691611
C           -1.32609621875020       -1.75075928264626       -1.78038925552606
C           -1.34806407456578       -1.22814349713877       -3.21258922333757
C           -3.04130328310417       -1.37162743250467       -0.06507647757217
C           -3.84357780043556       -0.31101556122229        0.72004026577969
C           -5.30503728365298       -0.75445364472603        0.78374589808927
C           -2.94875403133468        2.05995720145147        0.48961248314475
C           -1.69810060518921        1.75204694885799        1.32751088951774
C           -1.82039394314308        2.41771334845050        2.69234154867345
C           -0.39032050865008        2.13849347877357       -0.69281422606236
C            0.98811502746486        2.58256463554658       -1.19604745809166
C            1.06830705615368        2.52616810240488       -2.71210275894361
C            2.45544115660385        1.85567146785213        0.61150445284865
C            3.39195147620655        0.75820024858269        1.12753875517790
C            4.84405870549981        1.05630098208935        0.74910037241003
C            4.98042266040598        0.37222241118533       -0.60813958991746
C            4.14883293182616       -0.90150962911048       -0.44522246354376
H            2.53509044263607       -2.78490679251052       -0.54193587012109
H            2.22158684556116       -4.56770519030752        0.96608959463739
H            2.38210938547043       -3.30873363152674        2.20347051091415
H            0.09702184830755       -4.75281021479788        2.15681300299210
H           -0.01218127768092       -2.98600997025930        2.30497375123210
H           -0.23983065822241       -4.62242608337508       -0.26290110723711
H           -1.39417956002300       -3.41750028944379        0.36447930521341
H           -2.02533006801981        0.10131672774016       -1.08769116156827
H           -1.72244583240496       -2.76947073704776       -1.72907653081318
H           -1.02319377743633       -0.19095043194798       -3.21746427706600
H           -2.35630215666789       -1.28701252225320       -3.61419886014646
H           -0.67895136121379       -1.81331619826648       -3.83803873321176
H           -4.53432712354193        1.29203783265926       -0.42529343003813
H           -3.43622478866135       -0.32068742376197        1.73859928553112
H           -5.35241115773066       -1.77583939937618        1.15024280958008
H           -5.74884019399248       -0.72564523271520       -0.20936261803779
H           -5.87234390582482       -0.10610227802096        1.44638960485817
H            0.18532629216533        2.72134935255417        1.16971411012040
H           -1.54403183616216        0.67143631682368        1.43836585000790
H           -0.90018214751099        2.28241423484822        3.25569390589460
H           -2.64341489176192        1.98091662550134        3.25270808961393
H           -2.01103627211089        3.48043012300983        2.56177110671130
H            1.92937215906179        0.73292951685823       -1.01960121551741
H            1.21079529168910        3.58518507578621       -0.81524280263085
H            0.91820148115009        1.50036136285080       -3.04047744468869
H            2.03793915446369        2.87645101661128       -3.05613033938455
H            0.28770753414151        3.14625487236828       -3.14308473618283
H            3.24126746899652        0.70891060143579        2.21103557314638
H            5.51847006910219        0.60300848843777        1.47646094433606
H            5.03820843924390        2.12580953789614        0.70943544386382
H            6.01463040354602        0.15481707259610       -0.86654642182572
H            4.54920560496609        1.00251705817737       -1.38542790674967
H            3.69131061712128       -1.20379956333449       -1.39012400100004
H            4.76378966864467       -1.72496119380107       -0.06241575953777

 Bond Distances (Angstroems)
 ---------------------------
O1-C13=1.2187        O2-C18=1.2286        O3-C21=1.2219        O4-C24=1.2114        O5-C27=1.2218        O6-C30=1.2201        
N7-C14=1.4594        N7-C17=1.4506        N7-C18=1.3363        N8-C19=1.4512        N8-C21=1.3322        N8-H42=1.0238        
N9-C22=1.4440        N9-C24=1.3536        N9-H47=1.0121        N10-C25=1.4519       N10-C27=1.3342       N10-H52=1.0128       
N11-C28=1.4548       N11-C30=1.3412       N11-H57=1.0155       N12-C13=1.3459       N12-C31=1.4527       N12-C34=1.4525       
C13-O1=1.2187        C13-N12=1.3459       C13-C14=1.5322       C14-N7=1.4594        C14-C13=1.5322       C14-C15=1.5339       
C14-H35=1.0925       C15-C14=1.5339       C15-C16=1.5270       C15-H36=1.0908       C15-H37=1.0887       C16-C15=1.5270       
C16-C17=1.5251       C16-H38=1.0874       C16-H39=1.0896       C17-N7=1.4506        C17-C16=1.5251       C17-H40=1.0979       
C17-H41=1.0892       C18-O2=1.2286        C18-N7=1.3363        C18-C19=1.5339       C19-N8=1.4512        C19-C18=1.5339       
C19-C20=1.5247       C19-H43=1.0943       C20-C19=1.5247       C20-H44=1.0869       C20-H45=1.0869       C20-H46=1.0869       
C21-O3=1.2219        C21-N8=1.3322        C21-C22=1.5443       C22-N9=1.4440        C22-C21=1.5443       C22-C23=1.5286       
C22-H48=1.0970       C23-C22=1.5286       C23-H49=1.0862       C23-H50=1.0881       C23-H51=1.0869       C24-O4=1.2114        
C24-N9=1.3536        C24-C25=1.5366       C25-N10=1.4519       C25-C24=1.5366       C25-C26=1.5234       C25-H53=1.0972       
C26-C25=1.5234       C26-H54=1.0874       C26-H55=1.0873       C26-H56=1.0875       C27-O5=1.2218        C27-N10=1.3342       
C27-C28=1.5331       C28-N11=1.4548       C28-C27=1.5331       C28-C29=1.5192       C28-H58=1.0954       C29-C28=1.5192       
C29-H59=1.0875       C29-H60=1.0868       C29-H61=1.0861       C30-O6=1.2201        C30-N11=1.3412       C30-C31=1.5322       
C31-N12=1.4527       C31-C30=1.5322       C31-C32=1.5299       C31-H62=1.0950       C32-C31=1.5299       C32-C33=1.5260       
C32-H63=1.0906       C32-H64=1.0877       C33-C32=1.5260       C33-C34=1.5299       C33-H65=1.0879       C33-H66=1.0897       
C34-N12=1.4525       C34-C33=1.5299       C34-H67=1.0925       C34-H68=1.0967       H35-C14=1.0925       H36-C15=1.0908       
H37-C15=1.0887       H38-C16=1.0874       H39-C16=1.0896       H40-C17=1.0979       H41-C17=1.0892       H42-N8=1.0238        
H43-C19=1.0943       H44-C20=1.0869       H45-C20=1.0869       H46-C20=1.0869       H47-N9=1.0121        H48-C22=1.0970       
H49-C23=1.0862       H50-C23=1.0881       H51-C23=1.0869       H52-N10=1.0128       H53-C25=1.0972       H54-C26=1.0874       
H55-C26=1.0873       H56-C26=1.0875       H57-N11=1.0155       H58-C28=1.0954       H59-C29=1.0875       H60-C29=1.0868       
H61-C29=1.0861       H62-C31=1.0950       H63-C32=1.0906       H64-C32=1.0877       H65-C33=1.0879       H66-C33=1.0897       
H67-C34=1.0925       H68-C34=1.0967       
 C  H  Rav=1.0902 sigma=0.0037  Rmin=1.0861  Rmax=1.0979    30
 C  C  Rav=1.5300 sigma=0.0058  Rmin=1.5192  Rmax=1.5443    16
 N  H  Rav=1.0160 sigma=0.0046  Rmin=1.0121  Rmax=1.0238     4
 N  C  Rav=1.4043 sigma=0.0555  Rmin=1.3322  Rmax=1.4594    14
 O  C  Rav=1.2204 sigma=0.0051  Rmin=1.2114  Rmax=1.2286     6

 selected bond angles (degree)
 --------------------
C17-N7-C14=111.31              C18-N7-C14=117.61              C18-N7-C17=130.61              C21-N8-C19=123.74              
H42-N8-C19=114.77              H42-N8-C21=121.49              C24-N9-C22=130.87              H47-N9-C22=115.30              
H47-N9-C24=113.31              C27-N10-C25=122.00             H52-N10-C25=117.94             H52-N10-C27=119.58             

 selected dihedral angles (degree)
 ---------------------------------


 CMA Distance (Angstroems)
 ---------------------------
R(CMA):  4.7643
           -------------------------------------------------
          |                Final Singlepoint                |
           -------------------------------------------------

          ...................................................
          :                      SETUP                      :
          :.................................................:
          :  # basis functions                 170          :
          :  # atomic orbitals                 170          :
          :  # shells                          102          :
          :  # electrons                       188          :
          :  max. iterations                   250          :
          :  Hamiltonian                  GFN2-xTB          :
          :  restarted?                      false          :
          :  GBSA solvation                  false          :
          :  PC potential                    false          :
          :  electronic temp.          300.0000000     K    :
          :  accuracy                    1.0000000          :
          :  -> integral cutoff          0.2500000E+02      :
          :  -> integral neglect         0.1000000E-07      :
          :  -> SCF convergence          0.1000000E-05 Eh   :
          :  -> wf. convergence          0.1000000E-03 e    :
          :  Broyden damping             0.4000000          :
          :  net charge                          0          :
          :  unpaired electrons                  0          :
          ...................................................

 iter      E             dE          RMSdq      gap      omega  full diag
   1   -107.8130911 -0.107813E+03  0.623E-05    4.10       0.0  T
   2   -107.8130911 -0.228653E-10  0.364E-05    4.10     333.4  T
   3   -107.8130911 -0.132161E-11  0.174E-05    4.10     697.4  T

   *** convergence criteria satisfied after 3 iterations ***

         #    Occupation            Energy/Eh            Energy/eV
      -------------------------------------------------------------
         1        2.0000           -0.7085382             -19.2803
       ...           ...                  ...                  ...
        88        2.0000           -0.4089801             -11.1289
        89        2.0000           -0.3911727             -10.6443
        90        2.0000           -0.3891396             -10.5890
        91        2.0000           -0.3871992             -10.5362
        92        2.0000           -0.3853254             -10.4852
        93        2.0000           -0.3832811             -10.4296
        94        2.0000           -0.3800907             -10.3428 (HOMO)
        95                         -0.2292512              -6.2382 (LUMO)
        96                         -0.2211707              -6.0184
        97                         -0.2169449              -5.9034
        98                         -0.2074279              -5.6444
        99                         -0.2027327              -5.5166
       ...                                ...                  ...
       170                          0.6489738              17.6595
      -------------------------------------------------------------
                  HL-Gap            0.1508395 Eh            4.1046 eV
             Fermi-level           -0.3046709 Eh           -8.2905 eV

 SCC (total)                   0 d,  0 h,  0 min,  0.104 sec
 SCC setup                      ...        0 min,  0.002 sec (  1.694%)
 Dispersion                     ...        0 min,  0.001 sec (  1.166%)
 classical contributions        ...        0 min,  0.000 sec (  0.104%)
 integral evaluation            ...        0 min,  0.016 sec ( 15.600%)
 iterations                     ...        0 min,  0.059 sec ( 56.791%)
 molecular gradient             ...        0 min,  0.025 sec ( 24.047%)
 printout                       ...        0 min,  0.001 sec (  0.579%)

         :::::::::::::::::::::::::::::::::::::::::::::::::::::
         ::                     SUMMARY                     ::
         :::::::::::::::::::::::::::::::::::::::::::::::::::::
         :: total energy            -106.574155169774 Eh    ::
         :: gradient norm              0.000912468665 Eh/a0 ::
         :: HOMO-LUMO gap              4.104551895795 eV    ::
         ::.................................................::
         :: SCC energy              -107.808650840877 Eh    ::
         :: -> isotropic ES            0.232678676831 Eh    ::
         :: -> anisotropic ES         -0.005884286267 Eh    ::
         :: -> anisotropic XC          0.028204298551 Eh    ::
         :: -> dispersion             -0.084009525033 Eh    ::
         :: repulsion energy           1.234495671103 Eh    ::
         :: add. restraining           0.000000000000 Eh    ::
         :: total charge               0.000000000000 e     ::
         :::::::::::::::::::::::::::::::::::::::::::::::::::::

           -------------------------------------------------
          |                Property Printout                |
           -------------------------------------------------

    * Orbital Energies and Occupations

         #    Occupation            Energy/Eh            Energy/eV
      -------------------------------------------------------------
         1        2.0000           -0.7085382             -19.2803
       ...           ...                  ...                  ...
        82        2.0000           -0.4456715             -12.1273
        83        2.0000           -0.4271794             -11.6241
        84        2.0000           -0.4232261             -11.5166
        85        2.0000           -0.4218721             -11.4797
        86        2.0000           -0.4193393             -11.4108
        87        2.0000           -0.4118646             -11.2074
        88        2.0000           -0.4089801             -11.1289
        89        2.0000           -0.3911727             -10.6443
        90        2.0000           -0.3891396             -10.5890
        91        2.0000           -0.3871992             -10.5362
        92        2.0000           -0.3853254             -10.4852
        93        2.0000           -0.3832811             -10.4296
        94        2.0000           -0.3800907             -10.3428 (HOMO)
        95                         -0.2292512              -6.2382 (LUMO)
        96                         -0.2211707              -6.0184
        97                         -0.2169449              -5.9034
        98                         -0.2074279              -5.6444
        99                         -0.2027327              -5.5166
       100                         -0.2019247              -5.4947
       101                         -0.0282638              -0.7691
       102                         -0.0114259              -0.3109
       103                         -0.0087833              -0.2390
       104                          0.0085984               0.2340
       105                          0.0112041               0.3049
       ...                                ...                  ...
       170                          0.6489738              17.6595
      -------------------------------------------------------------
                  HL-Gap            0.1508395 Eh            4.1046 eV
             Fermi-level           -0.3046709 Eh           -8.2905 eV

     #   Z          covCN         q      C6AA      α(0)
     1   8 O        0.859    -0.455    22.810     6.403
     2   8 O        0.860    -0.480    23.354     6.479
     3   8 O        0.858    -0.465    23.017     6.432
     4   8 O        0.860    -0.424    22.165     6.312
     5   8 O        0.858    -0.449    22.678     6.385
     6   8 O        0.858    -0.455    22.810     6.403
     7   7 N        2.763    -0.084    22.879     7.104
     8   7 N        2.690    -0.188    25.081     7.438
     9   7 N        2.688    -0.191    25.145     7.447
    10   7 N        2.695    -0.167    24.615     7.369
    11   7 N        2.693    -0.184    24.990     7.424
    12   7 N        2.757    -0.106    23.319     7.172
    13   6 C        2.764     0.268    22.472     7.763
    14   6 C        3.834     0.026    20.111     6.380
    15   6 C        3.831    -0.057    21.567     6.608
    16   6 C        3.835    -0.060    21.630     6.617
    17   6 C        3.770    -0.012    20.831     6.504
    18   6 C        2.768     0.259    22.633     7.791
    19   6 C        3.791     0.031    20.061     6.379
    20   6 C        3.758    -0.114    22.738     6.799
    21   6 C        2.752     0.263    22.558     7.777
    22   6 C        3.785     0.019    20.266     6.412
    23   6 C        3.758    -0.114    22.726     6.797
    24   6 C        2.751     0.279    22.278     7.729
    25   6 C        3.792     0.032    20.040     6.375
    26   6 C        3.757    -0.113    22.723     6.796
    27   6 C        2.759     0.274    22.366     7.745
    28   6 C        3.797     0.027    20.128     6.388
    29   6 C        3.757    -0.114    22.732     6.798
    30   6 C        2.754     0.273    22.377     7.746
    31   6 C        3.834     0.021    20.193     6.393
    32   6 C        3.832    -0.062    21.661     6.622
    33   6 C        3.832    -0.066    21.736     6.633
    34   6 C        3.765    -0.001    20.636     6.475
    35   1 H        0.924     0.043     2.411     2.428
    36   1 H        0.924     0.044     2.402     2.424
    37   1 H        0.925     0.047     2.363     2.404
    38   1 H        0.925     0.049     2.330     2.387
    39   1 H        0.925     0.066     2.132     2.283
    40   1 H        0.924     0.044     2.402     2.424
    41   1 H        0.925     0.097     1.815     2.107
    42   1 H        0.859     0.233     0.954     1.530
    43   1 H        0.924     0.062     2.176     2.307
    44   1 H        0.925     0.080     1.981     2.201
    45   1 H        0.925     0.049     2.335     2.390
    46   1 H        0.925     0.047     2.359     2.402
    47   1 H        0.860     0.194     1.135     1.669
    48   1 H        0.924     0.060     2.195     2.317
    49   1 H        0.925     0.076     2.017     2.221
    50   1 H        0.925     0.049     2.338     2.391
    51   1 H        0.925     0.050     2.324     2.384
    52   1 H        0.860     0.212     1.045     1.601
    53   1 H        0.924     0.048     2.341     2.393
    54   1 H        0.925     0.059     2.213     2.326
    55   1 H        0.925     0.048     2.349     2.397
    56   1 H        0.925     0.068     2.108     2.270
    57   1 H        0.860     0.218     1.018     1.581
    58   1 H        0.924     0.070     2.089     2.260
    59   1 H        0.925     0.070     2.085     2.258
    60   1 H        0.925     0.046     2.374     2.409
    61   1 H        0.925     0.062     2.171     2.304
    62   1 H        0.924     0.075     2.032     2.229
    63   1 H        0.924     0.052     2.295     2.369
    64   1 H        0.925     0.060     2.203     2.321
    65   1 H        0.925     0.052     2.292     2.367
    66   1 H        0.925     0.056     2.249     2.345
    67   1 H        0.924     0.059     2.209     2.324
    68   1 H        0.924     0.045     2.390     2.418

 Mol. C6AA /au·bohr⁶  :      43590.847780
 Mol. C8AA /au·bohr⁸  :     970012.535693
 Mol. α(0) /au        :        310.339814


Wiberg/Mayer (AO) data.
largest (>0.10) Wiberg bond orders for each atom

 ---------------------------------------------------------------------------
     #   Z sym  total        # sym  WBO       # sym  WBO       # sym  WBO
 ---------------------------------------------------------------------------
     1   8 O    1.984 --    13 C    1.657    12 N    0.193
     2   8 O    1.964 --    18 C    1.601     7 N    0.195
     3   8 O    1.978 --    21 C    1.628     8 N    0.203
     4   8 O    2.015 --    24 C    1.700     9 N    0.194
     5   8 O    2.020 --    27 C    1.617    10 N    0.198
     6   8 O    1.985 --    30 C    1.645    11 N    0.195
     7   7 N    3.528 --    18 C    1.308    17 C    0.976    14 C    0.965
                             2 O    0.195
     8   7 N    3.479 --    21 C    1.320    19 C    0.976    42 H    0.858
                             3 O    0.203
     9   7 N    3.430 --    24 C    1.239    22 C    0.992    47 H    0.927
                             4 O    0.194
    10   7 N    3.482 --    27 C    1.318    25 C    0.974    52 H    0.907
                             5 O    0.198
    11   7 N    3.455 --    30 C    1.292    28 C    0.971    57 H    0.895
                             6 O    0.195
    12   7 N    3.494 --    13 C    1.259    34 C    0.980    31 C    0.971
                             1 O    0.193
    13   6 C    3.955 --     1 O    1.657    12 N    1.259    14 C    0.935
    14   6 C    3.973 --    15 C    0.981     7 N    0.965    35 H    0.958
                            13 C    0.935
    15   6 C    3.994 --    16 C    1.005    14 C    0.981    36 H    0.978
                            37 H    0.977
    16   6 C    3.993 --    15 C    1.005    17 C    1.004    38 H    0.976
                            39 H    0.976
    17   6 C    3.959 --    16 C    1.004     7 N    0.976    40 H    0.966
                            41 H    0.947
    18   6 C    3.950 --     2 O    1.601     7 N    1.308    19 C    0.931
    19   6 C    3.970 --    20 C    1.000     8 N    0.976    43 H    0.956
                            18 C    0.931
    20   6 C    3.988 --    19 C    1.000    45 H    0.985    46 H    0.984
                            44 H    0.977
    21   6 C    3.956 --     3 O    1.628     8 N    1.320    22 C    0.922
    22   6 C    3.968 --    23 C    0.997     9 N    0.992    48 H    0.944
                            21 C    0.922
    23   6 C    3.988 --    22 C    0.997    51 H    0.985    50 H    0.985
                            49 H    0.979
    24   6 C    3.952 --     4 O    1.700     9 N    1.239    25 C    0.932
    25   6 C    3.970 --    26 C    0.999    10 N    0.974    53 H    0.953
                            24 C    0.932
    26   6 C    3.990 --    25 C    0.999    55 H    0.984    56 H    0.983
                            54 H    0.981
    27   6 C    3.949 --     5 O    1.617    10 N    1.318    28 C    0.927
    28   6 C    3.967 --    29 C    1.009    11 N    0.971    58 H    0.953
                            27 C    0.927
    29   6 C    3.989 --    28 C    1.009    60 H    0.986    61 H    0.982
                            59 H    0.979
    30   6 C    3.954 --     6 O    1.645    11 N    1.292    31 C    0.933
    31   6 C    3.967 --    32 C    0.980    12 N    0.971    62 H    0.953
                            30 C    0.933
    32   6 C    3.992 --    33 C    1.006    31 C    0.980    63 H    0.976
                            64 H    0.975
    33   6 C    3.994 --    32 C    1.006    34 C    1.003    66 H    0.978
                            65 H    0.977
    34   6 C    3.972 --    33 C    1.003    12 N    0.980    68 H    0.969
                            67 H    0.966
    35   1 H    0.998 --    14 C    0.958
    36   1 H    0.998 --    15 C    0.978
    37   1 H    0.997 --    15 C    0.977
    38   1 H    0.996 --    16 C    0.976
    39   1 H    0.996 --    16 C    0.976
    40   1 H    0.998 --    17 C    0.966
    41   1 H    0.990 --    17 C    0.947
    42   1 H    0.946 --     8 N    0.858
    43   1 H    0.996 --    19 C    0.956
    44   1 H    0.994 --    20 C    0.977
    45   1 H    0.997 --    20 C    0.985
    46   1 H    0.997 --    20 C    0.984
    47   1 H    0.962 --     9 N    0.927
    48   1 H    0.996 --    22 C    0.944
    49   1 H    0.993 --    23 C    0.979
    50   1 H    0.998 --    23 C    0.985
    51   1 H    0.997 --    23 C    0.985
    52   1 H    0.955 --    10 N    0.907
    53   1 H    0.998 --    25 C    0.953
    54   1 H    0.996 --    26 C    0.981
    55   1 H    0.997 --    26 C    0.984
    56   1 H    0.995 --    26 C    0.983
    57   1 H    0.952 --    11 N    0.895
    58   1 H    0.995 --    28 C    0.953
    59   1 H    0.995 --    29 C    0.979
    60   1 H    0.997 --    29 C    0.986
    61   1 H    0.995 --    29 C    0.982
    62   1 H    0.994 --    31 C    0.953
    63   1 H    0.997 --    32 C    0.976
    64   1 H    0.996 --    32 C    0.975
    65   1 H    0.997 --    33 C    0.977
    66   1 H    0.997 --    33 C    0.978
    67   1 H    0.996 --    34 C    0.966
    68   1 H    0.998 --    34 C    0.969
 ---------------------------------------------------------------------------

Topologies differ in total number of bonds
Writing topology from bond orders to xtbtopo.mol

molecular dipole:
                 x           y           z       tot (Debye)
 q only:        1.760      -1.750      -0.175
   full:        1.989      -2.105      -0.143       7.369
molecular quadrupole (traceless):
                xx          xy          yy          xz          yz          zz
 q only:       18.814      -3.281     -16.868      -8.328      -2.543      -1.946
  q+dip:       20.089      -7.236     -17.880      -6.630      -0.737      -2.209
   full:       20.462      -7.107     -19.031      -7.296      -1.014      -1.431

           -------------------------------------------------
          |                Geometry Summary                 |
           -------------------------------------------------

      molecular mass/u    :      478.5428241
   center of mass at/Å    :        0.0179205      -0.0099138       0.0053326
  moments of inertia/u·Å² :        0.2876672E+04   0.4101592E+04   0.5335716E+04
rotational constants/cm⁻¹ :        0.5860116E-02   0.4110022E-02   0.3159395E-02

 * 64 selected distances

     #   Z          #   Z                                           value/Å
     1   8 O       13   6 C                                       1.2187227
    12   7 N       13   6 C                                       1.3458613
     7   7 N       14   6 C                                       1.4594185
    14   6 C       15   6 C                                       1.5339074 (max)
    15   6 C       16   6 C                                       1.5270299
     7   7 N       17   6 C                                       1.4506455
    16   6 C       17   6 C                                       1.5250649
     2   8 O       18   6 C                                       1.2285565
     7   7 N       18   6 C                                       1.3363467
     8   7 N       19   6 C                                       1.4511732
    19   6 C       20   6 C                                       1.5247318
     3   8 O       21   6 C                                       1.2218752
     8   7 N       21   6 C                                       1.3321809
     9   7 N       22   6 C                                       1.4440003
    22   6 C       23   6 C                                       1.5285810
     4   8 O       24   6 C                                       1.2114382
     9   7 N       24   6 C                                       1.3536147
    10   7 N       25   6 C                                       1.4519473
    25   6 C       26   6 C                                       1.5234272
     5   8 O       27   6 C                                       1.2218314
    10   7 N       27   6 C                                       1.3342189
    11   7 N       28   6 C                                       1.4548335
    28   6 C       29   6 C                                       1.5192220
     6   8 O       30   6 C                                       1.2200864
    11   7 N       30   6 C                                       1.3412222
    12   7 N       31   6 C                                       1.4526531
    31   6 C       32   6 C                                       1.5299332
    32   6 C       33   6 C                                       1.5259946
    12   7 N       34   6 C                                       1.4525056
    33   6 C       34   6 C                                       1.5298618
    14   6 C       35   1 H                                       1.0924671
    15   6 C       36   1 H                                       1.0907694
    15   6 C       37   1 H                                       1.0887373
    16   6 C       38   1 H                                       1.0873737
    16   6 C       39   1 H                                       1.0896063
    17   6 C       40   1 H                                       1.0978733
    17   6 C       41   1 H                                       1.0891665
     8   7 N       42   1 H                                       1.0237741
    19   6 C       43   1 H                                       1.0943031
    20   6 C       44   1 H                                       1.0868920
    20   6 C       45   1 H                                       1.0868763
    20   6 C       46   1 H                                       1.0868883
     9   7 N       47   1 H                                       1.0121152 (min)
    22   6 C       48   1 H                                       1.0970382
    23   6 C       49   1 H                                       1.0861829
    23   6 C       50   1 H                                       1.0881432
    23   6 C       51   1 H                                       1.0868731
    10   7 N       52   1 H                                       1.0127747
    25   6 C       53   1 H                                       1.0971534
    26   6 C       54   1 H                                       1.0874105
    26   6 C       55   1 H                                       1.0872745
    26   6 C       56   1 H                                       1.0875478
    11   7 N       57   1 H                                       1.0155034
    28   6 C       58   1 H                                       1.0953751
    29   6 C       59   1 H                                       1.0874931
    29   6 C       60   1 H                                       1.0868485
    29   6 C       61   1 H                                       1.0860888
    31   6 C       62   1 H                                       1.0950346
    32   6 C       63   1 H                                       1.0905771
    32   6 C       64   1 H                                       1.0877114
    33   6 C       65   1 H                                       1.0879453
    33   6 C       66   1 H                                       1.0896774
    34   6 C       67   1 H                                       1.0924949
    34   6 C       68   1 H                                       1.0967158

 * 5 distinct bonds (by element types)

   Z      Z             #   av. dist./Å        max./Å        min./Å
   1 H    6 C          30     1.0901513     1.0978733     1.0860888
   6 C    6 C          10     1.5267754     1.5339074     1.5192220
   1 H    7 N           4     1.0160418     1.0237741     1.0121152
   6 C    7 N          14     1.4043301     1.4594185     1.3321809
   6 C    8 O           6     1.2204184     1.2285565     1.2114382


optimized geometry written to: xtbopt.xyz


           -------------------------------------------------
          | TOTAL ENERGY             -106.574155169774 Eh   |
          | GRADIENT NORM               0.000912468665 Eh/α |
          | HOMO-LUMO GAP               4.104551895795 eV   |
           -------------------------------------------------

------------------------------------------------------------------------
 * finished run on 2026/10/01 at 17:52:32.936     
------------------------------------------------------------------------
 total:
 * wall-time:     0 d,  0 h,  0 min,  1.204 sec
 *  cpu-time:     0 d,  0 h,  0 min, 17.726 sec
 * ratio c/w:    14.717 speedup
 SCF:
 * wall-time:     0 d,  0 h,  0 min,  0.104 sec
 *  cpu-time:     0 d,  0 h,  0 min,  1.578 sec
 * ratio c/w:    15.191 speedup
 ANC optimizer:
 * wall-time:     0 d,  0 h,  0 min,  1.061 sec
 *  cpu-time:     0 d,  0 h,  0 min, 15.616 sec
 * ratio c/w:    14.720 speedup


--- STDERR ---
normal termination of xtb
Note: The following floating-point exceptions are signalling: IEEE_UNDERFLOW_FLAG IEEE_DENORMAL
