68
 energy: -106.574155169774 gnorm: 0.000912468665 xtb: 6.7.1-6.fc44.fc44
O            1.13486615202587       -0.67269799492559        1.53258463307427
O            0.92703826378983       -0.88030330191564       -1.59990874799236
O           -3.21665303941712       -2.55864941376366        0.16559661130680
O           -3.19461577596685        3.18666116608849        0.11857023335015
O           -1.22183058609506        1.61992415319822       -1.42257338462800
O            2.25024257922100        2.85913117550618        1.27450732843220
N            0.45286595835789       -2.65473729075737       -0.34531567709499
N           -2.16451980420455       -0.90387391949585       -0.95229852957804
N           -3.77336146419781        1.02966934366419        0.18827892582155
N           -0.55657500106577        2.30456235752099        0.62054795451150
N            1.96065076001606        1.66625628800468       -0.62064043956560
N            3.13484255845159       -0.54075453242456        0.53020121166387
C            1.97884160549535       -1.17130004911421        0.80843947061811
C            1.79141516428691       -2.57811073704915        0.23115317748481
C            1.80027533257927       -3.63483811671345        1.34296268026156
C            0.31835163820236       -3.80660093828881        1.66887614533881
C           -0.34028856517996       -3.68449013322633        0.29880153060767
C            0.10682194808982       -1.71854485069951       -1.23392095691611
C           -1.32609621875020       -1.75075928264626       -1.78038925552606
C           -1.34806407456578       -1.22814349713877       -3.21258922333757
C           -3.04130328310417       -1.37162743250467       -0.06507647757217
C           -3.84357780043556       -0.31101556122229        0.72004026577969
C           -5.30503728365298       -0.75445364472603        0.78374589808927
C           -2.94875403133468        2.05995720145147        0.48961248314475
C           -1.69810060518921        1.75204694885799        1.32751088951774
C           -1.82039394314308        2.41771334845050        2.69234154867345
C           -0.39032050865008        2.13849347877357       -0.69281422606236
C            0.98811502746486        2.58256463554658       -1.19604745809166
C            1.06830705615368        2.52616810240488       -2.71210275894361
C            2.45544115660385        1.85567146785213        0.61150445284865
C            3.39195147620655        0.75820024858269        1.12753875517790
C            4.84405870549981        1.05630098208935        0.74910037241003
C            4.98042266040598        0.37222241118533       -0.60813958991746
C            4.14883293182616       -0.90150962911048       -0.44522246354376
H            2.53509044263607       -2.78490679251052       -0.54193587012109
H            2.22158684556116       -4.56770519030752        0.96608959463739
H            2.38210938547043       -3.30873363152674        2.20347051091415
H            0.09702184830755       -4.75281021479788        2.15681300299210
H           -0.01218127768092       -2.98600997025930        2.30497375123210
H           -0.23983065822241       -4.62242608337508       -0.26290110723711
H           -1.39417956002300       -3.41750028944379        0.36447930521341
H           -2.02533006801981        0.10131672774016       -1.08769116156827
H           -1.72244583240496       -2.76947073704776       -1.72907653081318
H           -1.02319377743633       -0.19095043194798       -3.21746427706600
H           -2.35630215666789       -1.28701252225320       -3.61419886014646
H           -0.67895136121379       -1.81331619826648       -3.83803873321176
H           -4.53432712354193        1.29203783265926       -0.42529343003813
H           -3.43622478866135       -0.32068742376197        1.73859928553112
H           -5.35241115773066       -1.77583939937618        1.15024280958008
H           -5.74884019399248       -0.72564523271520       -0.20936261803779
H           -5.87234390582482       -0.10610227802096        1.44638960485817
H            0.18532629216533        2.72134935255417        1.16971411012040
H           -1.54403183616216        0.67143631682368        1.43836585000790
H           -0.90018214751099        2.28241423484822        3.25569390589460
H           -2.64341489176192        1.98091662550134        3.25270808961393
H           -2.01103627211089        3.48043012300983        2.56177110671130
H            1.92937215906179        0.73292951685823       -1.01960121551741
H            1.21079529168910        3.58518507578621       -0.81524280263085
H            0.91820148115009        1.50036136285080       -3.04047744468869
H            2.03793915446369        2.87645101661128       -3.05613033938455
H            0.28770753414151        3.14625487236828       -3.14308473618283
H            3.24126746899652        0.70891060143579        2.21103557314638
H            5.51847006910219        0.60300848843777        1.47646094433606
H            5.03820843924390        2.12580953789614        0.70943544386382
H            6.01463040354602        0.15481707259610       -0.86654642182572
H            4.54920560496609        1.00251705817737       -1.38542790674967
H            3.69131061712128       -1.20379956333449       -1.39012400100004
H            4.76378966864467       -1.72496119380107       -0.06241575953777
