34
frame_0040
O      -0.532172183500000      2.080863721300000     -1.063055600900000
C      -1.556022095100000      2.392717322500000     -0.293570696200000
O      -1.528784583100000      3.300102357200000      0.492169416100000
H      -0.670573279500000      1.212178059500000     -1.533142306100000
C      -2.810181181800000      1.513054342400000     -0.486651887600000
H      -3.039511735800000      1.475599324000000     -1.558181411400000
H      -3.643540577200000      1.963082661700000      0.051371549300000
N      -2.610842364200000      0.157363117200000     -0.003903870400000
H      -3.041186655300000     -0.100696509700000      0.868112207800000
C      -1.785258463500000     -0.707175339200000     -0.620514325000000
O      -1.160847949700000     -0.398495216900000     -1.625788016200000
C      -1.653049654600000     -2.066861188400000      0.048139738000000
H      -2.650016250900000     -2.444906330300000      0.315203528000000
N      -1.076172028800000     -2.984382551400000     -0.902760504800000
H      -0.373318425100000     -2.506578735000000     -1.458050300500000
H      -0.653123780400000     -3.780706135900000     -0.441896606200000
C      -0.836838092900000     -1.852961149700000      1.366736986500000
H      -0.350540620700000     -2.797755554500000      1.621897282400000
H      -1.523537168600000     -1.600152198800000      2.177596606700000
C       0.174991071500000     -0.762851304500000      1.225531774200000
C       0.044123751400000      0.522826761700000      1.671971038000000
H      -0.744467722700000      0.963418097000000      2.253418331100000
N       1.123472598600000      1.268065971200000      1.295651397400000
H       1.206868090600000      2.262264222800000      1.423727256200000
C       1.969901233500000      0.483954599200000      0.570216767700000
C       3.181056691600000      0.788370244900000     -0.038214836600000
H       3.586542563200000      1.788032963800000      0.004299619600000
C       3.838275500400000     -0.227183972600000     -0.696586627900000
H       4.780197523600000     -0.025383611800000     -1.184676376300000
C       3.313027039800000     -1.521847109900000     -0.741906704700000
H       3.865188178800000     -2.292442145400000     -1.259874849100000
C       2.113715860400000     -1.830315787200000     -0.142613519000000
H       1.728723610400000     -2.839159517600000     -0.176730232100000
C       1.415305751000000     -0.818762264100000      0.517434756400000
