34
 energy: -56.477969230212 gnorm: 0.000177268480 xtb: 6.7.1-6.fc44.fc44
O           -0.53217218350000        2.08086372130000       -1.06305560090000
C           -1.55602209510000        2.39271732250000       -0.29357069620000
O           -1.52878458310000        3.30010235720000        0.49216941610000
H           -0.67057327950000        1.21217805950000       -1.53314230610000
C           -2.81018118180000        1.51305434240000       -0.48665188760000
H           -3.03951173580000        1.47559932400000       -1.55818141140000
H           -3.64354057720000        1.96308266170000        0.05137154930000
N           -2.61084236420000        0.15736311720000       -0.00390387040000
H           -3.04118665530000       -0.10069650970000        0.86811220780000
C           -1.78525846350000       -0.70717533920000       -0.62051432500000
O           -1.16084794970000       -0.39849521690000       -1.62578801620000
C           -1.65304965460000       -2.06686118840000        0.04813973800000
H           -2.65001625090000       -2.44490633030000        0.31520352800000
N           -1.07617202880000       -2.98438255140000       -0.90276050480000
H           -0.37331842510000       -2.50657873500000       -1.45805030050000
H           -0.65312378040000       -3.78070613590000       -0.44189660620000
C           -0.83683809290000       -1.85296114970000        1.36673698650000
H           -0.35054062070000       -2.79775555450000        1.62189728240000
H           -1.52353716860000       -1.60015219880000        2.17759660670000
C            0.17499107150000       -0.76285130450000        1.22553177420000
C            0.04412375140000        0.52282676170000        1.67197103800000
H           -0.74446772270000        0.96341809700000        2.25341833110000
N            1.12347259860000        1.26806597120000        1.29565139740000
H            1.20686809060000        2.26226422280000        1.42372725620000
C            1.96990123350000        0.48395459920000        0.57021676770000
C            3.18105669160000        0.78837024490000       -0.03821483660000
H            3.58654256320000        1.78803296380000        0.00429961960000
C            3.83827550040000       -0.22718397260000       -0.69658662790000
H            4.78019752360000       -0.02538361180000       -1.18467637630000
C            3.31302703980000       -1.52184710990000       -0.74190670470000
H            3.86518817880000       -2.29244214540000       -1.25987484910000
C            2.11371586040000       -1.83031578720000       -0.14261351900000
H            1.72872361040000       -2.83915951760000       -0.17673023210000
C            1.41530575100000       -0.81876226410000        0.51743475640000
