34
frame_0064
O       0.300317632300000      3.011432757400000     -1.514882924000000
C      -0.481716482900000      2.255546712100000     -0.739934186600000
O      -0.650435420900000      2.506737646400000      0.419059585800000
H       0.395091269100000      2.664783720500000     -2.412197256200000
C      -1.169660263600000      1.093449601400000     -1.439983870700000
H      -0.461845964100000      0.519372308500000     -2.051266549800000
H      -1.947392704500000      1.502069885400000     -2.102564502700000
N      -1.745755093600000      0.214393485900000     -0.455617922900000
H      -1.813702747400000      0.610928020500000      0.472713858400000
C      -1.762295293000000     -1.126766981400000     -0.630511963900000
O      -1.536903748100000     -1.649882729700000     -1.701618141100000
C      -2.045995387000000     -1.924693129200000      0.635587199300000
H      -2.588839061700000     -1.304192596800000      1.359071016300000
N      -2.867685530300000     -3.065956177900000      0.297132678500000
H      -2.782566908300000     -3.797484658000000      0.994011581400000
H      -2.564904447000000     -3.435385700300000     -0.599792700900000
C      -0.657644426700000     -2.297493414400000      1.236628685600000
H      -0.174728272700000     -3.006281625000000      0.560036632800000
H      -0.821187648900000     -2.788088924600000      2.199476482400000
C       0.210173033000000     -1.096831977300000      1.404304759600000
C       0.216901249500000     -0.215101313400000      2.447317798300000
H      -0.344611687000000     -0.245399463500000      3.361897004900000
N       1.104886180900000      0.796643306900000      2.207509703600000
H       1.235346738900000      1.606522744400000      2.788372859000000
C       1.671641570700000      0.607954431500000      0.983504516000000
C       2.596392285200000      1.377198739800000      0.288200356900000
H       2.989635792800000      2.289743375000000      0.709659539500000
C       2.978424544700000      0.940284475900000     -0.961370007500000
H       3.690442321200000      1.517584336000000     -1.532784065700000
C       2.462852758500000     -0.239655336300000     -1.507777133500000
H       2.791318276000000     -0.548219168000000     -2.489932165100000
C       1.552772125000000     -1.011867005300000     -0.820891446200000
H       1.155478390100000     -1.915635880900000     -1.257229689300000
C       1.137721117500000     -0.587342973600000      0.441883642000000
