34
frame_0054
O      -3.660606308758746      2.515021960808203      0.150990087375581
C      -3.542098394710448      2.359134568548108     -1.448228598569610
O      -4.291462192218741      2.971169253739401     -2.270903789031312
H      -2.955096795132210      2.097397204078161      0.291472979237998
C      -2.100912605098054      1.853644142018906     -1.892333470141948
H      -1.262340103325418      2.266930160161363     -1.511110079622757
H      -2.128971616021714      1.785148957130549     -2.985213905058241
N      -2.039608886419930      0.270259643169816     -1.067920326329787
H      -2.280878669945534     -0.525194604444141     -1.830002083792417
C      -1.878811520340267      0.100282902801691     -0.068930197957145
O      -1.826630090401283      1.138631653427758      0.909326658030298
C      -1.483406843557935     -1.264924453332486      0.340747193293076
H      -1.670041001388092     -1.441636025973102      1.463107791127019
N      -2.552896686322562     -2.055870405106015     -0.468559659095834
H      -3.434493789885710     -2.070973731903389     -0.370205586553247
H      -2.145250472870057     -3.028187802362983     -0.392085996857732
C      -0.034361660190455     -1.696924699626202     -0.296995027895315
H      -0.041215152504004     -1.435230159896871     -1.159767844408004
H       0.074430347022877     -2.810507827766692     -0.023465903767734
C       1.009263013242233     -1.027996924484884      0.702666610310886
C       0.736125279897335     -0.091670732086779      1.727573348180023
H      -0.082832550445329      0.280501789262979      2.433662193037143
N       2.078107775661763      0.305905009213061      2.050735793332400
H       2.327161980417555      0.650847679583313      2.850865923305039
C       3.144802388553542     -0.267772272707189      1.408895851834700
C       4.306177186045852     -0.053125879839170      1.364906014412062
H       4.992581431094720      0.579931572701067      2.065826072410939
C       5.196602929239651     -0.797266583461421      0.384079763483288
H       6.159628396290652     -0.777768631415675      0.347637461470389
C       4.516494403451023     -1.572319413294881     -0.531605810809038
H       4.900880958909181     -2.097613822626114     -1.399387225699287
C       2.975685598478175     -1.754445321813185     -0.538403320523359
H       2.643817774502141     -2.322817599464118     -1.298130836912632
C       2.177025057926052     -1.085428855606168      0.360230122862228
