      -----------------------------------------------------------      
     |                   =====================                   |     
     |                           x T B                           |     
     |                   =====================                   |     
     |                         S. Grimme                         |     
     |          Mulliken Center for Theoretical Chemistry        |     
     |                    University of Bonn                     |     
      -----------------------------------------------------------      

   * xtb version 6.7.1-6.fc44.fc44 compiled by Fedora project on Sun Jan 18 23:32:34 UTC 2026

   xtb is free software: you can redistribute it and/or modify it under
   the terms of the GNU Lesser General Public License as published by
   the Free Software Foundation, either version 3 of the License, or
   (at your option) any later version.
   
   xtb is distributed in the hope that it will be useful,
   but WITHOUT ANY WARRANTY; without even the implied warranty of
   MERCHANTABILITY or FITNESS FOR A PARTICULAR PURPOSE.  See the
   GNU Lesser General Public License for more details.
   
   Cite this work as:
   * C. Bannwarth, E. Caldeweyher, S. Ehlert, A. Hansen, P. Pracht,
     J. Seibert, S. Spicher, S. Grimme, WIREs Comput. Mol. Sci., 2020, 11,
     e01493. DOI: 10.1002/wcms.1493
   
   for GFN2-xTB:
   * C. Bannwarth, S. Ehlert and S. Grimme., J. Chem. Theory Comput., 2019,
     15, 1652-1671. DOI: 10.1021/acs.jctc.8b01176
   for GFN1-xTB:
   * S. Grimme, C. Bannwarth, P. Shushkov, J. Chem. Theory Comput., 2017,
     13, 1989-2009. DOI: 10.1021/acs.jctc.7b00118
   for GFN0-xTB:
   * P. Pracht, E. Caldeweyher, S. Ehlert, S. Grimme, ChemRxiv, 2019, preprint.
     DOI: 10.26434/chemrxiv.8326202.v1
   for GFN-FF:
   * S. Spicher and S. Grimme, Angew. Chem. Int. Ed., 2020, 59, 15665-15673.
     DOI: 10.1002/anie.202004239
   
   for ALPB and GBSA implicit solvation:
   * S. Ehlert, M. Stahn, S. Spicher, S. Grimme, J. Chem. Theory Comput.,
     2021, 17, 4250-4261. DOI: 10.1021/acs.jctc.1c00471
   
   for ddCOSMO and CPCM-X implicit solvation:
   * M. Stahn, S. Ehlert, S. Grimme, J. Phys. Chem. A,
     2023, XX, XXXX-XXXX. DOI: 10.1021/acs.jpca.3c04382
   
   for DFT-D4:
   * E. Caldeweyher, C. Bannwarth and S. Grimme, J. Chem. Phys., 2017,
     147, 034112. DOI: 10.1063/1.4993215
   * E. Caldeweyher, S. Ehlert, A. Hansen, H. Neugebauer, S. Spicher,
     C. Bannwarth and S. Grimme, J. Chem. Phys., 2019, 150, 154122.
     DOI: 10.1063/1.5090222
   * E. Caldeweyher, J.-M. Mewes, S. Ehlert and S. Grimme, Phys. Chem. Chem. Phys.
     2020, 22, 8499-8512. DOI: 10.1039/D0CP00502A
   
   for sTDA-xTB:
   * S. Grimme and C. Bannwarth, J. Chem. Phys., 2016, 145, 054103.
     DOI: 10.1063/1.4959605
   
   in the mass-spec context:
   * V. Asgeirsson, C. Bauer and S. Grimme, Chem. Sci., 2017, 8, 4879.
     DOI: 10.1039/c7sc00601b
   * J. Koopman and S. Grimme, ACS Omega 2019, 4, 12, 15120-15133.
     DOI: 10.1021/acsomega.9b02011
   
   for metadynamics refer to:
   * S. Grimme, J. Chem. Theory Comput., 2019, 155, 2847-2862
     DOI: 10.1021/acs.jctc.9b00143
   
   for SPH calculations refer to:
   * S. Spicher and S. Grimme, J. Chem. Theory Comput., 2021, 17, 1701-1714
     DOI: 10.1021/acs.jctc.0c01306
   
   for ONIOM refer to:
   * C. Plett, A. Katbashev, S. Ehlert, S. Grimme, M. Bursch,
     Phys. Chem. Chem. Phys., 2023, 25, 17860-17868. DOI: 10.1039/D3CP02178E
   
   for DIPRO refer to:
   * J. Kohn, N. Gildemeister, S. Grimme, D. Fazzi, A. Hansen,
     J. Chem. Phys., 2023, just accepted.
   
   for PTB refer to:
   * S. Grimme, M. Mueller, A. Hansen, J. Chem. Phys., 2023, 158, 124111.
     DOI: 10.1063/5.0137838
   
   with help from (in alphabetical order)
   P. Atkinson, C. Bannwarth, F. Bohle, G. Brandenburg, E. Caldeweyher
   M. Checinski, S. Dohm, S. Ehlert, S. Ehrlich, I. Gerasimov, C. Hölzer
   A. Katbashev, J. Kohn, J. Koopman, C. Lavigne, S. Lehtola, F. März, M. Müller,
   F. Musil, H. Neugebauer, J. Pisarek, C. Plett, P. Pracht, F. Pultar,
   J. Seibert, P. Shushkov, S. Spicher, M. Stahn, M. Steiner, T. Strunk,
   J. Stückrath, T. Rose, and J. Unsleber
   
 * started run on 2026/10/01 at 18:05:14.103     
   ID    Z sym.   atoms
    1    8 O      1, 3, 11
    2    6 C      2, 5, 10, 12, 17, 20, 21, 25, 26, 28, 30, 32, 34
    3    1 H      4, 6, 7, 9, 13, 15, 16, 18, 19, 22, 24, 27, 29, 31, 33
    4    7 N      8, 14, 23

           -------------------------------------------------
          |                Calculation Setup                |
           -------------------------------------------------

          program call               : /usr/bin/xtb input.xyz --opt --gfn 2 --chrg 0 --uhf 0
          hostname                   : fedora
          coordinate file            : input.xyz
          omp threads                :                    16


           -------------------------------------------------
          |                 G F N 2 - x T B                 |
           -------------------------------------------------

        Reference                      10.1021/acs.jctc.8b01176
      * Hamiltonian:
        H0-scaling (s, p, d)           1.850000    2.230000    2.230000
        zeta-weighting                 0.500000
      * Dispersion:
        s8                             2.700000
        a1                             0.520000
        a2                             5.000000
        s9                             5.000000
      * Repulsion:
        kExp                           1.500000    1.000000
        rExp                           1.000000
      * Coulomb:
        alpha                          2.000000
        third order                    shell-resolved
        anisotropic                    true
        a3                             3.000000
        a5                             4.000000
        cn-shift                       1.200000
        cn-exp                         4.000000
        max-rad                        5.000000


          ...................................................
          :                      SETUP                      :
          :.................................................:
          :  # basis functions                  91          :
          :  # atomic orbitals                  91          :
          :  # shells                           53          :
          :  # electrons                       100          :
          :  max. iterations                   250          :
          :  Hamiltonian                  GFN2-xTB          :
          :  restarted?                      false          :
          :  GBSA solvation                  false          :
          :  PC potential                    false          :
          :  electronic temp.          300.0000000     K    :
          :  accuracy                    1.0000000          :
          :  -> integral cutoff          0.2500000E+02      :
          :  -> integral neglect         0.1000000E-07      :
          :  -> SCF convergence          0.1000000E-05 Eh   :
          :  -> wf. convergence          0.1000000E-03 e    :
          :  Broyden damping             0.4000000          :
          :  net charge                          0          :
          :  unpaired electrons                  0          :
          ...................................................

 iter      E             dE          RMSdq      gap      omega  full diag
   1    -56.7283127 -0.567283E+02  0.470E+00    2.34       0.0  T
   2    -56.9406689 -0.212356E+00  0.277E+00    1.02       1.0  T
   3    -56.9589020 -0.182330E-01  0.175E+00    1.54       1.0  T
   4    -56.9453648  0.135371E-01  0.112E+00    0.94       1.0  T
   5    -56.9803719 -0.350071E-01  0.417E-01    0.93       1.0  T
   6    -56.9869764 -0.660454E-02  0.972E-02    0.99       1.0  T
   7    -56.9870636 -0.871488E-04  0.438E-02    0.97       1.0  T
   8    -56.9870722 -0.859333E-05  0.208E-02    0.98       1.0  T
   9    -56.9870752 -0.298082E-05  0.862E-03    0.98       2.0  T
  10    -56.9870761 -0.926776E-06  0.436E-03    0.98       3.9  T
  11    -56.9870764 -0.261746E-06  0.163E-03    0.98      10.5  T
  12    -56.9870764 -0.862020E-08  0.805E-04    0.98      21.3  T
  13    -56.9870764 -0.138642E-07  0.244E-04    0.98      70.4  T

   *** convergence criteria satisfied after 13 iterations ***

         #    Occupation            Energy/Eh            Energy/eV
      -------------------------------------------------------------
         1        2.0000           -0.7511771             -20.4406
       ...           ...                  ...                  ...
        44        2.0000           -0.4257104             -11.5842
        45        2.0000           -0.4064426             -11.0599
        46        2.0000           -0.3950983             -10.7512
        47        2.0000           -0.3920020             -10.6669
        48        2.0000           -0.3837760             -10.4431
        49        2.0000           -0.3726626             -10.1407
        50        2.0000           -0.3536666              -9.6238 (HOMO)
        51                         -0.3176277              -8.6431 (LUMO)
        52                         -0.2602360              -7.0814
        53                         -0.2502862              -6.8106
        54                         -0.2033045              -5.5322
        55                         -0.1873957              -5.0993
       ...                                ...                  ...
        91                          1.7909393              48.7339
      -------------------------------------------------------------
                  HL-Gap            0.0360389 Eh            0.9807 eV
             Fermi-level           -0.3356472 Eh           -9.1334 eV

 SCC (total)                   0 d,  0 h,  0 min,  0.059 sec
 SCC setup                      ...        0 min,  0.000 sec (  0.121%)
 Dispersion                     ...        0 min,  0.011 sec ( 18.680%)
 classical contributions        ...        0 min,  0.003 sec (  5.097%)
 integral evaluation            ...        0 min,  0.010 sec ( 16.785%)
 iterations                     ...        0 min,  0.033 sec ( 55.110%)
 molecular gradient             ...        0 min,  0.002 sec (  3.640%)
 printout                       ...        0 min,  0.000 sec (  0.545%)

         :::::::::::::::::::::::::::::::::::::::::::::::::::::
         ::                     SUMMARY                     ::
         :::::::::::::::::::::::::::::::::::::::::::::::::::::
         :: total energy             -55.868041569635 Eh    ::
         :: gradient norm              1.480156918545 Eh/a0 ::
         :: HOMO-LUMO gap              0.980667539104 eV    ::
         ::.................................................::
         :: SCC energy               -56.986854431454 Eh    ::
         :: -> isotropic ES            0.134398187381 Eh    ::
         :: -> anisotropic ES         -0.000604014958 Eh    ::
         :: -> anisotropic XC          0.025811149544 Eh    ::
         :: -> dispersion             -0.033758390694 Eh    ::
         :: repulsion energy           1.118812861819 Eh    ::
         :: add. restraining           0.000000000000 Eh    ::
         :: total charge              -0.000000000000 e     ::
         :::::::::::::::::::::::::::::::::::::::::::::::::::::

      ----------------------------------------------------------- 
     |                   =====================                   |
     |                        A N C O P T                        |
     |                   =====================                   |
     |               Approximate Normal Coordinate               |
     |                Rational Function Optimizer                |
      ----------------------------------------------------------- 
      ----------------------------------------------------------- 
     |                   =====================                   |
     |                        A N C O P T                        |
     |                   =====================                   |
     |               Approximate Normal Coordinate               |
     |                Rational Function Optimizer                |
      ----------------------------------------------------------- 

          ...................................................
          :                      SETUP                      :
          :.................................................:
          :   optimization level            normal          :
          :   max. optcycles                   200          :
          :   ANC micro-cycles                  20          :
          :   degrees of freedom                96          :
          :.................................................:
          :   RF solver                   davidson          :
          :   write xtbopt.log                true          :
          :   linear?                        false          :
          :   energy convergence         0.5000000E-05 Eh   :
          :   grad. convergence          0.1000000E-02 Eh/α :
          :   maxmium RF displ.          1.0000000          :
          :   Hlow (freq-cutoff)         0.1000000E-01      :
          :   Hmax (freq-cutoff)         5.0000000          :
          :   S6 in model hess.         20.0000000          :
          ...................................................

generating ANC from exact Hessian ...
Using Lindh-Hessian (1995)
 Shifting diagonal of input Hessian by    9.7613728479979244E-003
 Lowest  eigenvalues of input Hessian
    0.000000    0.000000    0.000000    0.000000    0.000000    0.000000
    0.010000    0.010318    0.010672    0.011340    0.012483    0.013526
    0.015043    0.016199    0.017658    0.018761    0.020582    0.021533
 Highest eigenvalues
    1.910794    2.030276    2.206196    2.470375    2.678908    3.272490


........................................................................
.............................. CYCLE    1 ..............................
........................................................................

 iter      E             dE          RMSdq      gap      omega  full diag
   1    -56.9870764 -0.569871E+02  0.106E-04    0.98       0.0  T
   2    -56.9870764 -0.131024E-10  0.782E-05    0.98     219.4  T
   3    -56.9870764 -0.158977E-09  0.521E-05    0.98     329.3  T
     SCC iter.                  ...        0 min,  0.059 sec
     gradient                   ...        0 min,  0.002 sec
 * total energy  :   -55.8680416 Eh     change       -0.4829133E-09 Eh
   gradient norm :     1.4801571 Eh/α   predicted     0.0000000E+00 (-100.00%)
   displ. norm   :     0.5070433 α      lambda       -0.6958436E+00
   maximum displ.:     0.2880717 α      in ANC's #96, #95, #85, ...

........................................................................
.............................. CYCLE    2 ..............................
........................................................................

 iter      E             dE          RMSdq      gap      omega  full diag
   1    -57.0293707 -0.570294E+02  0.112E+00    1.94       0.0  T
   2    -57.0519521 -0.225815E-01  0.640E-01    1.94       1.0  T
   3    -57.0583006 -0.634846E-02  0.262E-01    1.96       1.0  T
   4    -57.0581127  0.187936E-03  0.139E-01    1.94       1.0  T
   5    -57.0583640 -0.251342E-03  0.449E-02    1.95       1.0  T
   6    -57.0584220 -0.579719E-04  0.169E-02    1.95       1.0  T
   7    -57.0584265 -0.448373E-05  0.752E-03    1.95       2.3  T
   8    -57.0584268 -0.375018E-06  0.331E-03    1.95       5.2  T
   9    -57.0584269 -0.990896E-07  0.116E-03    1.95      14.8  T
  10    -57.0584269 -0.114106E-07  0.460E-04    1.95      37.2  T
  11    -57.0584269 -0.150541E-08  0.197E-04    1.95      86.9  T
     SCC iter.                  ...        0 min,  0.016 sec
     gradient                   ...        0 min,  0.001 sec
 * total energy  :   -56.2932631 Eh     change       -0.4252216E+00 Eh
   gradient norm :     0.4740780 Eh/α   predicted    -0.4373713E+00 (   2.86%)
   displ. norm   :     0.5272829 α      lambda       -0.1993505E+00
   maximum displ.:     0.1817049 α      in ANC's #60, #71, #56, ...

........................................................................
.............................. CYCLE    3 ..............................
........................................................................

 iter      E             dE          RMSdq      gap      omega  full diag
   1    -57.1764023 -0.571764E+02  0.709E-01    3.17       0.0  T
   2    -57.1824665 -0.606415E-02  0.395E-01    3.10       1.0  T
   3    -57.1830565 -0.589982E-03  0.212E-01    3.16       1.0  T
   4    -57.1830386  0.178371E-04  0.849E-02    3.10       1.0  T
   5    -57.1831936 -0.154943E-03  0.245E-02    3.11       1.0  T
   6    -57.1832030 -0.939725E-05  0.131E-02    3.12       1.3  T
   7    -57.1832055 -0.255022E-05  0.466E-03    3.12       3.7  T
   8    -57.1832056 -0.959833E-07  0.237E-03    3.12       7.2  T
   9    -57.1832057 -0.557310E-07  0.773E-04    3.12      22.2  T
  10    -57.1832057 -0.314634E-08  0.308E-04    3.12      55.7  T
     SCC iter.                  ...        0 min,  0.013 sec
     gradient                   ...        0 min,  0.001 sec
 * total energy  :   -56.4344459 Eh     change       -0.1411827E+00 Eh
   gradient norm :     0.1857277 Eh/α   predicted    -0.1273886E+00 (  -9.77%)
   displ. norm   :     0.4543897 α      lambda       -0.6284766E-01
   maximum displ.:     0.1284659 α      in ANC's #20, #71, #56, ...

........................................................................
.............................. CYCLE    4 ..............................
........................................................................

 iter      E             dE          RMSdq      gap      omega  full diag
   1    -57.2276730 -0.572277E+02  0.539E-01    3.50       0.0  T
   2    -57.2308361 -0.316314E-02  0.300E-01    3.43       1.0  T
   3    -57.2310561 -0.220022E-03  0.161E-01    3.42       1.0  T
   4    -57.2310648 -0.864617E-05  0.486E-02    3.41       1.0  T
   5    -57.2311147 -0.499343E-04  0.168E-02    3.41       1.0  T
   6    -57.2311220 -0.724865E-05  0.719E-03    3.41       2.4  T
   7    -57.2311221 -0.176512E-06  0.309E-03    3.41       5.5  T
   8    -57.2311222 -0.108908E-06  0.118E-03    3.41      14.5  T
   9    -57.2311223 -0.118457E-07  0.500E-04    3.41      34.3  T
  10    -57.2311223 -0.142344E-08  0.186E-04    3.41      92.4  T
     SCC iter.                  ...        0 min,  0.014 sec
     gradient                   ...        0 min,  0.002 sec
 * total energy  :   -56.4672953 Eh     change       -0.3284942E-01 Eh
   gradient norm :     0.0647675 Eh/α   predicted    -0.3791263E-01 (  15.41%)
   displ. norm   :     0.3299613 α      lambda       -0.1105804E-01
   maximum displ.:     0.1388411 α      in ANC's #39, #14, #20, ...

........................................................................
.............................. CYCLE    5 ..............................
........................................................................

 iter      E             dE          RMSdq      gap      omega  full diag
   1    -57.2143021 -0.572143E+02  0.286E-01    3.28       0.0  T
   2    -57.2145596 -0.257563E-03  0.170E-01    3.31       1.0  T
   3    -57.2145543  0.536049E-05  0.747E-02    3.31       1.0  T
   4    -57.2146004 -0.461282E-04  0.124E-02    3.32       1.4  T
   5    -57.2146032 -0.282279E-05  0.585E-03    3.32       2.9  T
   6    -57.2146036 -0.388887E-06  0.324E-03    3.31       5.3  T
   7    -57.2146037 -0.936214E-07  0.106E-03    3.31      16.2  T
   8    -57.2146037 -0.775259E-08  0.490E-04    3.31      35.0  T
   9    -57.2146037 -0.287304E-08  0.233E-04    3.31      73.6  T
     SCC iter.                  ...        0 min,  0.012 sec
     gradient                   ...        0 min,  0.002 sec
 * total energy  :   -56.4712342 Eh     change       -0.3938877E-02 Eh
   gradient norm :     0.0520654 Eh/α   predicted    -0.6131158E-02 (  55.66%)
   displ. norm   :     0.3313737 α      lambda       -0.8632044E-02
   maximum displ.:     0.1500567 α      in ANC's #14, #31, #15, ...

........................................................................
.............................. CYCLE    6 ..............................
........................................................................

 iter      E             dE          RMSdq      gap      omega  full diag
   1    -57.2166099 -0.572166E+02  0.259E-01    3.29       0.0  T
   2    -57.2168700 -0.260116E-03  0.151E-01    3.32       1.0  T
   3    -57.2168708 -0.782893E-06  0.505E-02    3.31       1.0  T
   4    -57.2168719 -0.109846E-05  0.119E-02    3.32       1.4  T
   5    -57.2168760 -0.414935E-05  0.409E-03    3.31       4.2  T
   6    -57.2168761 -0.582152E-07  0.177E-03    3.31       9.7  T
   7    -57.2168761 -0.382352E-07  0.543E-04    3.31      31.6  T
   8    -57.2168761 -0.234277E-08  0.265E-04    3.31      64.8  T
     SCC iter.                  ...        0 min,  0.012 sec
     gradient                   ...        0 min,  0.001 sec
 * total energy  :   -56.4728092 Eh     change       -0.1575060E-02 Eh
   gradient norm :     0.0466321 Eh/α   predicted    -0.4790004E-02 ( 204.12%)
   displ. norm   :     0.1492319 α      lambda       -0.3998736E-02
   maximum displ.:     0.0477847 α      in ANC's #27, #48, #14, ...

........................................................................
.............................. CYCLE    7 ..............................
........................................................................

 iter      E             dE          RMSdq      gap      omega  full diag
   1    -57.2270296 -0.572270E+02  0.128E-01    3.38       0.0  T
   2    -57.2271618 -0.132222E-03  0.758E-02    3.35       1.0  T
   3    -57.2271651 -0.326923E-05  0.382E-02    3.36       1.0  T
   4    -57.2271658 -0.752246E-06  0.954E-03    3.35       1.8  T
   5    -57.2271680 -0.217762E-05  0.312E-03    3.35       5.5  T
   6    -57.2271682 -0.189860E-06  0.156E-03    3.35      11.0  T
   7    -57.2271682 -0.132310E-07  0.481E-04    3.35      35.7  T
   8    -57.2271682 -0.253218E-08  0.201E-04    3.35      85.2  T
     SCC iter.                  ...        0 min,  0.009 sec
     gradient                   ...        0 min,  0.005 sec
 * total energy  :   -56.4750282 Eh     change       -0.2218994E-02 Eh
   gradient norm :     0.0190426 Eh/α   predicted    -0.2043857E-02 (  -7.89%)
   displ. norm   :     0.1173071 α      lambda       -0.7875510E-03
   maximum displ.:     0.0483557 α      in ANC's #8, #15, #6, ...

........................................................................
.............................. CYCLE    8 ..............................
........................................................................

 iter      E             dE          RMSdq      gap      omega  full diag
   1    -57.2298755 -0.572299E+02  0.691E-02    3.38       0.0  T
   2    -57.2298913 -0.157557E-04  0.402E-02    3.38       1.0  T
   3    -57.2298905  0.775189E-06  0.147E-02    3.38       1.2  T
   4    -57.2298916 -0.107873E-05  0.547E-03    3.38       3.1  T
   5    -57.2298925 -0.934512E-06  0.159E-03    3.38      10.8  T
   6    -57.2298925 -0.235249E-07  0.845E-04    3.38      20.3  T
   7    -57.2298925 -0.341709E-08  0.269E-04    3.38      63.8  T
     SCC iter.                  ...        0 min,  0.009 sec
     gradient                   ...        0 min,  0.001 sec
 * total energy  :   -56.4755090 Eh     change       -0.4807652E-03 Eh
   gradient norm :     0.0141317 Eh/α   predicted    -0.3991571E-03 ( -16.97%)
   displ. norm   :     0.1371290 α      lambda       -0.6146504E-03
   maximum displ.:     0.0554408 α      in ANC's #8, #15, #3, ...

........................................................................
.............................. CYCLE    9 ..............................
........................................................................

 iter      E             dE          RMSdq      gap      omega  full diag
   1    -57.2320712 -0.572321E+02  0.615E-02    3.39       0.0  T
   2    -57.2320795 -0.831293E-05  0.357E-02    3.39       1.0  T
   3    -57.2320778  0.164613E-05  0.132E-02    3.40       1.3  T
   4    -57.2320807 -0.284939E-05  0.420E-03    3.40       4.1  T
   5    -57.2320812 -0.502002E-06  0.181E-03    3.40       9.5  T
   6    -57.2320812 -0.230006E-07  0.876E-04    3.40      19.6  T
   7    -57.2320812 -0.744120E-08  0.266E-04    3.40      64.4  T
     SCC iter.                  ...        0 min,  0.013 sec
     gradient                   ...        0 min,  0.002 sec
 * total energy  :   -56.4758982 Eh     change       -0.3891895E-03 Eh
   gradient norm :     0.0130183 Eh/α   predicted    -0.3130525E-03 ( -19.56%)
   displ. norm   :     0.1069599 α      lambda       -0.3573649E-03
   maximum displ.:     0.0475374 α      in ANC's #8, #3, #4, ...

........................................................................
.............................. CYCLE   10 ..............................
........................................................................

 iter      E             dE          RMSdq      gap      omega  full diag
   1    -57.2333823 -0.572334E+02  0.461E-02    3.41       0.0  T
   2    -57.2333891 -0.676222E-05  0.265E-02    3.41       1.0  T
   3    -57.2333886  0.430044E-06  0.933E-03    3.41       1.8  T
   4    -57.2333897 -0.111211E-05  0.319E-03    3.41       5.4  T
   5    -57.2333900 -0.222496E-06  0.152E-03    3.41      11.3  T
   6    -57.2333900 -0.301571E-07  0.683E-04    3.41      25.1  T
   7    -57.2333900 -0.473153E-08  0.223E-04    3.41      77.0  T
     SCC iter.                  ...        0 min,  0.013 sec
     gradient                   ...        0 min,  0.003 sec
 * total energy  :   -56.4761024 Eh     change       -0.2041643E-03 Eh
   gradient norm :     0.0087057 Eh/α   predicted    -0.1807095E-03 ( -11.49%)
   displ. norm   :     0.0722784 α      lambda       -0.1570302E-03
   maximum displ.:     0.0337918 α      in ANC's #4, #2, #5, ...

........................................................................
.............................. CYCLE   11 ..............................
........................................................................

 iter      E             dE          RMSdq      gap      omega  full diag
   1    -57.2335412 -0.572335E+02  0.358E-02    3.41       0.0  T
   2    -57.2335425 -0.128142E-05  0.212E-02    3.41       1.0  T
   3    -57.2335420  0.449520E-06  0.529E-03    3.41       3.2  T
   4    -57.2335427 -0.650980E-06  0.177E-03    3.41       9.7  T
   5    -57.2335427 -0.671696E-07  0.733E-04    3.41      23.4  T
   6    -57.2335427 -0.159641E-08  0.308E-04    3.41      55.7  T
     SCC iter.                  ...        0 min,  0.014 sec
     gradient                   ...        0 min,  0.002 sec
 * total energy  :   -56.4761995 Eh     change       -0.9714217E-04 Eh
   gradient norm :     0.0053275 Eh/α   predicted    -0.7892784E-04 ( -18.75%)
   displ. norm   :     0.0678110 α      lambda       -0.8745538E-04
   maximum displ.:     0.0359286 α      in ANC's #4, #5, #2, ...

........................................................................
.............................. CYCLE   12 ..............................
........................................................................

 iter      E             dE          RMSdq      gap      omega  full diag
   1    -57.2335679 -0.572336E+02  0.293E-02    3.41       0.0  T
   2    -57.2335682 -0.349872E-06  0.171E-02    3.41       1.0  T
   3    -57.2335682  0.696720E-07  0.257E-03    3.41       6.7  T
   4    -57.2335683 -0.153207E-06  0.873E-04    3.41      19.7  T
   5    -57.2335683 -0.683318E-08  0.472E-04    3.41      36.3  T
     SCC iter.                  ...        0 min,  0.008 sec
     gradient                   ...        0 min,  0.003 sec
 * total energy  :   -56.4762559 Eh     change       -0.5640463E-04 Eh
   gradient norm :     0.0033182 Eh/α   predicted    -0.4392942E-04 ( -22.12%)
   displ. norm   :     0.0654346 α      lambda       -0.5250592E-04
   maximum displ.:     0.0302450 α      in ANC's #4, #5, #3, ...

........................................................................
.............................. CYCLE   13 ..............................
........................................................................

 iter      E             dE          RMSdq      gap      omega  full diag
   1    -57.2336136 -0.572336E+02  0.268E-02    3.41       0.0  T
   2    -57.2336138 -0.226912E-06  0.155E-02    3.41       1.1  T
   3    -57.2336137  0.908392E-07  0.272E-03    3.41       6.3  T
   4    -57.2336139 -0.173409E-06  0.831E-04    3.41      20.6  T
   5    -57.2336139 -0.251636E-08  0.448E-04    3.41      38.3  T
     SCC iter.                  ...        0 min,  0.007 sec
     gradient                   ...        0 min,  0.001 sec
 * total energy  :   -56.4762893 Eh     change       -0.3335283E-04 Eh
   gradient norm :     0.0026537 Eh/α   predicted    -0.2636675E-04 ( -20.95%)
   displ. norm   :     0.0531315 α      lambda       -0.3022946E-04
   maximum displ.:     0.0226810 α      in ANC's #4, #3, #5, ...

........................................................................
.............................. CYCLE   14 ..............................
........................................................................

 iter      E             dE          RMSdq      gap      omega  full diag
   1    -57.2337391 -0.572337E+02  0.192E-02    3.41       0.0  T
   2    -57.2337394 -0.312432E-06  0.112E-02    3.41       1.5  T
   3    -57.2337392  0.211950E-06  0.383E-03    3.41       4.5  T
   4    -57.2337395 -0.298291E-06  0.909E-04    3.41      18.9  T
   5    -57.2337395 -0.133388E-07  0.420E-04    3.41      40.8  T
     SCC iter.                  ...        0 min,  0.005 sec
     gradient                   ...        0 min,  0.001 sec
 * total energy  :   -56.4763095 Eh     change       -0.2021890E-04 Eh
   gradient norm :     0.0022731 Eh/α   predicted    -0.1516050E-04 ( -25.02%)
   displ. norm   :     0.0430044 α      lambda       -0.1770845E-04
   maximum displ.:     0.0252711 α      in ANC's #3, #4, #12, ...

........................................................................
.............................. CYCLE   15 ..............................
........................................................................

 iter      E             dE          RMSdq      gap      omega  full diag
   1    -57.2337619 -0.572338E+02  0.154E-02    3.41       0.0  T
   2    -57.2337620 -0.127319E-06  0.906E-03    3.41       1.9  T
   3    -57.2337619  0.167219E-06  0.279E-03    3.41       6.1  T
   4    -57.2337621 -0.210330E-06  0.617E-04    3.41      27.8  T
   5    -57.2337621 -0.577946E-08  0.288E-04    3.41      59.6  T
     SCC iter.                  ...        0 min,  0.009 sec
     gradient                   ...        0 min,  0.002 sec
 * total energy  :   -56.4763207 Eh     change       -0.1120099E-04 Eh
   gradient norm :     0.0017503 Eh/α   predicted    -0.8872845E-05 ( -20.79%)
   displ. norm   :     0.0370001 α      lambda       -0.6903421E-05
   maximum displ.:     0.0248189 α      in ANC's #3, #4, #6, ...

........................................................................
.............................. CYCLE   16 ..............................
........................................................................

 iter      E             dE          RMSdq      gap      omega  full diag
   1    -57.2338288 -0.572338E+02  0.134E-02    3.41       0.0  T
   2    -57.2338289 -0.134617E-06  0.786E-03    3.41       2.2  T
   3    -57.2338289  0.318718E-07  0.173E-03    3.41       9.9  T
   4    -57.2338289 -0.569611E-07  0.372E-04    3.41      46.1  T
   5    -57.2338289 -0.107010E-08  0.198E-04    3.41      86.7  T
     SCC iter.                  ...        0 min,  0.007 sec
     gradient                   ...        0 min,  0.003 sec
 * total energy  :   -56.4763254 Eh     change       -0.4689525E-05 Eh
   gradient norm :     0.0011981 Eh/α   predicted    -0.3458679E-05 ( -26.25%)
   displ. norm   :     0.0182159 α      lambda       -0.3311112E-05
   maximum displ.:     0.0126509 α      in ANC's #3, #4, #6, ...

........................................................................
.............................. CYCLE   17 ..............................
........................................................................

 iter      E             dE          RMSdq      gap      omega  full diag
   1    -57.2337869 -0.572338E+02  0.821E-03    3.41       0.0  T
   2    -57.2337870 -0.616097E-07  0.483E-03    3.41       3.5  T
   3    -57.2337869  0.333833E-07  0.149E-03    3.41      11.5  T
   4    -57.2337870 -0.410557E-07  0.404E-04    3.41      42.4  T
   5    -57.2337870 -0.460611E-08  0.115E-04    3.41     149.7  T
     SCC iter.                  ...        0 min,  0.005 sec
     gradient                   ...        0 min,  0.001 sec
 * total energy  :   -56.4763281 Eh     change       -0.2769364E-05 Eh
   gradient norm :     0.0009229 Eh/α   predicted    -0.1657178E-05 ( -40.16%)
   displ. norm   :     0.0214546 α      lambda       -0.2653379E-05
   maximum displ.:     0.0134948 α      in ANC's #3, #4, #6, ...

   *** GEOMETRY OPTIMIZATION CONVERGED AFTER 17 ITERATIONS ***

------------------------------------------------------------------------
 total energy gain   :        -0.6082866 Eh     -381.7056 kcal/mol
 total RMSD          :         0.2847576 a0        0.1507 Å
 total power (kW/mol):       -93.9444791 (step)-5529.9133 (real)
------------------------------------------------------------------------

 ANCopt (total)                0 d,  0 h,  0 min,  0.289 sec
 optimizer setup                ...        0 min,  0.000 sec (  0.051%)
 model hessian                  ...        0 min,  0.005 sec (  1.660%)
 ANC generation                 ...        0 min,  0.005 sec (  1.757%)
 coordinate transformation      ...        0 min,  0.000 sec (  0.035%)
 single point calculation       ...        0 min,  0.274 sec ( 94.745%)
 optimization log               ...        0 min,  0.001 sec (  0.430%)
 hessian update                 ...        0 min,  0.000 sec (  0.063%)
 rational function              ...        0 min,  0.002 sec (  0.780%)

================
 final structure:
================
34
 xtb: 6.7.1-6.fc44.fc44
O           -3.64906087397979        2.61226186801488       -0.10545949205506
C           -3.51354897863445        2.44399582267297       -1.40643107920454
O           -4.31642416780478        2.83245318905822       -2.20697807016019
H           -2.90602920590277        2.18957452343249        0.40942507704703
C           -2.21218900744963        1.73116347782086       -1.83696879608560
H           -1.37339632929896        2.34945704997988       -1.49268888233696
H           -2.19377300268850        1.66886869565368       -2.92433165912632
N           -2.07000545377600        0.40001679858961       -1.28213364873351
H           -2.19930087530464       -0.40728787678968       -1.87621293620588
C           -1.80408566119463        0.15489014716852        0.00477991217047
O           -1.77170649165570        1.03163186064651        0.86204014800633
C           -1.54888084313790       -1.31705766846694        0.29841875353272
H           -1.67761346460431       -1.47443430629197        1.38100918112443
N           -2.46724419573313       -2.10142184951466       -0.52322460488322
H           -3.42479426688905       -1.96757464801064       -0.21426773130834
H           -2.25560822824390       -3.08998967298183       -0.44028257128475
C           -0.11065340539341       -1.68373858115768       -0.09534035080994
H            0.02017882553605       -1.48160743553944       -1.16288178328522
H            0.01192926525719       -2.76414338504268        0.04414809462564
C            0.95395968961338       -0.97386572544378        0.67889569233274
C            0.84160591883359       -0.17597834660424        1.77918027964365
H           -0.03498548342036        0.14673372836349        2.30442414897907
N            2.07992573204766        0.24708421065152        2.18070596610560
H            2.25658973190010        0.86332144995216        2.95486787714098
C            3.02397935313769       -0.27335634641508        1.34623804458750
C            4.40661818445969       -0.14027642662142        1.34653786842570
H            4.90774641854802        0.46111451194947        2.09079953503282
C            5.11161423883481       -0.80221965866935        0.36503855231555
H            6.18792631857958       -0.72074897424492        0.33503340208408
C            4.46090851935734       -1.58069297167689       -0.59660438965028
H            5.05278812079701       -2.08351030522047       -1.34706369759244
C            3.09130788254204       -1.71712610346836       -0.60193749817572
H            2.59825988531768       -2.32235047482477       -1.34865211146348
C            2.35083103154621       -1.05805582753662        0.37939096988535

 Bond Distances (Angstroems)
 ---------------------------
O1-C2=1.3188         O1-H4=0.9979         C2-O1=1.3188         C2-O3=1.1985         C2-C5=1.5450         O3-C2=1.1985         
H4-O1=0.9979         C5-C2=1.5450         C5-H6=1.0974         C5-H7=1.0893         C5-N8=1.4491         H6-C5=1.0974         
H7-C5=1.0893         N8-C5=1.4491         N8-H9=1.0106         N8-C10=1.3368        H9-N8=1.0106         C10-N8=1.3368        
C10-O11=1.2266       C10-C12=1.5225       O11-C10=1.2266       C12-C10=1.5225       C12-H13=1.1015       C12-N14=1.4607       
C12-C17=1.5356       H13-C12=1.1015       N14-C12=1.4607       N14-H15=1.0150       N14-H16=1.0144       H15-N14=1.0150       
H16-N14=1.0144       C17-C12=1.5356       C17-H18=1.0944       C17-H19=1.0962       C17-C20=1.4956       H18-C17=1.0944       
H19-C17=1.0962       C20-C17=1.4956       C20-C21=1.3638       C20-C34=1.4311       C21-C20=1.3638       C21-H22=1.0717       
C21-N23=1.3688       H22-C21=1.0717       N23-C21=1.3688       N23-H24=1.0051       N23-C25=1.3632       H24-N23=1.0051       
C25-N23=1.3632       C25-C26=1.3890       C25-C34=1.4155       C26-C25=1.3890       C26-H27=1.0802       C26-C28=1.3779       
H27-C26=1.0802       C28-C26=1.3779       C28-H29=1.0798       C28-C30=1.3979       H29-C28=1.0798       C30-C28=1.3979       
C30-H31=1.0800       C30-C32=1.3764       H31-C30=1.0800       C32-C30=1.3764       C32-H33=1.0803       C32-C34=1.3949       
H33-C32=1.0803       C34-C20=1.4311       C34-C25=1.4155       C34-C32=1.3949       
 C  H  Rav=1.0871 sigma=0.0095  Rmin=1.0717  Rmax=1.1015    10
 C  C  Rav=1.4371 sigma=0.0650  Rmin=1.3638  Rmax=1.5450    12
 N  H  Rav=1.0113 sigma=0.0039  Rmin=1.0051  Rmax=1.0150     4
 N  C  Rav=1.3957 sigma=0.0497  Rmin=1.3368  Rmax=1.4607     5
 O  H  Rav=0.9979 sigma=0.0000  Rmin=0.9979  Rmax=0.9979     1
 O  C  Rav=1.2480 sigma=0.0514  Rmin=1.1985  Rmax=1.3188     3

 selected bond angles (degree)
 --------------------
H4-O1-C2=112.24                O3-C2-O1=123.28                C5-C2-O1=114.85                C5-C2-O3=121.85                
H6-C5-C2=107.24                H7-C5-C2=108.59                H7-C5-H6=109.42                N8-C5-C2=113.56                
N8-C5-H6=108.81                N8-C5-H7=109.15                H9-N8-C5=119.75                C10-N8-C5=123.82               
C10-N8-H9=116.42               O11-C10-N8=123.16              C12-C10-N8=113.35              C12-C10-O11=123.49             

 selected dihedral angles (degree)
 ---------------------------------
O3-C2-O1-H4=177.45            C5-C2-O1-H4=356.01            H6-C5-C2-O1=299.55            H6-C5-C2-O3=118.13            
H7-C5-C2-O1=181.41            H7-C5-C2-O3=  0.00            N8-C5-C2-O1= 59.79            N8-C5-C2-O3=238.38            
H9-N8-C5-C2=106.52            H9-N8-C5-H6=225.87            H9-N8-C5-H7=345.21            C10-N8-C5-C2=288.26           
C10-N8-C5-H6= 47.61           C10-N8-C5-H7=166.95           O11-C10-N8-C5=  6.65          O11-C10-N8-H9=188.34          
C12-C10-N8-C5=186.55          C12-C10-N8-H9=  8.24          
           -------------------------------------------------
          |                Final Singlepoint                |
           -------------------------------------------------

          ...................................................
          :                      SETUP                      :
          :.................................................:
          :  # basis functions                  91          :
          :  # atomic orbitals                  91          :
          :  # shells                           53          :
          :  # electrons                       100          :
          :  max. iterations                   250          :
          :  Hamiltonian                  GFN2-xTB          :
          :  restarted?                      false          :
          :  GBSA solvation                  false          :
          :  PC potential                    false          :
          :  electronic temp.          300.0000000     K    :
          :  accuracy                    1.0000000          :
          :  -> integral cutoff          0.2500000E+02      :
          :  -> integral neglect         0.1000000E-07      :
          :  -> SCF convergence          0.1000000E-05 Eh   :
          :  -> wf. convergence          0.1000000E-03 e    :
          :  Broyden damping             0.4000000          :
          :  net charge                          0          :
          :  unpaired electrons                  0          :
          ...................................................

 iter      E             dE          RMSdq      gap      omega  full diag
   1    -57.2337870 -0.572338E+02  0.584E-05    3.41       0.0  T
   2    -57.2337870 -0.181970E-10  0.372E-05    3.41     461.5  T
   3    -57.2337870 -0.118732E-10  0.251E-05    3.41     682.7  T

   *** convergence criteria satisfied after 3 iterations ***

         #    Occupation            Energy/Eh            Energy/eV
      -------------------------------------------------------------
         1        2.0000           -0.7378549             -20.0781
       ...           ...                  ...                  ...
        44        2.0000           -0.4244208             -11.5491
        45        2.0000           -0.4184696             -11.3871
        46        2.0000           -0.4149559             -11.2915
        47        2.0000           -0.4051813             -11.0255
        48        2.0000           -0.3998295             -10.8799
        49        2.0000           -0.3835122             -10.4359
        50        2.0000           -0.3653131              -9.9407 (HOMO)
        51                         -0.2401076              -6.5337 (LUMO)
        52                         -0.2331191              -6.3435
        53                         -0.2321832              -6.3180
        54                         -0.1990937              -5.4176
        55                         -0.1586070              -4.3159
       ...                                ...                  ...
        91                          0.7160020              19.4834
      -------------------------------------------------------------
                  HL-Gap            0.1252055 Eh            3.4070 eV
             Fermi-level           -0.3027104 Eh           -8.2372 eV

 SCC (total)                   0 d,  0 h,  0 min,  0.006 sec
 SCC setup                      ...        0 min,  0.000 sec (  2.894%)
 Dispersion                     ...        0 min,  0.000 sec (  1.672%)
 classical contributions        ...        0 min,  0.000 sec (  0.190%)
 integral evaluation            ...        0 min,  0.001 sec ( 11.282%)
 iterations                     ...        0 min,  0.003 sec ( 54.371%)
 molecular gradient             ...        0 min,  0.002 sec ( 25.105%)
 printout                       ...        0 min,  0.000 sec (  4.398%)

         :::::::::::::::::::::::::::::::::::::::::::::::::::::
         ::                     SUMMARY                     ::
         :::::::::::::::::::::::::::::::::::::::::::::::::::::
         :: total energy             -56.476328129986 Eh    ::
         :: gradient norm              0.000922572472 Eh/a0 ::
         :: HOMO-LUMO gap              3.407014914761 eV    ::
         ::.................................................::
         :: SCC energy               -57.233564821555 Eh    ::
         :: -> isotropic ES            0.097890475186 Eh    ::
         :: -> anisotropic ES          0.003962446079 Eh    ::
         :: -> anisotropic XC          0.019445604129 Eh    ::
         :: -> dispersion             -0.033955642858 Eh    ::
         :: repulsion energy           0.757236691570 Eh    ::
         :: add. restraining           0.000000000000 Eh    ::
         :: total charge               0.000000000000 e     ::
         :::::::::::::::::::::::::::::::::::::::::::::::::::::

           -------------------------------------------------
          |                Property Printout                |
           -------------------------------------------------

    * Orbital Energies and Occupations

         #    Occupation            Energy/Eh            Energy/eV
      -------------------------------------------------------------
         1        2.0000           -0.7378549             -20.0781
       ...           ...                  ...                  ...
        38        2.0000           -0.4666574             -12.6984
        39        2.0000           -0.4666146             -12.6972
        40        2.0000           -0.4563251             -12.4172
        41        2.0000           -0.4542790             -12.3616
        42        2.0000           -0.4483383             -12.1999
        43        2.0000           -0.4299135             -11.6985
        44        2.0000           -0.4244208             -11.5491
        45        2.0000           -0.4184696             -11.3871
        46        2.0000           -0.4149559             -11.2915
        47        2.0000           -0.4051813             -11.0255
        48        2.0000           -0.3998295             -10.8799
        49        2.0000           -0.3835122             -10.4359
        50        2.0000           -0.3653131              -9.9407 (HOMO)
        51                         -0.2401076              -6.5337 (LUMO)
        52                         -0.2331191              -6.3435
        53                         -0.2321832              -6.3180
        54                         -0.1990937              -5.4176
        55                         -0.1586070              -4.3159
        56                         -0.0728170              -1.9815
        57                         -0.0234146              -0.6371
        58                          0.0118593               0.3227
        59                          0.0257978               0.7020
        60                          0.0528271               1.4375
        61                          0.0778158               2.1175
       ...                                ...                  ...
        91                          0.7160020              19.4834
      -------------------------------------------------------------
                  HL-Gap            0.1252055 Eh            3.4070 eV
             Fermi-level           -0.3027104 Eh           -8.2372 eV

     #   Z          covCN         q      C6AA      α(0)
     1   8 O        1.655    -0.376    20.392     6.096
     2   6 C        2.684     0.357    20.933     7.487
     3   8 O        0.856    -0.376    21.211     6.175
     4   1 H        0.800     0.364     0.558     1.173
     5   6 C        3.737    -0.041    21.385     6.599
     6   1 H        0.924     0.078     2.001     2.212
     7   1 H        0.925     0.079     1.989     2.206
     8   7 N        2.688    -0.159    24.437     7.342
     9   1 H        0.860     0.205     1.082     1.629
    10   6 C        2.757     0.267    22.490     7.766
    11   8 O        0.858    -0.459    22.899     6.416
    12   6 C        3.788     0.030    20.078     6.382
    13   1 H        0.923     0.035     2.523     2.484
    14   7 N        2.636    -0.355    29.143     8.018
    15   1 H        0.860     0.145     1.436     1.877
    16   1 H        0.860     0.152     1.389     1.847
    17   6 C        3.808    -0.061    21.663     6.626
    18   1 H        0.924     0.049     2.330     2.387
    19   1 H        0.924     0.049     2.337     2.391
    20   6 C        3.054    -0.037    28.855     8.809
    21   6 C        3.030    -0.008    28.179     8.707
    22   1 H        0.926     0.050     2.324     2.384
    23   7 N        2.781    -0.103    23.257     7.163
    24   1 H        0.860     0.160     1.334     1.810
    25   6 C        3.083     0.045    26.910     8.504
    26   6 C        2.909    -0.053    29.313     8.878
    27   1 H        0.926     0.024     2.679     2.559
    28   6 C        2.924    -0.037    28.913     8.818
    29   1 H        0.926     0.028     2.618     2.530
    30   6 C        2.920    -0.042    29.040     8.837
    31   1 H        0.926     0.026     2.646     2.544
    32   6 C        2.911    -0.038    28.951     8.823
    33   1 H        0.926     0.024     2.678     2.559
    34   6 C        3.119    -0.021    28.364     8.723

 Mol. C6AA /au·bohr⁶  :      13333.177184
 Mol. C8AA /au·bohr⁸  :     312426.996726
 Mol. α(0) /au        :        178.758314


Wiberg/Mayer (AO) data.
largest (>0.10) Wiberg bond orders for each atom

 ---------------------------------------------------------------------------
     #   Z sym  total        # sym  WBO       # sym  WBO       # sym  WBO
 ---------------------------------------------------------------------------
     1   8 O    2.231 --     2 C    1.198     4 H    0.771     3 O    0.182
     2   6 C    3.931 --     3 O    1.775     1 O    1.198     5 C    0.925
     3   8 O    2.068 --     2 C    1.775     1 O    0.182
     4   1 H    0.868 --     1 O    0.771
     5   6 C    3.963 --     8 N    0.992     7 H    0.973     6 H    0.952
                             2 C    0.925
     6   1 H    0.994 --     5 C    0.952
     7   1 H    0.994 --     5 C    0.973
     8   7 N    3.482 --    10 C    1.310     5 C    0.992     9 H    0.920
                            11 O    0.193
     9   1 H    0.958 --     8 N    0.920
    10   6 C    3.947 --    11 O    1.607     8 N    1.310    12 C    0.951
    11   8 O    2.011 --    10 C    1.607     8 N    0.193
    12   6 C    3.982 --    14 N    1.009    17 C    0.974    13 H    0.958
                            10 C    0.951
    13   1 H    0.999 --    12 C    0.958
    14   7 N    3.012 --    12 C    1.009    15 H    0.965    16 H    0.960
    15   1 H    0.979 --    14 N    0.965
    16   1 H    0.977 --    14 N    0.960
    17   6 C    3.992 --    20 C    1.014    12 C    0.974    18 H    0.965
                            19 H    0.958
    18   1 H    0.998 --    17 C    0.965
    19   1 H    0.997 --    17 C    0.958
    20   6 C    3.974 --    21 C    1.588    34 C    1.201    17 C    1.014
    21   6 C    3.952 --    20 C    1.588    23 N    1.195    22 H    0.966
    22   1 H    0.997 --    21 C    0.966
    23   7 N    3.544 --    21 C    1.195    25 C    1.179    24 H    0.947
    24   1 H    0.974 --    23 N    0.947
    25   6 C    3.959 --    26 C    1.338    34 C    1.247    23 N    1.179
    26   6 C    3.989 --    28 C    1.494    25 C    1.338    27 H    0.969
                            32 C    0.113
    27   1 H    0.999 --    26 C    0.969
    28   6 C    3.991 --    26 C    1.494    30 C    1.371    29 H    0.972
    29   1 H    0.999 --    28 C    0.972
    30   6 C    3.991 --    32 C    1.504    28 C    1.371    31 H    0.972
    31   1 H    0.999 --    30 C    0.972
    32   6 C    3.992 --    30 C    1.504    34 C    1.332    33 H    0.970
                            26 C    0.113
    33   1 H    0.999 --    32 C    0.970
    34   6 C    3.984 --    32 C    1.332    25 C    1.247    20 C    1.201
 ---------------------------------------------------------------------------

Topologies differ in total number of bonds
Writing topology from bond orders to xtbtopo.mol

molecular dipole:
                 x           y           z       tot (Debye)
 q only:        1.106      -1.319       0.179
   full:        1.292      -1.725       0.601       5.687
molecular quadrupole (traceless):
                xx          xy          yy          xz          yz          zz
 q only:      -15.356      23.182       2.835      -2.687       6.480      12.520
  q+dip:      -16.915      31.488       2.378      -5.604      10.174      14.537
   full:      -17.437      31.820       3.919      -5.330       8.079      13.519

           -------------------------------------------------
          |                Geometry Summary                 |
           -------------------------------------------------

      molecular mass/u    :      261.2770023
   center of mass at/Å    :       -0.0169158       0.0374339       0.0027067
  moments of inertia/u·Å² :        0.6390158E+03   0.2922079E+04   0.3037959E+04
rotational constants/cm⁻¹ :        0.2638062E-01   0.5769053E-02   0.5548999E-02

 * 32 selected distances

     #   Z          #   Z                                           value/Å
     1   8 O        2   6 C                                       1.3187890
     2   6 C        3   8 O                                       1.1984922
     1   8 O        4   1 H                                       0.9979313 (min)
     5   6 C        6   1 H                                       1.0974466
     5   6 C        7   1 H                                       1.0893016
     5   6 C        8   7 N                                       1.4491412
     8   7 N        9   1 H                                       1.0106377
     8   7 N       10   6 C                                       1.3367675
    10   6 C       11   8 O                                       1.2266295
    12   6 C       13   1 H                                       1.1015179
    12   6 C       14   7 N                                       1.4607247
    14   7 N       15   1 H                                       1.0150230
    14   7 N       16   1 H                                       1.0143647
    12   6 C       17   6 C                                       1.5355780 (max)
    17   6 C       18   1 H                                       1.0943578
    17   6 C       19   1 H                                       1.0962474
    20   6 C       21   6 C                                       1.3637720
    21   6 C       22   1 H                                       1.0716515
    21   6 C       23   7 N                                       1.3688101
    23   7 N       24   1 H                                       1.0051295
    23   7 N       25   6 C                                       1.3632434
    25   6 C       26   6 C                                       1.3890287
    26   6 C       27   1 H                                       1.0801510
    26   6 C       28   6 C                                       1.3778714
    28   6 C       29   1 H                                       1.0798082
    28   6 C       30   6 C                                       1.3979257
    30   6 C       31   1 H                                       1.0799704
    30   6 C       32   6 C                                       1.3763897
    32   6 C       33   1 H                                       1.0802665
    20   6 C       34   6 C                                       1.4310978
    25   6 C       34   6 C                                       1.4155125
    32   6 C       34   6 C                                       1.3948783

 * 6 distinct bonds (by element types)

   Z      Z             #   av. dist./Å        max./Å        min./Å
   1 H    6 C          10     1.0870719     1.1015179     1.0716515
   6 C    6 C           9     1.4091171     1.5355780     1.3637720
   1 H    7 N           4     1.0112887     1.0150230     1.0051295
   6 C    7 N           5     1.3957374     1.4607247     1.3367675
   1 H    8 O           1     0.9979313     0.9979313     0.9979313
   6 C    8 O           3     1.2479702     1.3187890     1.1984922


optimized geometry written to: xtbopt.xyz


           -------------------------------------------------
          | TOTAL ENERGY              -56.476328129986 Eh   |
          | GRADIENT NORM               0.000922572472 Eh/α |
          | HOMO-LUMO GAP               3.407014914761 eV   |
           -------------------------------------------------

------------------------------------------------------------------------
 * finished run on 2026/10/01 at 18:05:14.477     
------------------------------------------------------------------------
 total:
 * wall-time:     0 d,  0 h,  0 min,  0.374 sec
 *  cpu-time:     0 d,  0 h,  0 min,  5.677 sec
 * ratio c/w:    15.170 speedup
 SCF:
 * wall-time:     0 d,  0 h,  0 min,  0.060 sec
 *  cpu-time:     0 d,  0 h,  0 min,  0.909 sec
 * ratio c/w:    15.200 speedup
 ANC optimizer:
 * wall-time:     0 d,  0 h,  0 min,  0.296 sec
 *  cpu-time:     0 d,  0 h,  0 min,  4.515 sec
 * ratio c/w:    15.236 speedup


--- STDERR ---
normal termination of xtb
Note: The following floating-point exceptions are signalling: IEEE_UNDERFLOW_FLAG IEEE_DENORMAL
