34
 energy: -56.476328129986 gnorm: 0.000922572472 xtb: 6.7.1-6.fc44.fc44
O           -3.64906087397979        2.61226186801488       -0.10545949205506
C           -3.51354897863445        2.44399582267297       -1.40643107920454
O           -4.31642416780478        2.83245318905822       -2.20697807016019
H           -2.90602920590277        2.18957452343249        0.40942507704703
C           -2.21218900744963        1.73116347782086       -1.83696879608560
H           -1.37339632929896        2.34945704997988       -1.49268888233696
H           -2.19377300268850        1.66886869565368       -2.92433165912632
N           -2.07000545377600        0.40001679858961       -1.28213364873351
H           -2.19930087530464       -0.40728787678968       -1.87621293620588
C           -1.80408566119463        0.15489014716852        0.00477991217047
O           -1.77170649165570        1.03163186064651        0.86204014800633
C           -1.54888084313790       -1.31705766846694        0.29841875353272
H           -1.67761346460431       -1.47443430629197        1.38100918112443
N           -2.46724419573313       -2.10142184951466       -0.52322460488322
H           -3.42479426688905       -1.96757464801064       -0.21426773130834
H           -2.25560822824390       -3.08998967298183       -0.44028257128475
C           -0.11065340539341       -1.68373858115768       -0.09534035080994
H            0.02017882553605       -1.48160743553944       -1.16288178328522
H            0.01192926525719       -2.76414338504268        0.04414809462564
C            0.95395968961338       -0.97386572544378        0.67889569233274
C            0.84160591883359       -0.17597834660424        1.77918027964365
H           -0.03498548342036        0.14673372836349        2.30442414897907
N            2.07992573204766        0.24708421065152        2.18070596610560
H            2.25658973190010        0.86332144995216        2.95486787714098
C            3.02397935313769       -0.27335634641508        1.34623804458750
C            4.40661818445969       -0.14027642662142        1.34653786842570
H            4.90774641854802        0.46111451194947        2.09079953503282
C            5.11161423883481       -0.80221965866935        0.36503855231555
H            6.18792631857958       -0.72074897424492        0.33503340208408
C            4.46090851935734       -1.58069297167689       -0.59660438965028
H            5.05278812079701       -2.08351030522047       -1.34706369759244
C            3.09130788254204       -1.71712610346836       -0.60193749817572
H            2.59825988531768       -2.32235047482477       -1.34865211146348
C            2.35083103154621       -1.05805582753662        0.37939096988535
