68
frame_0001
O       1.014012989071775     -0.542897814788771      1.515243140303771
O       0.790548699126709     -0.981726224874151     -1.528326075902664
O      -3.279092385779544     -2.500476433549885      0.209140641491670
O      -3.420563208669831      3.303792415954086      0.162402691748618
O      -1.039194390341425      1.602507021340613     -1.461270718032286
O       2.305568508313314      2.861505870342007      1.116287546124485
N       0.450876663615097     -2.673463155953764     -0.212464498068489
N      -2.141457990685641     -0.990047357583469     -0.749994560150653
N      -3.758139789684365      1.017940350702082      0.048391833493251
N      -0.536215798447518      2.549165002723970      0.582191479744230
N       1.924698267734587      1.704319146987297     -0.672222348694245
N       2.866425615157955     -0.540439152858674      0.585588777562914
C       1.689002169480748     -1.031494748516352      1.050412795938245
C       1.592885513431292     -2.431019033176890      0.456781085024713
C       1.446940278758964     -3.435285058658982      1.575582172023924
C       0.617217571169799     -4.490011016888728      0.818142331184479
C      -0.314439019215272     -3.786894548064687      0.185006777154500
C       0.017874371894956     -1.866374964726943     -1.249203828122892
C      -1.372442281007356     -1.728805852716969     -1.815573425762630
C      -1.220752143053748     -1.201423651434769     -3.342118083617364
C      -2.934688241424024     -1.514492956278984     -0.010794837155993
C      -3.894478997806982     -0.315665750649388      0.746507946380775
C      -5.299114703970469     -0.835530845798139      0.900727384385661
C      -2.994493677454395      2.196471329066570      0.574160202635086
C      -1.813125024929489      1.994024287715210      1.397642222182081
C      -1.668841130158625      2.645527317792117      2.569797899651362
C      -0.664878318161623      2.441887896976689     -0.673435464864712
C       0.990432936547454      2.615515981965441     -0.935059789409005
C       1.138635083920592      2.746332356912446     -2.810771130584910
C       2.376363488375063      2.006636861147117      0.541276890827514
C       3.303909219754050      0.810289571074540      1.193719724181702
C       4.719099612279258      1.158771963479449      0.653017553206445
C       4.874250697040702      0.453972915345567     -0.711776350948177
C       3.988764282781925     -0.868755328680207     -0.492727815742069
H       2.239955260202666     -2.832486159409064     -0.209522816757394
H       2.311762803817323     -3.634135418510837      2.218314392535918
H       0.836246970228301     -2.757477687769160      2.451096647502836
H       1.205143648853173     -5.236127743941616      0.627032140032989
H       0.064506804281182     -5.164094928655686      1.747950718368246
H      -0.632094626673689     -4.310547307861592     -0.704307807945368
H      -1.263205130674288     -3.525228945933716      0.604994839130429
H      -1.970851605027835      0.108452882879911     -1.055677021557927
H      -1.657546421354755     -2.736786409299047     -1.878389085378852
H      -0.959737527026304     -0.005832946239010     -3.162202526856116
H      -2.404402877545484     -1.301690393301585     -3.559448234687597
H      -0.587306751879884     -1.893237144379190     -3.809810490137741
H      -4.354330466004460      1.279194930428214     -0.339625144570837
H      -3.270229801260254     -0.357146602541877      1.824030173047562
H      -5.804528802644707      0.020630942932812      1.584036836040682
H      -5.146013937950721     -1.803338889672249      1.399965888572170
H      -5.761693561424991     -0.804845228913480      0.028451892103299
H       0.158244802129214      2.722231348979937      1.079476575788823
H      -1.614957987599995      0.765914570366218      1.280831579509189
H      -2.708628471837407      1.895777106002490      3.126447513383880
H      -1.914106821100668      3.629367003466493      2.533969396165612
H      -0.762630836834276      2.634244545927127      3.299367410885386
H       1.865758297579587      0.835351247743232     -1.123394611864678
H       1.155287941055220      3.875368144560155     -0.848614153083868
H       1.968141311347080      2.912788673816983     -3.037647498399088
H       0.303320891356908      3.188102000956412     -3.059297122774955
H       0.862384104435954      1.492789825745727     -3.113981540772306
H       3.200731772036399      0.834806281370613      2.123602662439469
H       5.372289932118435      0.696969246950277      1.270247638941790
H       5.120561358935504      2.148865246606301      0.671911710645771
H       6.105170188680934      0.018871987242611     -1.062906110832538
H       4.367162257534300      0.793035888371943     -1.514677352715286
H       3.544840610089881     -1.330677812715250     -1.366462868012139
H       4.809869203465100     -1.642482014111210     -0.062110267806108
