68
 energy: -106.574021394754 gnorm: 0.000390558772 xtb: 6.7.1-6.fc44.fc44
O            1.02302906394859       -0.48342653403213        1.55094708559183
O            0.90014342924018       -0.81391647898244       -1.50082841307308
O           -3.15173891483031       -2.53596555690332        0.22656558704896
O           -3.25255900998208        3.20526140705064        0.07172020463424
O           -1.24042799471489        1.65881146322382       -1.43500334726187
O            2.22722951095080        2.95803690610027        1.21749104053238
N            0.41065895119403       -2.62939531428032       -0.30710287375810
N           -2.16653842303101       -0.87433183416221       -0.94395720564633
N           -3.77155251544700        1.03814149799450        0.22855796552193
N           -0.58686844813861        2.42924119947123        0.58185674040677
N            1.92588612356362        1.75327098667312       -0.66977583902580
N            3.03377043055842       -0.47436987588061        0.55697523278774
C            1.86074474185973       -1.05230596843034        0.87238681406945
C            1.65632512789306       -2.50705160253837        0.44081004779575
C            1.42247366990659       -3.40957271629073        1.65228591044848
C            0.56374801586950       -4.52986787153025        1.07481105722585
C           -0.35848503122483       -3.79512685453365        0.10224433012921
C            0.08973740316243       -1.68513937412568       -1.19600313344014
C           -1.32812611857038       -1.71595064665925       -1.77870010440008
C           -1.32983909207690       -1.17283804726947       -3.20219208087821
C           -2.99942565553916       -1.34983787074125       -0.01773131366120
C           -3.78287944698025       -0.29123525894188        0.79078606603009
C           -5.22793264398462       -0.76369246829550        0.94967869357581
C           -2.96984746426590        2.09936859437989        0.47831822655206
C           -1.70292850065861        1.85641369536239        1.31216400820956
C           -1.83857967353208        2.55242322229272        2.66058219585361
C           -0.41933368942788        2.21987989491251       -0.72507879062117
C            0.95143522053590        2.66977818870350       -1.24363425679948
C            1.02328641971709        2.61086189499237       -2.75990291713880
C            2.41888264963013        1.94669233060275        0.56265100468781
C            3.34407368192759        0.84328710960757        1.08519024014431
C            4.78864911358661        1.08705606135382        0.64062673115634
C            4.86699897889622        0.32401525106699       -0.67870603652705
C            4.01959854680230       -0.92065228132046       -0.41155744362634
H            2.49150544582835       -2.86888386180465       -0.16789747990955
H            2.35390443650184       -3.76291023604997        2.09005311989158
H            0.86203744564755       -2.84823520834740        2.40138477733162
H            1.19238246144390       -5.24278414957108        0.53839223802411
H            0.00504923464568       -5.06509934752691        1.83873866499189
H           -0.60163878120979       -4.41255363704174       -0.76673368991993
H           -1.29235858727478       -3.49330981233267        0.58341147458237
H           -2.03027782103414        0.13132206303866       -1.07624097401439
H           -1.73593816120789       -2.72976700565866       -1.73809473755908
H           -1.00613765589055       -0.13538384897358       -3.18646418715024
H           -2.33153653506112       -1.22435326680333       -3.62005757702083
H           -0.65135514377757       -1.74855359695898       -3.82665964405998
H           -4.54822610982030        1.25579378388710       -0.38251220632083
H           -3.31769339345743       -0.27000462264886        1.78385175628906
H           -5.76551847635414       -0.12178200619720        1.64290940239547
H           -5.23063090168697       -1.78327302949376        1.32468304285932
H           -5.73444835495770       -0.75125544716641       -0.01325074621811
H            0.15600702320402        2.86139495052349        1.11800221190342
H           -1.50688169421191        0.78585024785782        1.44944438501366
H           -2.64281085527914        2.10252794546613        3.23776515858471
H           -2.06556182438883        3.60442856173114        2.50432151495110
H           -0.91057421398040        2.46152810238393        3.22026150454807
H            1.87490593011814        0.81244062531419       -1.04838483219151
H            1.17690670563352        3.67296329831190       -0.86684419648806
H            1.99702606949666        2.94544710164111       -3.10820909886015
H            0.25124040999195        3.24330551341273       -3.18827320904391
H            0.85556074996288        1.58811505972743       -3.08863014839582
H            3.23465934858847        0.84307824348413        2.17483519335962
H            5.47945424344391        0.66192112686282        1.36969306203772
H            5.00265446192676        2.14811240188271        0.53301083279452
H            5.88796141612626        0.07180577281499       -0.95751492988062
H            4.42031132632945        0.91563641341301       -1.47730559947499
H            3.53156377492772       -1.28146515403775       -1.31954057572907
H            4.63355096790875       -1.72343749459199        0.01531559526522
