34
frame_0070
O      -4.075519568600000      1.124497571800000     -1.955458899800000
C      -3.363957266700000      2.218739565600000     -2.147846736800000
O      -3.268204482500000      2.764492346500000     -3.209945780300000
H      -4.003406534300000      0.788481105500000     -1.021217260500000
C      -2.670758655900000      2.768856765500000     -0.881703239000000
H      -3.450781656500000      2.967555258800000     -0.136162289500000
H      -2.163334066000000      3.698655439400000     -1.134738261300000
N      -1.708611053800000      1.839471615500000     -0.312527197800000
H      -0.730450558300000      2.052920713200000     -0.418395321000000
C      -2.073779712700000      0.728603226000000      0.350631247400000
O      -3.246840637600000      0.382854401600000      0.447064127200000
C      -0.935794113500000     -0.088470113200000      0.955613606200000
H      -0.175366169300000      0.584786437800000      1.367643877400000
N      -1.386288832200000     -0.967779208500000      2.011897324000000
H      -2.174608870400000     -1.514806325600000      1.677792814400000
H      -1.709418880900000     -0.431714588400000      2.809947294900000
C      -0.296513888800000     -0.933708708200000     -0.172361634100000
H      -0.102768318800000     -0.300892306600000     -1.041071146500000
H      -1.003366640300000     -1.713268164500000     -0.460426176500000
C       0.976344802500000     -1.544166092100000      0.304739460600000
C       1.146176833400000     -2.781438143600000      0.852079022900000
H       0.419774131300000     -3.554828396500000      1.007245060200000
N       2.451449504900000     -2.959320858900000      1.218025772400000
H       2.829035517700000     -3.787415074300000      1.645359056800000
C       3.155389707400000     -1.829287658100000      0.921203089500000
C       4.498520374200000     -1.525961609100000      1.103525377000000
H       5.176108902200000     -2.240907817200000      1.546845294600000
C       4.933699013300000     -0.282651651800000      0.698787206700000
H       5.971490457800000     -0.012956268600000      0.826260993000000
C       4.057383521100000      0.640213379300000      0.121102551400000
H       4.440425194700000      1.602438853800000     -0.186047915600000
C       2.725920601100000      0.344523826100000     -0.063499504000000
H       2.061369987300000      1.064814615800000     -0.519477160500000
C       2.253471097800000     -0.904292061900000      0.340316997700000
