34
frame_0039
O      -2.403430874900000      1.653508865000000     -2.348101445000000
C      -1.689287790600000      2.442894252800000     -1.572391174700000
O      -1.826807016000000      3.633064059600000     -1.536481273100000
H      -2.175550715400000      0.691833123600000     -2.216323207000000
C      -0.615371314700000      1.725289393500000     -0.725265583800000
H      -0.074051273400000      2.470768083100000     -0.144658028400000
H       0.081923664500000      1.234452067900000     -1.417015458900000
N      -1.161496949500000      0.727356634000000      0.178661307900000
H      -1.075850132200000      0.900787080200000      1.166433435900000
C      -1.606027679900000     -0.467827609500000     -0.238725350900000
O      -1.750851335700000     -0.734594377000000     -1.426026951400000
C      -1.880258217600000     -1.487745295100000      0.852192272700000
H      -2.092077965900000     -0.976493238300000      1.800136204700000
N      -3.045662134600000     -2.256796435500000      0.479486738600000
H      -3.098550858900000     -3.121745788800000      1.004722231100000
H      -3.003500367800000     -2.478234138100000     -0.510629503700000
C      -0.583585241800000     -2.333553155200000      1.026553992200000
H      -0.381785011300000     -2.850523534300000      0.085996591800000
H      -0.770269467500000     -3.079600386500000      1.802971445300000
C       0.581375410000000     -1.483339552500000      1.399753333600000
C       0.947649159500000     -1.089800186300000      2.654882902200000
H       0.513812136500000     -1.352731814500000      3.601081676900000
N       2.030487511900000     -0.254437310400000      2.591070001500000
H       2.509969322900000      0.139760784600000      3.382057196000000
C       2.391355284100000     -0.094625825700000      1.284033764200000
C       3.413244503300000      0.654256000700000      0.713761069600000
H       4.090683396300000      1.230356513800000      1.326536478200000
C       3.530860384000000      0.630387192400000     -0.658773678600000
H       4.313362794000000      1.200497875600000     -1.136296203600000
C       2.658228140200000     -0.122520414800000     -1.450279368000000
H       2.789315344500000     -0.116493497500000     -2.522226861200000
C       1.643995964400000     -0.867469529400000     -0.891755805700000
H       0.975180344100000     -1.444604422000000     -1.512674180600000
C       1.495166340500000     -0.855512810200000      0.495782269500000
