      -----------------------------------------------------------      
     |                   =====================                   |     
     |                           x T B                           |     
     |                   =====================                   |     
     |                         S. Grimme                         |     
     |          Mulliken Center for Theoretical Chemistry        |     
     |                    University of Bonn                     |     
      -----------------------------------------------------------      

   * xtb version 6.7.1-6.fc44.fc44 compiled by Fedora project on Sun Jan 18 23:32:34 UTC 2026

   xtb is free software: you can redistribute it and/or modify it under
   the terms of the GNU Lesser General Public License as published by
   the Free Software Foundation, either version 3 of the License, or
   (at your option) any later version.
   
   xtb is distributed in the hope that it will be useful,
   but WITHOUT ANY WARRANTY; without even the implied warranty of
   MERCHANTABILITY or FITNESS FOR A PARTICULAR PURPOSE.  See the
   GNU Lesser General Public License for more details.
   
   Cite this work as:
   * C. Bannwarth, E. Caldeweyher, S. Ehlert, A. Hansen, P. Pracht,
     J. Seibert, S. Spicher, S. Grimme, WIREs Comput. Mol. Sci., 2020, 11,
     e01493. DOI: 10.1002/wcms.1493
   
   for GFN2-xTB:
   * C. Bannwarth, S. Ehlert and S. Grimme., J. Chem. Theory Comput., 2019,
     15, 1652-1671. DOI: 10.1021/acs.jctc.8b01176
   for GFN1-xTB:
   * S. Grimme, C. Bannwarth, P. Shushkov, J. Chem. Theory Comput., 2017,
     13, 1989-2009. DOI: 10.1021/acs.jctc.7b00118
   for GFN0-xTB:
   * P. Pracht, E. Caldeweyher, S. Ehlert, S. Grimme, ChemRxiv, 2019, preprint.
     DOI: 10.26434/chemrxiv.8326202.v1
   for GFN-FF:
   * S. Spicher and S. Grimme, Angew. Chem. Int. Ed., 2020, 59, 15665-15673.
     DOI: 10.1002/anie.202004239
   
   for ALPB and GBSA implicit solvation:
   * S. Ehlert, M. Stahn, S. Spicher, S. Grimme, J. Chem. Theory Comput.,
     2021, 17, 4250-4261. DOI: 10.1021/acs.jctc.1c00471
   
   for ddCOSMO and CPCM-X implicit solvation:
   * M. Stahn, S. Ehlert, S. Grimme, J. Phys. Chem. A,
     2023, XX, XXXX-XXXX. DOI: 10.1021/acs.jpca.3c04382
   
   for DFT-D4:
   * E. Caldeweyher, C. Bannwarth and S. Grimme, J. Chem. Phys., 2017,
     147, 034112. DOI: 10.1063/1.4993215
   * E. Caldeweyher, S. Ehlert, A. Hansen, H. Neugebauer, S. Spicher,
     C. Bannwarth and S. Grimme, J. Chem. Phys., 2019, 150, 154122.
     DOI: 10.1063/1.5090222
   * E. Caldeweyher, J.-M. Mewes, S. Ehlert and S. Grimme, Phys. Chem. Chem. Phys.
     2020, 22, 8499-8512. DOI: 10.1039/D0CP00502A
   
   for sTDA-xTB:
   * S. Grimme and C. Bannwarth, J. Chem. Phys., 2016, 145, 054103.
     DOI: 10.1063/1.4959605
   
   in the mass-spec context:
   * V. Asgeirsson, C. Bauer and S. Grimme, Chem. Sci., 2017, 8, 4879.
     DOI: 10.1039/c7sc00601b
   * J. Koopman and S. Grimme, ACS Omega 2019, 4, 12, 15120-15133.
     DOI: 10.1021/acsomega.9b02011
   
   for metadynamics refer to:
   * S. Grimme, J. Chem. Theory Comput., 2019, 155, 2847-2862
     DOI: 10.1021/acs.jctc.9b00143
   
   for SPH calculations refer to:
   * S. Spicher and S. Grimme, J. Chem. Theory Comput., 2021, 17, 1701-1714
     DOI: 10.1021/acs.jctc.0c01306
   
   for ONIOM refer to:
   * C. Plett, A. Katbashev, S. Ehlert, S. Grimme, M. Bursch,
     Phys. Chem. Chem. Phys., 2023, 25, 17860-17868. DOI: 10.1039/D3CP02178E
   
   for DIPRO refer to:
   * J. Kohn, N. Gildemeister, S. Grimme, D. Fazzi, A. Hansen,
     J. Chem. Phys., 2023, just accepted.
   
   for PTB refer to:
   * S. Grimme, M. Mueller, A. Hansen, J. Chem. Phys., 2023, 158, 124111.
     DOI: 10.1063/5.0137838
   
   with help from (in alphabetical order)
   P. Atkinson, C. Bannwarth, F. Bohle, G. Brandenburg, E. Caldeweyher
   M. Checinski, S. Dohm, S. Ehlert, S. Ehrlich, I. Gerasimov, C. Hölzer
   A. Katbashev, J. Kohn, J. Koopman, C. Lavigne, S. Lehtola, F. März, M. Müller,
   F. Musil, H. Neugebauer, J. Pisarek, C. Plett, P. Pracht, F. Pultar,
   J. Seibert, P. Shushkov, S. Spicher, M. Stahn, M. Steiner, T. Strunk,
   J. Stückrath, T. Rose, and J. Unsleber
   
 * started run on 2026/10/01 at 18:03:31.591     
   ID    Z sym.   atoms
    1    8 O      1, 3, 11
    2    6 C      2, 5, 10, 12, 17, 20, 21, 25, 26, 28, 30, 32, 34
    3    1 H      4, 6, 7, 9, 13, 15, 16, 18, 19, 22, 24, 27, 29, 31, 33
    4    7 N      8, 14, 23

           -------------------------------------------------
          |                Calculation Setup                |
           -------------------------------------------------

          program call               : /usr/bin/xtb input.xyz --opt --gfn 2 --chrg 0 --uhf 0
          hostname                   : fedora
          coordinate file            : input.xyz
          omp threads                :                    16


           -------------------------------------------------
          |                 G F N 2 - x T B                 |
           -------------------------------------------------

        Reference                      10.1021/acs.jctc.8b01176
      * Hamiltonian:
        H0-scaling (s, p, d)           1.850000    2.230000    2.230000
        zeta-weighting                 0.500000
      * Dispersion:
        s8                             2.700000
        a1                             0.520000
        a2                             5.000000
        s9                             5.000000
      * Repulsion:
        kExp                           1.500000    1.000000
        rExp                           1.000000
      * Coulomb:
        alpha                          2.000000
        third order                    shell-resolved
        anisotropic                    true
        a3                             3.000000
        a5                             4.000000
        cn-shift                       1.200000
        cn-exp                         4.000000
        max-rad                        5.000000


          ...................................................
          :                      SETUP                      :
          :.................................................:
          :  # basis functions                  91          :
          :  # atomic orbitals                  91          :
          :  # shells                           53          :
          :  # electrons                       100          :
          :  max. iterations                   250          :
          :  Hamiltonian                  GFN2-xTB          :
          :  restarted?                      false          :
          :  GBSA solvation                  false          :
          :  PC potential                    false          :
          :  electronic temp.          300.0000000     K    :
          :  accuracy                    1.0000000          :
          :  -> integral cutoff          0.2500000E+02      :
          :  -> integral neglect         0.1000000E-07      :
          :  -> SCF convergence          0.1000000E-05 Eh   :
          :  -> wf. convergence          0.1000000E-03 e    :
          :  Broyden damping             0.4000000          :
          :  net charge                          0          :
          :  unpaired electrons                  0          :
          ...................................................

 iter      E             dE          RMSdq      gap      omega  full diag
   1    -57.0933567 -0.570934E+02  0.416E+00    2.95       0.0  T
   2    -57.2210370 -0.127680E+00  0.244E+00    3.41       1.0  T
   3    -57.2278269 -0.678994E-02  0.133E+00    3.49       1.0  T
   4    -57.2277793  0.476158E-04  0.531E-01    3.42       1.0  T
   5    -57.2365046 -0.872532E-02  0.117E-01    3.44       1.0  T
   6    -57.2366691 -0.164429E-03  0.590E-02    3.44       1.0  T
   7    -57.2367058 -0.366997E-04  0.255E-02    3.44       1.0  T
   8    -57.2367058 -0.762408E-07  0.110E-02    3.43       1.6  T
   9    -57.2367080 -0.216747E-05  0.350E-03    3.43       4.9  T
  10    -57.2367080 -0.504903E-07  0.155E-03    3.43      11.1  T
  11    -57.2367081 -0.150447E-07  0.657E-04    3.43      26.1  T
  12    -57.2367081 -0.507075E-08  0.222E-04    3.43      77.2  T

   *** convergence criteria satisfied after 12 iterations ***

         #    Occupation            Energy/Eh            Energy/eV
      -------------------------------------------------------------
         1        2.0000           -0.7347043             -19.9923
       ...           ...                  ...                  ...
        44        2.0000           -0.4309758             -11.7274
        45        2.0000           -0.4280445             -11.6477
        46        2.0000           -0.4207071             -11.4480
        47        2.0000           -0.4046872             -11.0121
        48        2.0000           -0.3956634             -10.7665
        49        2.0000           -0.3875593             -10.5460
        50        2.0000           -0.3723542             -10.1323 (HOMO)
        51                         -0.2461314              -6.6976 (LUMO)
        52                         -0.2377331              -6.4690
        53                         -0.2304381              -6.2705
        54                         -0.2106658              -5.7325
        55                         -0.1747559              -4.7554
       ...                                ...                  ...
        91                          0.7038609              19.1530
      -------------------------------------------------------------
                  HL-Gap            0.1262228 Eh            3.4347 eV
             Fermi-level           -0.3092428 Eh           -8.4149 eV

 SCC (total)                   0 d,  0 h,  0 min,  1.010 sec
 SCC setup                      ...        0 min,  0.006 sec (  0.545%)
 Dispersion                     ...        0 min,  0.005 sec (  0.471%)
 classical contributions        ...        0 min,  0.005 sec (  0.482%)
 integral evaluation            ...        0 min,  0.006 sec (  0.606%)
 iterations                     ...        0 min,  0.983 sec ( 97.262%)
 molecular gradient             ...        0 min,  0.006 sec (  0.587%)
 printout                       ...        0 min,  0.000 sec (  0.045%)

         :::::::::::::::::::::::::::::::::::::::::::::::::::::
         ::                     SUMMARY                     ::
         :::::::::::::::::::::::::::::::::::::::::::::::::::::
         :: total energy             -56.478143985313 Eh    ::
         :: gradient norm              0.000101413107 Eh/a0 ::
         :: HOMO-LUMO gap              3.434698500775 eV    ::
         ::.................................................::
         :: SCC energy               -57.235923110791 Eh    ::
         :: -> isotropic ES            0.096767935462 Eh    ::
         :: -> anisotropic ES          0.006752820317 Eh    ::
         :: -> anisotropic XC          0.019355512246 Eh    ::
         :: -> dispersion             -0.037805511767 Eh    ::
         :: repulsion energy           0.757779125478 Eh    ::
         :: add. restraining           0.000000000000 Eh    ::
         :: total charge               0.000000000000 e     ::
         :::::::::::::::::::::::::::::::::::::::::::::::::::::

      ----------------------------------------------------------- 
     |                   =====================                   |
     |                        A N C O P T                        |
     |                   =====================                   |
     |               Approximate Normal Coordinate               |
     |                Rational Function Optimizer                |
      ----------------------------------------------------------- 
      ----------------------------------------------------------- 
     |                   =====================                   |
     |                        A N C O P T                        |
     |                   =====================                   |
     |               Approximate Normal Coordinate               |
     |                Rational Function Optimizer                |
      ----------------------------------------------------------- 

          ...................................................
          :                      SETUP                      :
          :.................................................:
          :   optimization level            normal          :
          :   max. optcycles                   200          :
          :   ANC micro-cycles                  20          :
          :   degrees of freedom                96          :
          :.................................................:
          :   RF solver                   davidson          :
          :   write xtbopt.log                true          :
          :   linear?                        false          :
          :   energy convergence         0.5000000E-05 Eh   :
          :   grad. convergence          0.1000000E-02 Eh/α :
          :   maxmium RF displ.          1.0000000          :
          :   Hlow (freq-cutoff)         0.1000000E-01      :
          :   Hmax (freq-cutoff)         5.0000000          :
          :   S6 in model hess.         20.0000000          :
          ...................................................

generating ANC from exact Hessian ...
Using Lindh-Hessian (1995)
 Shifting diagonal of input Hessian by    9.4817941086175889E-003
 Lowest  eigenvalues of input Hessian
    0.000000    0.000000    0.000000    0.000000    0.000000    0.000000
    0.010000    0.010300    0.010754    0.011668    0.012519    0.014691
    0.016734    0.018306    0.019012    0.020048    0.023616    0.024448
 Highest eigenvalues
    1.999787    2.008459    2.095174    2.202601    2.300324    2.368995


........................................................................
.............................. CYCLE    1 ..............................
........................................................................

 iter      E             dE          RMSdq      gap      omega  full diag
   1    -57.2367081 -0.572367E+02  0.989E-05    3.43       0.0  T
   2    -57.2367081 -0.457447E-10  0.578E-05    3.43     296.9  T
   3    -57.2367081 -0.325429E-11  0.367E-05    3.43     467.1  T
     SCC iter.                  ...        0 min,  0.018 sec
     gradient                   ...        0 min,  0.001 sec
 * total energy  :   -56.4781440 Eh     change       -0.6138592E-09 Eh
   gradient norm :     0.0001018 Eh/α   predicted     0.0000000E+00 (-100.00%)
   displ. norm   :     0.0013174 α      lambda       -0.1400111E-07
   maximum displ.:     0.0009798 α      in ANC's #1, #25, #28, ...

   *** GEOMETRY OPTIMIZATION CONVERGED AFTER 1 ITERATIONS ***

------------------------------------------------------------------------
 total energy gain   :        -0.0000000 Eh       -0.0000 kcal/mol
 total RMSD          :         0.0000001 a0        0.0000 Å
 total power (kW/mol):        -0.0000016 (step)   -0.0000 (real)
------------------------------------------------------------------------

 ANCopt (total)                0 d,  0 h,  0 min,  0.033 sec
 optimizer setup                ...        0 min,  0.000 sec (  0.611%)
 model hessian                  ...        0 min,  0.011 sec ( 33.089%)
 ANC generation                 ...        0 min,  0.001 sec (  3.582%)
 coordinate transformation      ...        0 min,  0.000 sec (  0.039%)
 single point calculation       ...        0 min,  0.020 sec ( 61.121%)
 optimization log               ...        0 min,  0.000 sec (  0.226%)
 hessian update                 ...        0 min,  0.000 sec (  0.002%)
 rational function              ...        0 min,  0.000 sec (  0.316%)

================
 final structure:
================
34
 xtb: 6.7.1-6.fc44.fc44
O           -2.40343087490000        1.65350886500000       -2.34810144500000
C           -1.68928779060000        2.44289425280000       -1.57239117470000
O           -1.82680701600000        3.63306405960000       -1.53648127310000
H           -2.17555071540000        0.69183312360000       -2.21632320700000
C           -0.61537131470000        1.72528939350000       -0.72526558380000
H           -0.07405127340000        2.47076808310000       -0.14465802840000
H            0.08192366450000        1.23445206790000       -1.41701545890000
N           -1.16149694950000        0.72735663400000        0.17866130790000
H           -1.07585013220000        0.90078708020000        1.16643343590000
C           -1.60602767990000       -0.46782760950000       -0.23872535090000
O           -1.75085133570000       -0.73459437700000       -1.42602695140000
C           -1.88025821760000       -1.48774529510000        0.85219227270000
H           -2.09207796590000       -0.97649323830000        1.80013620470000
N           -3.04566213460000       -2.25679643550000        0.47948673860000
H           -3.09855085890000       -3.12174578880000        1.00472223110000
H           -3.00350036780000       -2.47823413810000       -0.51062950370000
C           -0.58358524180000       -2.33355315520000        1.02655399220000
H           -0.38178501130000       -2.85052353430000        0.08599659180000
H           -0.77026946750000       -3.07960038650000        1.80297144530000
C            0.58137541000000       -1.48333955250000        1.39975333360000
C            0.94764915950000       -1.08980018630000        2.65488290220000
H            0.51381213650000       -1.35273181450000        3.60108167690000
N            2.03048751190000       -0.25443731040000        2.59107000150000
H            2.50996932290000        0.13976078460000        3.38205719600000
C            2.39135528410000       -0.09462582570000        1.28403376420000
C            3.41324450330000        0.65425600070000        0.71376106960000
H            4.09068339630000        1.23035651380000        1.32653647820000
C            3.53086038400000        0.63038719240000       -0.65877367860000
H            4.31336279400000        1.20049787560000       -1.13629620360000
C            2.65822814020000       -0.12252041480000       -1.45027936800000
H            2.78931534450000       -0.11649349750000       -2.52222686120000
C            1.64399596440000       -0.86746952940000       -0.89175580570000
H            0.97518034410000       -1.44460442200000       -1.51267418060000
C            1.49516634050000       -0.85551281020000        0.49578226950000

 Bond Distances (Angstroems)
 ---------------------------
O1-C2=1.3171         O1-H4=0.9971         C2-O1=1.3171         C2-O3=1.1986         C2-C5=1.5446         O3-C2=1.1986         
H4-O1=0.9971         C5-C2=1.5446         C5-H6=1.0890         C5-H7=1.0980         C5-N8=1.4530         H6-C5=1.0890         
H7-C5=1.0980         N8-C5=1.4530         N8-H9=1.0065         N8-C10=1.3417        H9-N8=1.0065         C10-N8=1.3417        
C10-O11=1.2255       C10-C12=1.5184       O11-C10=1.2255       C12-C10=1.5184       C12-H13=1.0977       C12-N14=1.4452       
C12-C17=1.5579       H13-C12=1.0977       N14-C12=1.4452       N14-H15=1.0133       N14-H16=1.0155       H15-N14=1.0133       
H16-N14=1.0155       C17-C12=1.5579       C17-H18=1.0921       C17-H19=1.0928       C17-C20=1.4897       H18-C17=1.0921       
H19-C17=1.0928       C20-C17=1.4897       C20-C21=1.3654       C20-C34=1.4305       C21-C20=1.3654       C21-H22=1.0736       
C21-N23=1.3691       H22-C21=1.0736       N23-C21=1.3691       N23-H24=1.0055       N23-C25=1.3653       H24-N23=1.0055       
C25-N23=1.3653       C25-C26=1.3893       C25-C34=1.4154       C26-C25=1.3893       C26-H27=1.0800       C26-C28=1.3778       
H27-C26=1.0800       C28-C26=1.3778       C28-H29=1.0795       C28-C30=1.3982       H29-C28=1.0795       C30-C28=1.3982       
C30-H31=1.0799       C30-C32=1.3768       H31-C30=1.0799       C32-C30=1.3768       C32-H33=1.0798       C32-C34=1.3955       
H33-C32=1.0798       C34-C20=1.4305       C34-C25=1.4154       C34-C32=1.3955       
 C  H  Rav=1.0862 sigma=0.0082  Rmin=1.0736  Rmax=1.0980    10
 C  C  Rav=1.4383 sigma=0.0670  Rmin=1.3654  Rmax=1.5579    12
 N  H  Rav=1.0102 sigma=0.0043  Rmin=1.0055  Rmax=1.0155     4
 N  C  Rav=1.3949 sigma=0.0453  Rmin=1.3417  Rmax=1.4530     5
 O  H  Rav=0.9971 sigma=0.0000  Rmin=0.9971  Rmax=0.9971     1
 O  C  Rav=1.2471 sigma=0.0507  Rmin=1.1986  Rmax=1.3171     3

 selected bond angles (degree)
 --------------------
H4-O1-C2=112.10                O3-C2-O1=123.40                C5-C2-O1=114.93                C5-C2-O3=121.64                
H6-C5-C2=108.66                H7-C5-C2=107.68                H7-C5-H6=109.04                N8-C5-C2=113.51                
N8-C5-H6=108.98                N8-C5-H7=108.88                H9-N8-C5=117.40                C10-N8-C5=122.87               
C10-N8-H9=119.14               O11-C10-N8=122.31              C12-C10-N8=115.76              C12-C10-O11=121.91             

 selected dihedral angles (degree)
 ---------------------------------
O3-C2-O1-H4=182.34            C5-C2-O1-H4=  4.02            H6-C5-C2-O1=178.69            H6-C5-C2-O3=  0.33            
H7-C5-C2-O1= 60.71            H7-C5-C2-O3=242.36            N8-C5-C2-O1=300.11            N8-C5-C2-O3=121.76            
H9-N8-C5-C2=245.80            H9-N8-C5-H6=  7.04            H9-N8-C5-H7=125.88            C10-N8-C5-C2= 74.67           
C10-N8-C5-H6=195.91           C10-N8-C5-H7=314.74           O11-C10-N8-C5=349.91          O11-C10-N8-H9=178.93          
C12-C10-N8-C5=168.15          C12-C10-N8-H9=357.16          
           -------------------------------------------------
          |                Final Singlepoint                |
           -------------------------------------------------

          ...................................................
          :                      SETUP                      :
          :.................................................:
          :  # basis functions                  91          :
          :  # atomic orbitals                  91          :
          :  # shells                           53          :
          :  # electrons                       100          :
          :  max. iterations                   250          :
          :  Hamiltonian                  GFN2-xTB          :
          :  restarted?                      false          :
          :  GBSA solvation                  false          :
          :  PC potential                    false          :
          :  electronic temp.          300.0000000     K    :
          :  accuracy                    1.0000000          :
          :  -> integral cutoff          0.2500000E+02      :
          :  -> integral neglect         0.1000000E-07      :
          :  -> SCF convergence          0.1000000E-05 Eh   :
          :  -> wf. convergence          0.1000000E-03 e    :
          :  Broyden damping             0.4000000          :
          :  net charge                          0          :
          :  unpaired electrons                  0          :
          ...................................................

 iter      E             dE          RMSdq      gap      omega  full diag
   1    -57.2367081 -0.572367E+02  0.117E-05    3.43       0.0  T
   2    -57.2367081 -0.817124E-12  0.843E-06    3.43    2034.4  T
   3    -57.2367081 -0.144240E-11  0.480E-06    3.43    3572.6  T

   *** convergence criteria satisfied after 3 iterations ***

         #    Occupation            Energy/Eh            Energy/eV
      -------------------------------------------------------------
         1        2.0000           -0.7347068             -19.9924
       ...           ...                  ...                  ...
        44        2.0000           -0.4309755             -11.7274
        45        2.0000           -0.4280443             -11.6477
        46        2.0000           -0.4207071             -11.4480
        47        2.0000           -0.4046879             -11.0121
        48        2.0000           -0.3956630             -10.7665
        49        2.0000           -0.3875593             -10.5460
        50        2.0000           -0.3723541             -10.1323 (HOMO)
        51                         -0.2461311              -6.6976 (LUMO)
        52                         -0.2377333              -6.4691
        53                         -0.2304400              -6.2706
        54                         -0.2106653              -5.7325
        55                         -0.1747555              -4.7553
       ...                                ...                  ...
        91                          0.7038610              19.1530
      -------------------------------------------------------------
                  HL-Gap            0.1262231 Eh            3.4347 eV
             Fermi-level           -0.3092426 Eh           -8.4149 eV

 SCC (total)                   0 d,  0 h,  0 min,  0.176 sec
 SCC setup                      ...        0 min,  0.000 sec (  0.096%)
 Dispersion                     ...        0 min,  0.000 sec (  0.053%)
 classical contributions        ...        0 min,  0.000 sec (  0.006%)
 integral evaluation            ...        0 min,  0.001 sec (  0.286%)
 iterations                     ...        0 min,  0.165 sec ( 93.411%)
 molecular gradient             ...        0 min,  0.010 sec (  5.924%)
 printout                       ...        0 min,  0.000 sec (  0.214%)

         :::::::::::::::::::::::::::::::::::::::::::::::::::::
         ::                     SUMMARY                     ::
         :::::::::::::::::::::::::::::::::::::::::::::::::::::
         :: total energy             -56.478143985949 Eh    ::
         :: gradient norm              0.000101817880 Eh/a0 ::
         :: HOMO-LUMO gap              3.434704393197 eV    ::
         ::.................................................::
         :: SCC energy               -57.235923111427 Eh    ::
         :: -> isotropic ES            0.096766732594 Eh    ::
         :: -> anisotropic ES          0.006752884157 Eh    ::
         :: -> anisotropic XC          0.019355363719 Eh    ::
         :: -> dispersion             -0.037805536669 Eh    ::
         :: repulsion energy           0.757779125478 Eh    ::
         :: add. restraining           0.000000000000 Eh    ::
         :: total charge               0.000000000000 e     ::
         :::::::::::::::::::::::::::::::::::::::::::::::::::::

           -------------------------------------------------
          |                Property Printout                |
           -------------------------------------------------

    * Orbital Energies and Occupations

         #    Occupation            Energy/Eh            Energy/eV
      -------------------------------------------------------------
         1        2.0000           -0.7347068             -19.9924
       ...           ...                  ...                  ...
        38        2.0000           -0.4705034             -12.8030
        39        2.0000           -0.4675784             -12.7235
        40        2.0000           -0.4634484             -12.6111
        41        2.0000           -0.4619808             -12.5711
        42        2.0000           -0.4488143             -12.2129
        43        2.0000           -0.4390667             -11.9476
        44        2.0000           -0.4309755             -11.7274
        45        2.0000           -0.4280443             -11.6477
        46        2.0000           -0.4207071             -11.4480
        47        2.0000           -0.4046879             -11.0121
        48        2.0000           -0.3956630             -10.7665
        49        2.0000           -0.3875593             -10.5460
        50        2.0000           -0.3723541             -10.1323 (HOMO)
        51                         -0.2461311              -6.6976 (LUMO)
        52                         -0.2377333              -6.4691
        53                         -0.2304400              -6.2706
        54                         -0.2106653              -5.7325
        55                         -0.1747555              -4.7553
        56                         -0.0851120              -2.3160
        57                         -0.0232888              -0.6337
        58                          0.0046956               0.1278
        59                          0.0432871               1.1779
        60                          0.0562721               1.5312
        61                          0.0793010               2.1579
       ...                                ...                  ...
        91                          0.7038610              19.1530
      -------------------------------------------------------------
                  HL-Gap            0.1262231 Eh            3.4347 eV
             Fermi-level           -0.3092426 Eh           -8.4149 eV

     #   Z          covCN         q      C6AA      α(0)
     1   8 O        1.655    -0.372    20.313     6.084
     2   6 C        2.684     0.359    20.911     7.483
     3   8 O        0.856    -0.377    21.227     6.177
     4   1 H        0.800     0.365     0.555     1.170
     5   6 C        3.737    -0.039    21.351     6.594
     6   1 H        0.925     0.074     2.040     2.233
     7   1 H        0.923     0.079     1.986     2.204
     8   7 N        2.686    -0.165    24.560     7.360
     9   1 H        0.860     0.180     1.213     1.725
    10   6 C        2.760     0.274    22.367     7.745
    11   8 O        0.859    -0.447    22.643     6.380
    12   6 C        3.786     0.033    20.027     6.374
    13   1 H        0.924     0.033     2.546     2.495
    14   7 N        2.634    -0.340    28.758     7.964
    15   1 H        0.860     0.147     1.424     1.869
    16   1 H        0.860     0.166     1.300     1.786
    17   6 C        3.806    -0.066    21.759     6.640
    18   1 H        0.924     0.050     2.316     2.380
    19   1 H        0.924     0.040     2.454     2.450
    20   6 C        3.054    -0.040    28.944     8.823
    21   6 C        3.031    -0.012    28.285     8.723
    22   1 H        0.926     0.031     2.577     2.510
    23   7 N        2.777    -0.107    23.332     7.174
    24   1 H        0.860     0.160     1.337     1.811
    25   6 C        3.085     0.043    26.950     8.510
    26   6 C        2.908    -0.053    29.324     8.879
    27   1 H        0.926     0.026     2.644     2.543
    28   6 C        2.924    -0.036    28.890     8.814
    29   1 H        0.926     0.032     2.553     2.498
    30   6 C        2.920    -0.042    29.049     8.838
    31   1 H        0.926     0.031     2.575     2.509
    32   6 C        2.911    -0.038    28.954     8.823
    33   1 H        0.926     0.035     2.521     2.483
    34   6 C        3.117    -0.023    28.410     8.730

 Mol. C6AA /au·bohr⁶  :      13336.030990
 Mol. C8AA /au·bohr⁸  :     312441.005611
 Mol. α(0) /au        :        178.788031


Wiberg/Mayer (AO) data.
largest (>0.10) Wiberg bond orders for each atom

 ---------------------------------------------------------------------------
     #   Z sym  total        # sym  WBO       # sym  WBO       # sym  WBO
 ---------------------------------------------------------------------------
     1   8 O    2.235 --     2 C    1.202     4 H    0.771     3 O    0.183
     2   6 C    3.932 --     3 O    1.773     1 O    1.202     5 C    0.926
     3   8 O    2.065 --     2 C    1.773     1 O    0.183
     4   1 H    0.867 --     1 O    0.771
     5   6 C    3.960 --     8 N    0.986     6 H    0.975     7 H    0.947
                             2 C    0.926
     6   1 H    0.994 --     5 C    0.975
     7   1 H    0.994 --     5 C    0.947
     8   7 N    3.466 --    10 C    1.289     5 C    0.986     9 H    0.939
                            11 O    0.188
     9   1 H    0.968 --     8 N    0.939
    10   6 C    3.944 --    11 O    1.617     8 N    1.289    12 C    0.957
    11   8 O    2.023 --    10 C    1.617     8 N    0.188
    12   6 C    3.988 --    14 N    1.031    13 H    0.959    10 C    0.957
                            17 C    0.933
    13   1 H    0.999 --    12 C    0.959
    14   7 N    3.018 --    12 C    1.031    15 H    0.962    16 H    0.953
    15   1 H    0.978 --    14 N    0.962
    16   1 H    0.973 --    14 N    0.953
    17   6 C    3.994 --    20 C    1.021    18 H    0.972    19 H    0.969
                            12 C    0.933
    18   1 H    0.997 --    17 C    0.972
    19   1 H    0.997 --    17 C    0.969
    20   6 C    3.976 --    21 C    1.579    34 C    1.201    17 C    1.021
    21   6 C    3.950 --    20 C    1.579    23 N    1.194    22 H    0.970
    22   1 H    0.998 --    21 C    0.970
    23   7 N    3.540 --    21 C    1.194    25 C    1.175    24 H    0.947
    24   1 H    0.974 --    23 N    0.947
    25   6 C    3.958 --    26 C    1.337    34 C    1.251    23 N    1.175
    26   6 C    3.989 --    28 C    1.495    25 C    1.337    27 H    0.968
                            32 C    0.114
    27   1 H    0.999 --    26 C    0.968
    28   6 C    3.991 --    26 C    1.495    30 C    1.370    29 H    0.972
    29   1 H    0.999 --    28 C    0.972
    30   6 C    3.991 --    32 C    1.504    28 C    1.370    31 H    0.972
    31   1 H    0.999 --    30 C    0.972
    32   6 C    3.992 --    30 C    1.504    34 C    1.329    33 H    0.968
                            26 C    0.114
    33   1 H    0.998 --    32 C    0.968
    34   6 C    3.984 --    32 C    1.329    25 C    1.251    20 C    1.201
 ---------------------------------------------------------------------------

Topologies differ in total number of bonds
Writing topology from bond orders to xtbtopo.mol

molecular dipole:
                 x           y           z       tot (Debye)
 q only:        1.139      -1.129       1.908
   full:        1.720      -1.565       2.496       8.670
molecular quadrupole (traceless):
                xx          xy          yy          xz          yz          zz
 q only:       -1.000      12.744      -8.099      -4.197       7.078       9.099
  q+dip:       -5.629      18.233     -10.420      -4.901      10.206      16.049
   full:       -4.578      16.553      -9.444      -5.066       9.594      14.022

           -------------------------------------------------
          |                Geometry Summary                 |
           -------------------------------------------------

      molecular mass/u    :      261.2770023
   center of mass at/Å    :        0.0000000      -0.0000000       0.0000000
  moments of inertia/u·Å² :        0.1048977E+04   0.1511482E+04   0.2088961E+04
rotational constants/cm⁻¹ :        0.1607054E-01   0.1115304E-01   0.8069865E-02

 * 32 selected distances

     #   Z          #   Z                                           value/Å
     1   8 O        2   6 C                                       1.3171395
     2   6 C        3   8 O                                       1.1986265
     1   8 O        4   1 H                                       0.9970533 (min)
     5   6 C        6   1 H                                       1.0889771
     5   6 C        7   1 H                                       1.0980254
     5   6 C        8   7 N                                       1.4529994
     8   7 N        9   1 H                                       1.0065324
     8   7 N       10   6 C                                       1.3417470
    10   6 C       11   8 O                                       1.2254892
    12   6 C       13   1 H                                       1.0976539
    12   6 C       14   7 N                                       1.4451698
    14   7 N       15   1 H                                       1.0133149
    14   7 N       16   1 H                                       1.0154519
    17   6 C       18   1 H                                       1.0920761
    17   6 C       19   1 H                                       1.0928228
    17   6 C       20   6 C                                       1.4897230 (max)
    20   6 C       21   6 C                                       1.3654231
    21   6 C       22   1 H                                       1.0736107
    21   6 C       23   7 N                                       1.3691028
    23   7 N       24   1 H                                       1.0054630
    23   7 N       25   6 C                                       1.3653239
    25   6 C       26   6 C                                       1.3893498
    26   6 C       27   1 H                                       1.0799579
    26   6 C       28   6 C                                       1.3777718
    28   6 C       29   1 H                                       1.0795204
    28   6 C       30   6 C                                       1.3981554
    30   6 C       31   1 H                                       1.0799499
    30   6 C       32   6 C                                       1.3767952
    32   6 C       33   1 H                                       1.0797865
    20   6 C       34   6 C                                       1.4305049
    25   6 C       34   6 C                                       1.4154308
    32   6 C       34   6 C                                       1.3955485

 * 6 distinct bonds (by element types)

   Z      Z             #   av. dist./Å        max./Å        min./Å
   1 H    6 C          10     1.0862381     1.0980254     1.0736107
   6 C    6 C           9     1.4043003     1.4897230     1.3654231
   1 H    7 N           4     1.0101906     1.0154519     1.0054630
   6 C    7 N           5     1.3948686     1.4529994     1.3417470
   1 H    8 O           1     0.9970533     0.9970533     0.9970533
   6 C    8 O           3     1.2470851     1.3171395     1.1986265


optimized geometry written to: xtbopt.xyz


           -------------------------------------------------
          | TOTAL ENERGY              -56.478143985949 Eh   |
          | GRADIENT NORM               0.000101817880 Eh/α |
          | HOMO-LUMO GAP               3.434704393197 eV   |
           -------------------------------------------------

------------------------------------------------------------------------
 * finished run on 2026/10/01 at 18:03:32.854     
------------------------------------------------------------------------
 total:
 * wall-time:     0 d,  0 h,  0 min,  1.264 sec
 *  cpu-time:     0 d,  0 h,  0 min, 17.261 sec
 * ratio c/w:    13.661 speedup
 SCF:
 * wall-time:     0 d,  0 h,  0 min,  1.011 sec
 *  cpu-time:     0 d,  0 h,  0 min, 13.876 sec
 * ratio c/w:    13.729 speedup
 ANC optimizer:
 * wall-time:     0 d,  0 h,  0 min,  0.211 sec
 *  cpu-time:     0 d,  0 h,  0 min,  2.821 sec
 * ratio c/w:    13.376 speedup


--- STDERR ---
normal termination of xtb
Note: The following floating-point exceptions are signalling: IEEE_UNDERFLOW_FLAG IEEE_DENORMAL
