34
 energy: -56.478143985949 gnorm: 0.000101817880 xtb: 6.7.1-6.fc44.fc44
O           -2.40343087490000        1.65350886500000       -2.34810144500000
C           -1.68928779060000        2.44289425280000       -1.57239117470000
O           -1.82680701600000        3.63306405960000       -1.53648127310000
H           -2.17555071540000        0.69183312360000       -2.21632320700000
C           -0.61537131470000        1.72528939350000       -0.72526558380000
H           -0.07405127340000        2.47076808310000       -0.14465802840000
H            0.08192366450000        1.23445206790000       -1.41701545890000
N           -1.16149694950000        0.72735663400000        0.17866130790000
H           -1.07585013220000        0.90078708020000        1.16643343590000
C           -1.60602767990000       -0.46782760950000       -0.23872535090000
O           -1.75085133570000       -0.73459437700000       -1.42602695140000
C           -1.88025821760000       -1.48774529510000        0.85219227270000
H           -2.09207796590000       -0.97649323830000        1.80013620470000
N           -3.04566213460000       -2.25679643550000        0.47948673860000
H           -3.09855085890000       -3.12174578880000        1.00472223110000
H           -3.00350036780000       -2.47823413810000       -0.51062950370000
C           -0.58358524180000       -2.33355315520000        1.02655399220000
H           -0.38178501130000       -2.85052353430000        0.08599659180000
H           -0.77026946750000       -3.07960038650000        1.80297144530000
C            0.58137541000000       -1.48333955250000        1.39975333360000
C            0.94764915950000       -1.08980018630000        2.65488290220000
H            0.51381213650000       -1.35273181450000        3.60108167690000
N            2.03048751190000       -0.25443731040000        2.59107000150000
H            2.50996932290000        0.13976078460000        3.38205719600000
C            2.39135528410000       -0.09462582570000        1.28403376420000
C            3.41324450330000        0.65425600070000        0.71376106960000
H            4.09068339630000        1.23035651380000        1.32653647820000
C            3.53086038400000        0.63038719240000       -0.65877367860000
H            4.31336279400000        1.20049787560000       -1.13629620360000
C            2.65822814020000       -0.12252041480000       -1.45027936800000
H            2.78931534450000       -0.11649349750000       -2.52222686120000
C            1.64399596440000       -0.86746952940000       -0.89175580570000
H            0.97518034410000       -1.44460442200000       -1.51267418060000
C            1.49516634050000       -0.85551281020000        0.49578226950000
