68
frame_0009
O       2.120436479600000     -1.519637200700000      1.329945733800000
O      -1.205858187400000     -4.172782013900000      1.541385620800000
O      -0.634257672800000      0.035517949200000     -0.709609097700000
O      -1.056323522200000      2.920625813200000     -2.644608899500000
O      -2.146955687000000      1.380945606300000      1.768110152100000
O       1.820629623600000      2.850913437800000      0.300057673800000
N       0.450436869100000     -3.441651386500000      0.226817331900000
N      -2.031538384400000     -1.309005814200000      0.432219301700000
N      -2.502522957000000      1.324002776100000     -2.048752614300000
N      -0.923262138400000      2.774121902100000      0.481285042000000
N       1.273728980600000      1.142539656900000      1.690160297900000
N       2.314508656400000     -0.360694850000000     -0.578242885000000
C       1.900910419000000     -1.418767999200000      0.125162999700000
C       1.138976462400000     -2.500310517300000     -0.644303172800000
C       2.099749827100000     -3.380659970900000     -1.466503086900000
C       1.463279149800000     -4.766428277700000     -1.418168961000000
C       0.902398396900000     -4.806233022100000     -0.006188201100000
C      -0.604819409400000     -3.239186909400000      1.040204597900000
C      -1.009159744200000     -1.788620023500000      1.348670982500000
C      -1.527441699700000     -1.706195637200000      2.779702672500000
C      -1.767087647400000     -0.317627594500000     -0.427683627700000
C      -2.983866892200000      0.354491759400000     -1.090006820600000
C      -3.893472510400000     -0.644171762600000     -1.799770926500000
C      -1.773223532900000      2.442442318600000     -1.791581256800000
C      -1.985386170000000      3.133642558200000     -0.434796678800000
C      -1.980698476300000      4.646023178100000     -0.641803155400000
C      -1.088694656500000      1.932102246700000      1.501612580600000
C       0.150710532100000      1.741669047100000      2.398758224400000
C       0.534869147000000      3.066393946800000      3.061526471900000
C       1.968820851000000      1.706459401500000      0.696454252300000
C       3.005775154000000      0.752800893000000      0.067783731500000
C       3.733460789000000      1.433611216500000     -1.083867934000000
C       2.730523644500000      1.280790852500000     -2.225156586200000
C       2.137947796100000     -0.110677079000000     -1.998534666300000
H       0.409111518400000     -2.001659049800000     -1.291684652700000
H       2.221646666200000     -3.018051729000000     -2.484456851800000
H       3.076385342700000     -3.404362783900000     -0.979826340200000
H       0.655654777700000     -4.837202174700000     -2.148026245400000
H       2.179685579900000     -5.562497810300000     -1.607064285100000
H       0.063193411900000     -5.490135019100000      0.124275987300000
H       1.680143652400000     -5.059939341900000      0.722170313600000
H      -2.983744347400000     -1.487222961900000      0.710938673900000
H      -0.153597383100000     -1.129011961000000      1.214844034400000
H      -2.283985914100000     -2.471347341700000      2.939388821400000
H      -1.953280516100000     -0.720953776500000      2.955623287100000
H      -0.711191427500000     -1.882943832300000      3.474877134900000
H      -2.256998033500000      0.917393308600000     -2.945318628300000
H      -3.535990112100000      0.863765102800000     -0.293251720500000
H      -4.341290972900000     -1.337475247200000     -1.093888259400000
H      -3.331115384400000     -1.215890005000000     -2.535727064400000
H      -4.691199630400000     -0.109750547500000     -2.310426415400000
H       0.012807420000000      3.111552323500000      0.261874015100000
H      -2.926904499400000      2.812329495700000      0.019436572600000
H      -2.047819867000000      5.154604070900000      0.316455305100000
H      -2.823141146900000      4.939722175500000     -1.262288702600000
H      -1.062543008000000      4.938600516900000     -1.144776303500000
H       1.515292488800000      0.185112332000000      1.927710039700000
H      -0.142074458500000      1.026405050600000      3.173141774400000
H       1.328338188400000      2.897325598100000      3.786133835700000
H      -0.328581855600000      3.480981121300000      3.575366778900000
H       0.885902521700000      3.779254348300000      2.321680646100000
H       3.665619956600000      0.367291828600000      0.851618655800000
H       4.666176281800000      0.913773754500000     -1.305162528300000
H       3.940910594800000      2.476531890600000     -0.857364902200000
H       3.191271994500000      1.372094189400000     -3.206248641600000
H       1.952483725700000      2.036879449200000     -2.131228118500000
H       1.079859431200000     -0.140199834300000     -2.260945804900000
H       2.682375112000000     -0.864043303600000     -2.575930766000000
