      -----------------------------------------------------------      
     |                   =====================                   |     
     |                           x T B                           |     
     |                   =====================                   |     
     |                         S. Grimme                         |     
     |          Mulliken Center for Theoretical Chemistry        |     
     |                    University of Bonn                     |     
      -----------------------------------------------------------      

   * xtb version 6.7.1-6.fc44.fc44 compiled by Fedora project on Sun Jan 18 23:32:34 UTC 2026

   xtb is free software: you can redistribute it and/or modify it under
   the terms of the GNU Lesser General Public License as published by
   the Free Software Foundation, either version 3 of the License, or
   (at your option) any later version.
   
   xtb is distributed in the hope that it will be useful,
   but WITHOUT ANY WARRANTY; without even the implied warranty of
   MERCHANTABILITY or FITNESS FOR A PARTICULAR PURPOSE.  See the
   GNU Lesser General Public License for more details.
   
   Cite this work as:
   * C. Bannwarth, E. Caldeweyher, S. Ehlert, A. Hansen, P. Pracht,
     J. Seibert, S. Spicher, S. Grimme, WIREs Comput. Mol. Sci., 2020, 11,
     e01493. DOI: 10.1002/wcms.1493
   
   for GFN2-xTB:
   * C. Bannwarth, S. Ehlert and S. Grimme., J. Chem. Theory Comput., 2019,
     15, 1652-1671. DOI: 10.1021/acs.jctc.8b01176
   for GFN1-xTB:
   * S. Grimme, C. Bannwarth, P. Shushkov, J. Chem. Theory Comput., 2017,
     13, 1989-2009. DOI: 10.1021/acs.jctc.7b00118
   for GFN0-xTB:
   * P. Pracht, E. Caldeweyher, S. Ehlert, S. Grimme, ChemRxiv, 2019, preprint.
     DOI: 10.26434/chemrxiv.8326202.v1
   for GFN-FF:
   * S. Spicher and S. Grimme, Angew. Chem. Int. Ed., 2020, 59, 15665-15673.
     DOI: 10.1002/anie.202004239
   
   for ALPB and GBSA implicit solvation:
   * S. Ehlert, M. Stahn, S. Spicher, S. Grimme, J. Chem. Theory Comput.,
     2021, 17, 4250-4261. DOI: 10.1021/acs.jctc.1c00471
   
   for ddCOSMO and CPCM-X implicit solvation:
   * M. Stahn, S. Ehlert, S. Grimme, J. Phys. Chem. A,
     2023, XX, XXXX-XXXX. DOI: 10.1021/acs.jpca.3c04382
   
   for DFT-D4:
   * E. Caldeweyher, C. Bannwarth and S. Grimme, J. Chem. Phys., 2017,
     147, 034112. DOI: 10.1063/1.4993215
   * E. Caldeweyher, S. Ehlert, A. Hansen, H. Neugebauer, S. Spicher,
     C. Bannwarth and S. Grimme, J. Chem. Phys., 2019, 150, 154122.
     DOI: 10.1063/1.5090222
   * E. Caldeweyher, J.-M. Mewes, S. Ehlert and S. Grimme, Phys. Chem. Chem. Phys.
     2020, 22, 8499-8512. DOI: 10.1039/D0CP00502A
   
   for sTDA-xTB:
   * S. Grimme and C. Bannwarth, J. Chem. Phys., 2016, 145, 054103.
     DOI: 10.1063/1.4959605
   
   in the mass-spec context:
   * V. Asgeirsson, C. Bauer and S. Grimme, Chem. Sci., 2017, 8, 4879.
     DOI: 10.1039/c7sc00601b
   * J. Koopman and S. Grimme, ACS Omega 2019, 4, 12, 15120-15133.
     DOI: 10.1021/acsomega.9b02011
   
   for metadynamics refer to:
   * S. Grimme, J. Chem. Theory Comput., 2019, 155, 2847-2862
     DOI: 10.1021/acs.jctc.9b00143
   
   for SPH calculations refer to:
   * S. Spicher and S. Grimme, J. Chem. Theory Comput., 2021, 17, 1701-1714
     DOI: 10.1021/acs.jctc.0c01306
   
   for ONIOM refer to:
   * C. Plett, A. Katbashev, S. Ehlert, S. Grimme, M. Bursch,
     Phys. Chem. Chem. Phys., 2023, 25, 17860-17868. DOI: 10.1039/D3CP02178E
   
   for DIPRO refer to:
   * J. Kohn, N. Gildemeister, S. Grimme, D. Fazzi, A. Hansen,
     J. Chem. Phys., 2023, just accepted.
   
   for PTB refer to:
   * S. Grimme, M. Mueller, A. Hansen, J. Chem. Phys., 2023, 158, 124111.
     DOI: 10.1063/5.0137838
   
   with help from (in alphabetical order)
   P. Atkinson, C. Bannwarth, F. Bohle, G. Brandenburg, E. Caldeweyher
   M. Checinski, S. Dohm, S. Ehlert, S. Ehrlich, I. Gerasimov, C. Hölzer
   A. Katbashev, J. Kohn, J. Koopman, C. Lavigne, S. Lehtola, F. März, M. Müller,
   F. Musil, H. Neugebauer, J. Pisarek, C. Plett, P. Pracht, F. Pultar,
   J. Seibert, P. Shushkov, S. Spicher, M. Stahn, M. Steiner, T. Strunk,
   J. Stückrath, T. Rose, and J. Unsleber
   
 * started run on 2026/10/01 at 13:39:06.704     
   ID    Z sym.   atoms
    1    8 O      1-6
    2    7 N      7-12
    3    6 C      13-34
    4    1 H      35-68

           -------------------------------------------------
          |                Calculation Setup                |
           -------------------------------------------------

          program call               : /usr/bin/xtb input.xyz --opt --gfn 2 --chrg 0 --uhf 0
          hostname                   : fedora
          coordinate file            : input.xyz
          omp threads                :                    16


           -------------------------------------------------
          |                 G F N 2 - x T B                 |
           -------------------------------------------------

        Reference                      10.1021/acs.jctc.8b01176
      * Hamiltonian:
        H0-scaling (s, p, d)           1.850000    2.230000    2.230000
        zeta-weighting                 0.500000
      * Dispersion:
        s8                             2.700000
        a1                             0.520000
        a2                             5.000000
        s9                             5.000000
      * Repulsion:
        kExp                           1.500000    1.000000
        rExp                           1.000000
      * Coulomb:
        alpha                          2.000000
        third order                    shell-resolved
        anisotropic                    true
        a3                             3.000000
        a5                             4.000000
        cn-shift                       1.200000
        cn-exp                         4.000000
        max-rad                        5.000000


          ...................................................
          :                      SETUP                      :
          :.................................................:
          :  # basis functions                 170          :
          :  # atomic orbitals                 170          :
          :  # shells                          102          :
          :  # electrons                       188          :
          :  max. iterations                   250          :
          :  Hamiltonian                  GFN2-xTB          :
          :  restarted?                      false          :
          :  GBSA solvation                  false          :
          :  PC potential                    false          :
          :  electronic temp.          300.0000000     K    :
          :  accuracy                    1.0000000          :
          :  -> integral cutoff          0.2500000E+02      :
          :  -> integral neglect         0.1000000E-07      :
          :  -> SCF convergence          0.1000000E-05 Eh   :
          :  -> wf. convergence          0.1000000E-03 e    :
          :  Broyden damping             0.4000000          :
          :  net charge                          0          :
          :  unpaired electrons                  0          :
          ...................................................

 iter      E             dE          RMSdq      gap      omega  full diag
   1   -107.5173679 -0.107517E+03  0.384E+00    4.36       0.0  T
   2   -107.7911159 -0.273748E+00  0.209E+00    4.02       1.0  T
   3   -107.8002340 -0.911811E-02  0.113E+00    4.25       1.0  T
   4   -107.8017380 -0.150402E-02  0.175E-01    4.09       1.0  T
   5   -107.8030408 -0.130278E-02  0.805E-02    4.18       1.0  T
   6   -107.8030827 -0.418690E-04  0.334E-02    4.17       1.0  T
   7   -107.8030859 -0.327680E-05  0.101E-02    4.17       1.2  T
   8   -107.8030872 -0.125334E-05  0.421E-03    4.17       2.9  T
   9   -107.8030874 -0.175639E-06  0.136E-03    4.17       8.9  T
  10   -107.8030874 -0.229157E-07  0.549E-04    4.17      22.1  T
  11   -107.8030874 -0.445512E-08  0.137E-04    4.17      88.7  T

   *** convergence criteria satisfied after 11 iterations ***

         #    Occupation            Energy/Eh            Energy/eV
      -------------------------------------------------------------
         1        2.0000           -0.7149629             -19.4551
       ...           ...                  ...                  ...
        88        2.0000           -0.4115140             -11.1979
        89        2.0000           -0.3981869             -10.8352
        90        2.0000           -0.3880092             -10.5583
        91        2.0000           -0.3872105             -10.5365
        92        2.0000           -0.3859062             -10.5010
        93        2.0000           -0.3846228             -10.4661
        94        2.0000           -0.3817835             -10.3889 (HOMO)
        95                         -0.2285707              -6.2197 (LUMO)
        96                         -0.2231965              -6.0735
        97                         -0.2211110              -6.0167
        98                         -0.2148531              -5.8465
        99                         -0.2111798              -5.7465
       ...                                ...                  ...
       170                          0.6330796              17.2270
      -------------------------------------------------------------
                  HL-Gap            0.1532128 Eh            4.1691 eV
             Fermi-level           -0.3051771 Eh           -8.3043 eV

 SCC (total)                   0 d,  0 h,  0 min,  0.077 sec
 SCC setup                      ...        0 min,  0.000 sec (  0.315%)
 Dispersion                     ...        0 min,  0.001 sec (  1.056%)
 classical contributions        ...        0 min,  0.001 sec (  1.343%)
 integral evaluation            ...        0 min,  0.002 sec (  2.731%)
 iterations                     ...        0 min,  0.065 sec ( 84.276%)
 molecular gradient             ...        0 min,  0.007 sec (  9.368%)
 printout                       ...        0 min,  0.001 sec (  0.888%)

         :::::::::::::::::::::::::::::::::::::::::::::::::::::
         ::                     SUMMARY                     ::
         :::::::::::::::::::::::::::::::::::::::::::::::::::::
         :: total energy            -106.565298578320 Eh    ::
         :: gradient norm              0.000087210203 Eh/a0 ::
         :: HOMO-LUMO gap              4.169133802156 eV    ::
         ::.................................................::
         :: SCC energy              -107.798337310187 Eh    ::
         :: -> isotropic ES            0.231318908584 Eh    ::
         :: -> anisotropic ES         -0.002250403013 Eh    ::
         :: -> anisotropic XC          0.028327344175 Eh    ::
         :: -> dispersion             -0.085976594344 Eh    ::
         :: repulsion energy           1.233038731867 Eh    ::
         :: add. restraining           0.000000000000 Eh    ::
         :: total charge              -0.000000000000 e     ::
         :::::::::::::::::::::::::::::::::::::::::::::::::::::

      ----------------------------------------------------------- 
     |                   =====================                   |
     |                        A N C O P T                        |
     |                   =====================                   |
     |               Approximate Normal Coordinate               |
     |                Rational Function Optimizer                |
      ----------------------------------------------------------- 
      ----------------------------------------------------------- 
     |                   =====================                   |
     |                        A N C O P T                        |
     |                   =====================                   |
     |               Approximate Normal Coordinate               |
     |                Rational Function Optimizer                |
      ----------------------------------------------------------- 

          ...................................................
          :                      SETUP                      :
          :.................................................:
          :   optimization level            normal          :
          :   max. optcycles                   204          :
          :   ANC micro-cycles                  20          :
          :   degrees of freedom               198          :
          :.................................................:
          :   RF solver                   davidson          :
          :   write xtbopt.log                true          :
          :   linear?                        false          :
          :   energy convergence         0.5000000E-05 Eh   :
          :   grad. convergence          0.1000000E-02 Eh/α :
          :   maxmium RF displ.          1.0000000          :
          :   Hlow (freq-cutoff)         0.1000000E-01      :
          :   Hmax (freq-cutoff)         5.0000000          :
          :   S6 in model hess.         20.0000000          :
          ...................................................

generating ANC from exact Hessian ...
Using Lindh-Hessian (1995)
 Shifting diagonal of input Hessian by    9.6641846809298205E-003
 Lowest  eigenvalues of input Hessian
    0.000000    0.000000    0.000000    0.000000    0.000000    0.000000
    0.010000    0.010249    0.010500    0.010762    0.010852    0.011612
    0.012308    0.012592    0.012836    0.012920    0.013207    0.013847
 Highest eigenvalues
    2.289902    2.299202    2.303536    2.320355    2.325459    2.337211


........................................................................
.............................. CYCLE    1 ..............................
........................................................................

 iter      E             dE          RMSdq      gap      omega  full diag
   1   -107.8030874 -0.107803E+03  0.585E-05    4.17       0.0  T
   2   -107.8030874 -0.308660E-10  0.318E-05    4.17     381.5  T
   3   -107.8030874 -0.297007E-11  0.160E-05    4.17     759.6  T
     SCC iter.                  ...        0 min,  0.010 sec
     gradient                   ...        0 min,  0.006 sec
 * total energy  :  -106.5652986 Eh     change       -0.2657430E-09 Eh
   gradient norm :     0.0000865 Eh/α   predicted     0.0000000E+00 (-100.00%)
   displ. norm   :     0.0001297 α      lambda        0.0000000E+00
   maximum displ.:     0.0000397 α      in ANC's #181, #192, #90, ...

   *** GEOMETRY OPTIMIZATION CONVERGED AFTER 1 ITERATIONS ***

------------------------------------------------------------------------
 total energy gain   :        -0.0000000 Eh       -0.0000 kcal/mol
 total RMSD          :         0.0000001 a0        0.0000 Å
 total power (kW/mol):        -0.0000007 (step)   -0.0000 (real)
------------------------------------------------------------------------

 ANCopt (total)                0 d,  0 h,  0 min,  0.054 sec
 optimizer setup                ...        0 min,  0.000 sec (  0.566%)
 model hessian                  ...        0 min,  0.031 sec ( 57.792%)
 ANC generation                 ...        0 min,  0.003 sec (  5.568%)
 coordinate transformation      ...        0 min,  0.000 sec (  0.051%)
 single point calculation       ...        0 min,  0.019 sec ( 34.583%)
 optimization log               ...        0 min,  0.000 sec (  0.240%)
 hessian update                 ...        0 min,  0.000 sec (  0.001%)
 rational function              ...        0 min,  0.000 sec (  0.128%)

================
 final structure:
================
68
 xtb: 6.7.1-6.fc44.fc44
O            2.12043647960000       -1.51963720070000        1.32994573380000
O           -1.20585818740000       -4.17278201390000        1.54138562080000
O           -0.63425767280000        0.03551794920000       -0.70960909770000
O           -1.05632352220000        2.92062581320000       -2.64460889950000
O           -2.14695568700000        1.38094560630000        1.76811015210000
O            1.82062962360000        2.85091343780000        0.30005767380000
N            0.45043686910000       -3.44165138650000        0.22681733190000
N           -2.03153838440000       -1.30900581420000        0.43221930170000
N           -2.50252295700000        1.32400277610000       -2.04875261430000
N           -0.92326213840000        2.77412190210000        0.48128504200000
N            1.27372898060000        1.14253965690000        1.69016029790000
N            2.31450865640000       -0.36069485000000       -0.57824288500000
C            1.90091041900000       -1.41876799920000        0.12516299970000
C            1.13897646240000       -2.50031051730000       -0.64430317280000
C            2.09974982710000       -3.38065997090000       -1.46650308690000
C            1.46327914980000       -4.76642827770000       -1.41816896100000
C            0.90239839690000       -4.80623302210000       -0.00618820110000
C           -0.60481940940000       -3.23918690940000        1.04020459790000
C           -1.00915974420000       -1.78862002350000        1.34867098250000
C           -1.52744169970000       -1.70619563720000        2.77970267250000
C           -1.76708764740000       -0.31762759450000       -0.42768362770000
C           -2.98386689220000        0.35449175940000       -1.09000682060000
C           -3.89347251040000       -0.64417176260000       -1.79977092650000
C           -1.77322353290000        2.44244231860000       -1.79158125680000
C           -1.98538617000000        3.13364255820000       -0.43479667880000
C           -1.98069847630000        4.64602317810000       -0.64180315540000
C           -1.08869465650000        1.93210224670000        1.50161258060000
C            0.15071053210000        1.74166904710000        2.39875822440000
C            0.53486914700000        3.06639394680000        3.06152647190000
C            1.96882085100000        1.70645940150000        0.69645425230000
C            3.00577515400000        0.75280089300000        0.06778373150000
C            3.73346078900000        1.43361121650000       -1.08386793400000
C            2.73052364450000        1.28079085250000       -2.22515658620000
C            2.13794779610000       -0.11067707900000       -1.99853466630000
H            0.40911151840000       -2.00165904980000       -1.29168465270000
H            2.22164666620000       -3.01805172900000       -2.48445685180000
H            3.07638534270000       -3.40436278390000       -0.97982634020000
H            0.65565477770000       -4.83720217470000       -2.14802624540000
H            2.17968557990000       -5.56249781030000       -1.60706428510000
H            0.06319341190000       -5.49013501910000        0.12427598730000
H            1.68014365240000       -5.05993934190000        0.72217031360000
H           -2.98374434740000       -1.48722296190000        0.71093867390000
H           -0.15359738310000       -1.12901196100000        1.21484403440000
H           -2.28398591410000       -2.47134734170000        2.93938882140000
H           -1.95328051610000       -0.72095377650000        2.95562328710000
H           -0.71119142750000       -1.88294383230000        3.47487713490000
H           -2.25699803350000        0.91739330860000       -2.94531862830000
H           -3.53599011210000        0.86376510280000       -0.29325172050000
H           -4.34129097290000       -1.33747524720000       -1.09388825940000
H           -3.33111538440000       -1.21589000500000       -2.53572706440000
H           -4.69119963040000       -0.10975054750000       -2.31042641540000
H            0.01280742000000        3.11155232350000        0.26187401510000
H           -2.92690449940000        2.81232949570000        0.01943657260000
H           -2.04781986700000        5.15460407090000        0.31645530510000
H           -2.82314114690000        4.93972217550000       -1.26228870260000
H           -1.06254300800000        4.93860051690000       -1.14477630350000
H            1.51529248880000        0.18511233200000        1.92771003970000
H           -0.14207445850000        1.02640505060000        3.17314177440000
H            1.32833818840000        2.89732559810000        3.78613383570000
H           -0.32858185560000        3.48098112130000        3.57536677890000
H            0.88590252170000        3.77925434830000        2.32168064610000
H            3.66561995660000        0.36729182860000        0.85161865580000
H            4.66617628180000        0.91377375450000       -1.30516252830000
H            3.94091059480000        2.47653189060000       -0.85736490220000
H            3.19127199450000        1.37209418940000       -3.20624864160000
H            1.95248372570000        2.03687944920000       -2.13122811850000
H            1.07985943120000       -0.14019983430000       -2.26094580490000
H            2.68237511200000       -0.86404330360000       -2.57593076600000

 Bond Distances (Angstroems)
 ---------------------------
O1-C13=1.2288        O2-C18=1.2182        O3-C21=1.2196        O4-C24=1.2125        O5-C27=1.2226        O6-C30=1.2202        
N7-C14=1.4557        N7-C17=1.4562        N7-C18=1.3476        N8-C19=1.4544        N8-C21=1.3387        N8-H42=1.0080        
N9-C22=1.4460        N9-C24=1.3598        N9-H47=1.0146        N10-C25=1.4480       N10-C27=1.3332       N10-H52=1.0189       
N11-C28=1.4568       N11-C30=1.3374       N11-H57=1.0156       N12-C13=1.3362       N12-C31=1.4612       N12-C34=1.4529       
C13-O1=1.2288        C13-N12=1.3362       C13-C14=1.5305       C14-N7=1.4557        C14-C13=1.5305       C14-C15=1.5408       
C14-H35=1.0957       C15-C14=1.5408       C15-C16=1.5257       C15-H36=1.0875       C15-H37=1.0914       C16-C15=1.5257       
C16-C17=1.5198       C16-H38=1.0909       C16-H39=1.0875       C17-N7=1.4562        C17-C16=1.5198       C17-H40=1.0904       
C17-H41=1.0953       C18-O2=1.2182        C18-N7=1.3476        C18-C19=1.5371       C19-N8=1.4544        C19-C18=1.5371       
C19-C20=1.5242       C19-H43=1.0886       C20-C19=1.5242       C20-H44=1.0878       C20-H45=1.0877       C20-H46=1.0866       
C21-O3=1.2196        C21-N8=1.3387        C21-C22=1.5398       C22-N9=1.4460        C22-C21=1.5398       C22-C23=1.5259       
C22-H48=1.0950       C23-C22=1.5259       C23-H49=1.0860       C23-H50=1.0885       C23-H51=1.0875       C24-O4=1.2125        
C24-N9=1.3598        C24-C25=1.5374       C25-N10=1.4480       C25-C24=1.5374       C25-C26=1.5265       C25-H53=1.0936       
C26-C25=1.5265       C26-H54=1.0869       C26-H55=1.0867       C26-H56=1.0870       C27-O5=1.2226        C27-N10=1.3332       
C27-C28=1.5418       C28-N11=1.4568       C28-C27=1.5418       C28-C29=1.5303       C28-H58=1.0941       C29-C28=1.5303       
C29-H59=1.0878       C29-H60=1.0870       C29-H61=1.0857       C30-O6=1.2202        C30-N11=1.3374       C30-C31=1.5427       
C31-N12=1.4612       C31-C30=1.5427       C31-C32=1.5229       C31-H62=1.0947       C32-C31=1.5229       C32-C33=1.5270       
C32-H63=1.0905       C32-H64=1.0872       C33-C32=1.5270       C33-C34=1.5293       C33-H65=1.0877       C33-H66=1.0890       
C34-N12=1.4529       C34-C33=1.5293       C34-H67=1.0905       C34-H68=1.0942       H35-C14=1.0957       H36-C15=1.0875       
H37-C15=1.0914       H38-C16=1.0909       H39-C16=1.0875       H40-C17=1.0904       H41-C17=1.0953       H42-N8=1.0080        
H43-C19=1.0886       H44-C20=1.0878       H45-C20=1.0877       H46-C20=1.0866       H47-N9=1.0146        H48-C22=1.0950       
H49-C23=1.0860       H50-C23=1.0885       H51-C23=1.0875       H52-N10=1.0189       H53-C25=1.0936       H54-C26=1.0869       
H55-C26=1.0867       H56-C26=1.0870       H57-N11=1.0156       H58-C28=1.0941       H59-C29=1.0878       H60-C29=1.0870       
H61-C29=1.0857       H62-C31=1.0947       H63-C32=1.0905       H64-C32=1.0872       H65-C33=1.0877       H66-C33=1.0890       
H67-C34=1.0905       H68-C34=1.0942       
 C  H  Rav=1.0896 sigma=0.0031  Rmin=1.0857  Rmax=1.0957    30
 C  C  Rav=1.5314 sigma=0.0072  Rmin=1.5198  Rmax=1.5427    16
 N  H  Rav=1.0143 sigma=0.0040  Rmin=1.0080  Rmax=1.0189     4
 N  C  Rav=1.4060 sigma=0.0557  Rmin=1.3332  Rmax=1.4612    14
 O  C  Rav=1.2203 sigma=0.0049  Rmin=1.2125  Rmax=1.2288     6

 selected bond angles (degree)
 --------------------
C17-N7-C14=111.31              C18-N7-C14=129.38              C18-N7-C17=118.71              C21-N8-C19=120.67              
H42-N8-C19=115.56              H42-N8-C21=119.68              C24-N9-C22=127.20              H47-N9-C22=113.44              
H47-N9-C24=111.53              C27-N10-C25=123.37             H52-N10-C25=117.09             H52-N10-C27=119.21             

 selected dihedral angles (degree)
 ---------------------------------

           -------------------------------------------------
          |                Final Singlepoint                |
           -------------------------------------------------

          ...................................................
          :                      SETUP                      :
          :.................................................:
          :  # basis functions                 170          :
          :  # atomic orbitals                 170          :
          :  # shells                          102          :
          :  # electrons                       188          :
          :  max. iterations                   250          :
          :  Hamiltonian                  GFN2-xTB          :
          :  restarted?                      false          :
          :  GBSA solvation                  false          :
          :  PC potential                    false          :
          :  electronic temp.          300.0000000     K    :
          :  accuracy                    1.0000000          :
          :  -> integral cutoff          0.2500000E+02      :
          :  -> integral neglect         0.1000000E-07      :
          :  -> SCF convergence          0.1000000E-05 Eh   :
          :  -> wf. convergence          0.1000000E-03 e    :
          :  Broyden damping             0.4000000          :
          :  net charge                          0          :
          :  unpaired electrons                  0          :
          ...................................................

 iter      E             dE          RMSdq      gap      omega  full diag
   1   -107.8030874 -0.107803E+03  0.321E-06    4.17       0.0  T
   2   -107.8030874  0.596856E-12  0.194E-06    4.17    6254.2  T
   3   -107.8030874 -0.227374E-12  0.648E-07    4.17   18713.6  T

   *** convergence criteria satisfied after 3 iterations ***

         #    Occupation            Energy/Eh            Energy/eV
      -------------------------------------------------------------
         1        2.0000           -0.7149600             -19.4551
       ...           ...                  ...                  ...
        88        2.0000           -0.4115131             -11.1978
        89        2.0000           -0.3981851             -10.8352
        90        2.0000           -0.3880079             -10.5582
        91        2.0000           -0.3872090             -10.5365
        92        2.0000           -0.3859037             -10.5010
        93        2.0000           -0.3846211             -10.4661
        94        2.0000           -0.3817816             -10.3888 (HOMO)
        95                         -0.2285694              -6.2197 (LUMO)
        96                         -0.2231936              -6.0734
        97                         -0.2211091              -6.0167
        98                         -0.2148515              -5.8464
        99                         -0.2111778              -5.7464
       ...                                ...                  ...
       170                          0.6330823              17.2270
      -------------------------------------------------------------
                  HL-Gap            0.1532122 Eh            4.1691 eV
             Fermi-level           -0.3051755 Eh           -8.3042 eV

 SCC (total)                   0 d,  0 h,  0 min,  0.021 sec
 SCC setup                      ...        0 min,  0.000 sec (  0.947%)
 Dispersion                     ...        0 min,  0.000 sec (  2.315%)
 classical contributions        ...        0 min,  0.000 sec (  0.185%)
 integral evaluation            ...        0 min,  0.001 sec (  6.606%)
 iterations                     ...        0 min,  0.013 sec ( 62.651%)
 molecular gradient             ...        0 min,  0.005 sec ( 24.958%)
 printout                       ...        0 min,  0.000 sec (  2.300%)

         :::::::::::::::::::::::::::::::::::::::::::::::::::::
         ::                     SUMMARY                     ::
         :::::::::::::::::::::::::::::::::::::::::::::::::::::
         :: total energy            -106.565298578589 Eh    ::
         :: gradient norm              0.000086460342 Eh/a0 ::
         :: HOMO-LUMO gap              4.169117466484 eV    ::
         ::.................................................::
         :: SCC energy              -107.798337310457 Eh    ::
         :: -> isotropic ES            0.231321449343 Eh    ::
         :: -> anisotropic ES         -0.002249975002 Eh    ::
         :: -> anisotropic XC          0.028327379623 Eh    ::
         :: -> dispersion             -0.085976632844 Eh    ::
         :: repulsion energy           1.233038731867 Eh    ::
         :: add. restraining           0.000000000000 Eh    ::
         :: total charge               0.000000000000 e     ::
         :::::::::::::::::::::::::::::::::::::::::::::::::::::

           -------------------------------------------------
          |                Property Printout                |
           -------------------------------------------------

    * Orbital Energies and Occupations

         #    Occupation            Energy/Eh            Energy/eV
      -------------------------------------------------------------
         1        2.0000           -0.7149600             -19.4551
       ...           ...                  ...                  ...
        82        2.0000           -0.4421472             -12.0314
        83        2.0000           -0.4280759             -11.6485
        84        2.0000           -0.4264218             -11.6035
        85        2.0000           -0.4228942             -11.5075
        86        2.0000           -0.4185128             -11.3883
        87        2.0000           -0.4164717             -11.3328
        88        2.0000           -0.4115131             -11.1978
        89        2.0000           -0.3981851             -10.8352
        90        2.0000           -0.3880079             -10.5582
        91        2.0000           -0.3872090             -10.5365
        92        2.0000           -0.3859037             -10.5010
        93        2.0000           -0.3846211             -10.4661
        94        2.0000           -0.3817816             -10.3888 (HOMO)
        95                         -0.2285694              -6.2197 (LUMO)
        96                         -0.2231936              -6.0734
        97                         -0.2211091              -6.0167
        98                         -0.2148515              -5.8464
        99                         -0.2111778              -5.7464
       100                         -0.2056840              -5.5969
       101                         -0.0351197              -0.9557
       102                         -0.0133353              -0.3629
       103                         -0.0060560              -0.1648
       104                          0.0020770               0.0565
       105                          0.0091855               0.2500
       ...                                ...                  ...
       170                          0.6330823              17.2270
      -------------------------------------------------------------
                  HL-Gap            0.1532122 Eh            4.1691 eV
             Fermi-level           -0.3051755 Eh           -8.3042 eV

     #   Z          covCN         q      C6AA      α(0)
     1   8 O        0.859    -0.475    23.244     6.464
     2   8 O        0.859    -0.438    22.461     6.354
     3   8 O        0.859    -0.473    23.194     6.457
     4   8 O        0.860    -0.421    22.105     6.304
     5   8 O        0.858    -0.478    23.294     6.471
     6   8 O        0.858    -0.442    22.547     6.366
     7   7 N        2.755    -0.087    22.926     7.111
     8   7 N        2.689    -0.173    24.745     7.388
     9   7 N        2.691    -0.185    25.009     7.427
    10   7 N        2.691    -0.175    24.780     7.393
    11   7 N        2.688    -0.184    24.994     7.425
    12   7 N        2.758    -0.082    22.832     7.097
    13   6 C        2.757     0.259    22.646     7.793
    14   6 C        3.814     0.019    20.243     6.404
    15   6 C        3.836    -0.058    21.592     6.611
    16   6 C        3.827    -0.062    21.672     6.624
    17   6 C        3.786     0.001    20.584     6.462
    18   6 C        2.762     0.258    22.649     7.794
    19   6 C        3.795     0.028    20.101     6.384
    20   6 C        3.758    -0.118    22.814     6.810
    21   6 C        2.757     0.274    22.374     7.746
    22   6 C        3.787     0.020    20.255     6.410
    23   6 C        3.756    -0.119    22.827     6.812
    24   6 C        2.750     0.275    22.341     7.740
    25   6 C        3.791     0.029    20.093     6.384
    26   6 C        3.758    -0.116    22.766     6.803
    27   6 C        2.752     0.271    22.419     7.753
    28   6 C        3.788     0.025    20.173     6.397
    29   6 C        3.754    -0.118    22.810     6.810
    30   6 C        2.749     0.275    22.352     7.741
    31   6 C        3.836     0.019    20.233     6.399
    32   6 C        3.833    -0.061    21.639     6.618
    33   6 C        3.834    -0.064    21.703     6.628
    34   6 C        3.767    -0.004    20.685     6.482
    35   1 H        0.924     0.058     2.223     2.332
    36   1 H        0.925     0.043     2.403     2.424
    37   1 H        0.924     0.049     2.327     2.385
    38   1 H        0.924     0.046     2.374     2.410
    39   1 H        0.925     0.050     2.316     2.380
    40   1 H        0.924     0.076     2.017     2.221
    41   1 H        0.924     0.056     2.241     2.341
    42   1 H        0.860     0.189     1.162     1.689
    43   1 H        0.925     0.065     2.138     2.287
    44   1 H        0.925     0.065     2.144     2.290
    45   1 H        0.925     0.066     2.130     2.282
    46   1 H        0.925     0.053     2.280     2.361
    47   1 H        0.860     0.189     1.163     1.689
    48   1 H        0.924     0.077     2.010     2.217
    49   1 H        0.925     0.054     2.269     2.356
    50   1 H        0.925     0.048     2.339     2.392
    51   1 H        0.925     0.063     2.164     2.300
    52   1 H        0.860     0.230     0.967     1.541
    53   1 H        0.924     0.061     2.192     2.315
    54   1 H        0.925     0.050     2.324     2.384
    55   1 H        0.925     0.050     2.320     2.382
    56   1 H        0.925     0.072     2.066     2.248
    57   1 H        0.860     0.213     1.044     1.600
    58   1 H        0.924     0.066     2.135     2.285
    59   1 H        0.925     0.051     2.303     2.373
    60   1 H        0.925     0.051     2.312     2.378
    61   1 H        0.925     0.070     2.086     2.258
    62   1 H        0.924     0.063     2.162     2.299
    63   1 H        0.924     0.042     2.419     2.432
    64   1 H        0.925     0.071     2.069     2.250
    65   1 H        0.925     0.049     2.338     2.391
    66   1 H        0.925     0.078     2.001     2.212
    67   1 H        0.924     0.073     2.058     2.243
    68   1 H        0.924     0.041     2.432     2.439

 Mol. C6AA /au·bohr⁶  :      43567.029336
 Mol. C8AA /au·bohr⁸  :     969643.364939
 Mol. α(0) /au        :        310.249971


Wiberg/Mayer (AO) data.
largest (>0.10) Wiberg bond orders for each atom

 ---------------------------------------------------------------------------
     #   Z sym  total        # sym  WBO       # sym  WBO       # sym  WBO
 ---------------------------------------------------------------------------
     1   8 O    1.967 --    13 C    1.590    12 N    0.195
     2   8 O    1.997 --    18 C    1.669     7 N    0.201
     3   8 O    1.976 --    21 C    1.643     8 N    0.190
     4   8 O    2.016 --    24 C    1.710     9 N    0.187
     5   8 O    1.965 --    27 C    1.630    10 N    0.202
     6   8 O    2.016 --    30 C    1.635    11 N    0.199
     7   7 N    3.506 --    18 C    1.268    14 C    0.982    17 C    0.975
                             2 O    0.201
     8   7 N    3.457 --    21 C    1.291    19 C    0.965    42 H    0.931
                             3 O    0.190
     9   7 N    3.407 --    24 C    1.228    22 C    0.996    47 H    0.929
                             4 O    0.187
    10   7 N    3.486 --    27 C    1.321    25 C    0.979    52 H    0.877
                             5 O    0.202
    11   7 N    3.476 --    30 C    1.311    28 C    0.973    57 H    0.896
                             6 O    0.199
    12   7 N    3.534 --    13 C    1.311    34 C    0.977    31 C    0.959
                             1 O    0.195
    13   6 C    3.956 --     1 O    1.590    12 N    1.311    14 C    0.941
    14   6 C    3.975 --     7 N    0.982    15 C    0.976    35 H    0.946
                            13 C    0.941
    15   6 C    3.993 --    16 C    1.003    37 H    0.978    14 C    0.976
                            36 H    0.976
    16   6 C    3.995 --    17 C    1.007    15 C    1.003    38 H    0.979
                            39 H    0.977
    17   6 C    3.967 --    16 C    1.007     7 N    0.975    41 H    0.966
                            40 H    0.966
    18   6 C    3.954 --     2 O    1.669     7 N    1.268    19 C    0.928
    19   6 C    3.958 --    20 C    1.000     8 N    0.965    43 H    0.947
                            18 C    0.928
    20   6 C    3.988 --    19 C    1.000    46 H    0.982    44 H    0.981
                            45 H    0.977
    21   6 C    3.949 --     3 O    1.643     8 N    1.291    22 C    0.924
    22   6 C    3.973 --    23 C    0.999     9 N    0.996    48 H    0.939
                            21 C    0.924
    23   6 C    3.991 --    22 C    0.999    50 H    0.985    51 H    0.982
                            49 H    0.981
    24   6 C    3.946 --     4 O    1.710     9 N    1.228    25 C    0.929
    25   6 C    3.971 --    26 C    0.997    10 N    0.979    53 H    0.954
                            24 C    0.929
    26   6 C    3.990 --    25 C    0.997    54 H    0.985    55 H    0.984
                            56 H    0.981
    27   6 C    3.954 --     5 O    1.630    10 N    1.321    28 C    0.924
    28   6 C    3.964 --    29 C    0.992    11 N    0.973    58 H    0.965
                            27 C    0.924
    29   6 C    3.989 --    28 C    0.992    59 H    0.984    60 H    0.984
                            61 H    0.980
    30   6 C    3.952 --     6 O    1.635    11 N    1.311    31 C    0.922
    31   6 C    3.965 --    32 C    0.998    12 N    0.959    62 H    0.952
                            30 C    0.922
    32   6 C    3.992 --    33 C    1.004    31 C    0.998    63 H    0.978
                            64 H    0.971
    33   6 C    3.990 --    32 C    1.004    34 C    1.003    65 H    0.978
                            66 H    0.975
    34   6 C    3.966 --    33 C    1.003    12 N    0.977    68 H    0.966
                            67 H    0.959
    35   1 H    0.997 --    14 C    0.946
    36   1 H    0.998 --    15 C    0.976
    37   1 H    0.997 --    15 C    0.978
    38   1 H    0.998 --    16 C    0.979
    39   1 H    0.997 --    16 C    0.977
    40   1 H    0.994 --    17 C    0.966
    41   1 H    0.997 --    17 C    0.966
    42   1 H    0.964 --     8 N    0.931
    43   1 H    0.996 --    19 C    0.947
    44   1 H    0.996 --    20 C    0.981
    45   1 H    0.995 --    20 C    0.977
    46   1 H    0.997 --    20 C    0.982
    47   1 H    0.964 --     9 N    0.929
    48   1 H    0.994 --    22 C    0.939
    49   1 H    0.996 --    23 C    0.981
    50   1 H    0.998 --    23 C    0.985
    51   1 H    0.996 --    23 C    0.982
    52   1 H    0.947 --    10 N    0.877
    53   1 H    0.996 --    25 C    0.954
    54   1 H    0.997 --    26 C    0.985
    55   1 H    0.997 --    26 C    0.984
    56   1 H    0.995 --    26 C    0.981
    57   1 H    0.955 --    11 N    0.896
    58   1 H    0.995 --    28 C    0.965
    59   1 H    0.997 --    29 C    0.984
    60   1 H    0.997 --    29 C    0.984
    61   1 H    0.995 --    29 C    0.980
    62   1 H    0.996 --    31 C    0.952
    63   1 H    0.998 --    32 C    0.978
    64   1 H    0.994 --    32 C    0.971
    65   1 H    0.997 --    33 C    0.978
    66   1 H    0.994 --    33 C    0.975
    67   1 H    0.995 --    34 C    0.959
    68   1 H    0.998 --    34 C    0.966
 ---------------------------------------------------------------------------

Topologies differ in total number of bonds
Writing topology from bond orders to xtbtopo.mol

molecular dipole:
                 x           y           z       tot (Debye)
 q only:        0.189      -0.370      -1.172
   full:        0.183      -0.662      -1.182       3.475
molecular quadrupole (traceless):
                xx          xy          yy          xz          yz          zz
 q only:       14.280      -6.911     -10.376       1.132      24.869      -3.904
  q+dip:       20.858     -10.222     -17.734       2.743      29.881      -3.124
   full:       20.040     -10.379     -17.438       3.516      30.886      -2.602

           -------------------------------------------------
          |                Geometry Summary                 |
           -------------------------------------------------

      molecular mass/u    :      478.5428241
   center of mass at/Å    :       -0.0000000      -0.0000000      -0.0000000
  moments of inertia/u·Å² :        0.2875831E+04   0.4181926E+04   0.4835881E+04
rotational constants/cm⁻¹ :        0.5861829E-02   0.4031069E-02   0.3485948E-02

 * 64 selected distances

     #   Z          #   Z                                           value/Å
     1   8 O       13   6 C                                       1.2287669
    12   7 N       13   6 C                                       1.3361746
     7   7 N       14   6 C                                       1.4556994
    14   6 C       15   6 C                                       1.5408159 (max)
    15   6 C       16   6 C                                       1.5257081
     7   7 N       17   6 C                                       1.4562432
    16   6 C       17   6 C                                       1.5198229
     2   8 O       18   6 C                                       1.2182078
     7   7 N       18   6 C                                       1.3476486
     8   7 N       19   6 C                                       1.4543631
    19   6 C       20   6 C                                       1.5242251
     3   8 O       21   6 C                                       1.2196302
     8   7 N       21   6 C                                       1.3387301
     9   7 N       22   6 C                                       1.4459728
    22   6 C       23   6 C                                       1.5259347
     4   8 O       24   6 C                                       1.2125434
     9   7 N       24   6 C                                       1.3597508
    10   7 N       25   6 C                                       1.4479533
    25   6 C       26   6 C                                       1.5264892
     5   8 O       27   6 C                                       1.2225839
    10   7 N       27   6 C                                       1.3332043
    11   7 N       28   6 C                                       1.4567903
    28   6 C       29   6 C                                       1.5302732
     6   8 O       30   6 C                                       1.2201911
    11   7 N       30   6 C                                       1.3373893
    12   7 N       31   6 C                                       1.4611889
    31   6 C       32   6 C                                       1.5229350
    32   6 C       33   6 C                                       1.5270158
    12   7 N       34   6 C                                       1.4528977
    33   6 C       34   6 C                                       1.5292766
    14   6 C       35   1 H                                       1.0956547
    15   6 C       36   1 H                                       1.0874620
    15   6 C       37   1 H                                       1.0914363
    16   6 C       38   1 H                                       1.0908519
    16   6 C       39   1 H                                       1.0874955
    17   6 C       40   1 H                                       1.0904165
    17   6 C       41   1 H                                       1.0953360
     8   7 N       42   1 H                                       1.0080388 (min)
    19   6 C       43   1 H                                       1.0885677
    20   6 C       44   1 H                                       1.0878034
    20   6 C       45   1 H                                       1.0876527
    20   6 C       46   1 H                                       1.0866334
     9   7 N       47   1 H                                       1.0146155
    22   6 C       48   1 H                                       1.0949969
    23   6 C       49   1 H                                       1.0860394
    23   6 C       50   1 H                                       1.0884571
    23   6 C       51   1 H                                       1.0875403
    10   7 N       52   1 H                                       1.0189342
    25   6 C       53   1 H                                       1.0936302
    26   6 C       54   1 H                                       1.0869311
    26   6 C       55   1 H                                       1.0867250
    26   6 C       56   1 H                                       1.0870111
    11   7 N       57   1 H                                       1.0156033
    28   6 C       58   1 H                                       1.0940730
    29   6 C       59   1 H                                       1.0877653
    29   6 C       60   1 H                                       1.0869509
    29   6 C       61   1 H                                       1.0857101
    31   6 C       62   1 H                                       1.0947191
    32   6 C       63   1 H                                       1.0904864
    32   6 C       64   1 H                                       1.0872087
    33   6 C       65   1 H                                       1.0877349
    33   6 C       66   1 H                                       1.0889623
    34   6 C       67   1 H                                       1.0905423
    34   6 C       68   1 H                                       1.0942341

 * 5 distinct bonds (by element types)

   Z      Z             #   av. dist./Å        max./Å        min./Å
   1 H    6 C          30     1.0896343     1.0956547     1.0857101
   6 C    6 C          10     1.5272497     1.5408159     1.5198229
   1 H    7 N           4     1.0142979     1.0189342     1.0080388
   6 C    7 N          14     1.4060005     1.4611889     1.3332043
   6 C    8 O           6     1.2203205     1.2287669     1.2125434


optimized geometry written to: xtbopt.xyz


           -------------------------------------------------
          | TOTAL ENERGY             -106.565298578589 Eh   |
          | GRADIENT NORM               0.000086460342 Eh/α |
          | HOMO-LUMO GAP               4.169117466484 eV   |
           -------------------------------------------------

------------------------------------------------------------------------
 * finished run on 2026/10/01 at 13:39:06.869     
------------------------------------------------------------------------
 total:
 * wall-time:     0 d,  0 h,  0 min,  0.164 sec
 *  cpu-time:     0 d,  0 h,  0 min,  2.181 sec
 * ratio c/w:    13.261 speedup
 SCF:
 * wall-time:     0 d,  0 h,  0 min,  0.079 sec
 *  cpu-time:     0 d,  0 h,  0 min,  1.245 sec
 * ratio c/w:    15.853 speedup
 ANC optimizer:
 * wall-time:     0 d,  0 h,  0 min,  0.077 sec
 *  cpu-time:     0 d,  0 h,  0 min,  0.814 sec
 * ratio c/w:    10.584 speedup


--- STDERR ---
normal termination of xtb
Note: The following floating-point exceptions are signalling: IEEE_UNDERFLOW_FLAG IEEE_DENORMAL
