68
 energy: -106.565298578589 gnorm: 0.000086460342 xtb: 6.7.1-6.fc44.fc44
O            2.12043647960000       -1.51963720070000        1.32994573380000
O           -1.20585818740000       -4.17278201390000        1.54138562080000
O           -0.63425767280000        0.03551794920000       -0.70960909770000
O           -1.05632352220000        2.92062581320000       -2.64460889950000
O           -2.14695568700000        1.38094560630000        1.76811015210000
O            1.82062962360000        2.85091343780000        0.30005767380000
N            0.45043686910000       -3.44165138650000        0.22681733190000
N           -2.03153838440000       -1.30900581420000        0.43221930170000
N           -2.50252295700000        1.32400277610000       -2.04875261430000
N           -0.92326213840000        2.77412190210000        0.48128504200000
N            1.27372898060000        1.14253965690000        1.69016029790000
N            2.31450865640000       -0.36069485000000       -0.57824288500000
C            1.90091041900000       -1.41876799920000        0.12516299970000
C            1.13897646240000       -2.50031051730000       -0.64430317280000
C            2.09974982710000       -3.38065997090000       -1.46650308690000
C            1.46327914980000       -4.76642827770000       -1.41816896100000
C            0.90239839690000       -4.80623302210000       -0.00618820110000
C           -0.60481940940000       -3.23918690940000        1.04020459790000
C           -1.00915974420000       -1.78862002350000        1.34867098250000
C           -1.52744169970000       -1.70619563720000        2.77970267250000
C           -1.76708764740000       -0.31762759450000       -0.42768362770000
C           -2.98386689220000        0.35449175940000       -1.09000682060000
C           -3.89347251040000       -0.64417176260000       -1.79977092650000
C           -1.77322353290000        2.44244231860000       -1.79158125680000
C           -1.98538617000000        3.13364255820000       -0.43479667880000
C           -1.98069847630000        4.64602317810000       -0.64180315540000
C           -1.08869465650000        1.93210224670000        1.50161258060000
C            0.15071053210000        1.74166904710000        2.39875822440000
C            0.53486914700000        3.06639394680000        3.06152647190000
C            1.96882085100000        1.70645940150000        0.69645425230000
C            3.00577515400000        0.75280089300000        0.06778373150000
C            3.73346078900000        1.43361121650000       -1.08386793400000
C            2.73052364450000        1.28079085250000       -2.22515658620000
C            2.13794779610000       -0.11067707900000       -1.99853466630000
H            0.40911151840000       -2.00165904980000       -1.29168465270000
H            2.22164666620000       -3.01805172900000       -2.48445685180000
H            3.07638534270000       -3.40436278390000       -0.97982634020000
H            0.65565477770000       -4.83720217470000       -2.14802624540000
H            2.17968557990000       -5.56249781030000       -1.60706428510000
H            0.06319341190000       -5.49013501910000        0.12427598730000
H            1.68014365240000       -5.05993934190000        0.72217031360000
H           -2.98374434740000       -1.48722296190000        0.71093867390000
H           -0.15359738310000       -1.12901196100000        1.21484403440000
H           -2.28398591410000       -2.47134734170000        2.93938882140000
H           -1.95328051610000       -0.72095377650000        2.95562328710000
H           -0.71119142750000       -1.88294383230000        3.47487713490000
H           -2.25699803350000        0.91739330860000       -2.94531862830000
H           -3.53599011210000        0.86376510280000       -0.29325172050000
H           -4.34129097290000       -1.33747524720000       -1.09388825940000
H           -3.33111538440000       -1.21589000500000       -2.53572706440000
H           -4.69119963040000       -0.10975054750000       -2.31042641540000
H            0.01280742000000        3.11155232350000        0.26187401510000
H           -2.92690449940000        2.81232949570000        0.01943657260000
H           -2.04781986700000        5.15460407090000        0.31645530510000
H           -2.82314114690000        4.93972217550000       -1.26228870260000
H           -1.06254300800000        4.93860051690000       -1.14477630350000
H            1.51529248880000        0.18511233200000        1.92771003970000
H           -0.14207445850000        1.02640505060000        3.17314177440000
H            1.32833818840000        2.89732559810000        3.78613383570000
H           -0.32858185560000        3.48098112130000        3.57536677890000
H            0.88590252170000        3.77925434830000        2.32168064610000
H            3.66561995660000        0.36729182860000        0.85161865580000
H            4.66617628180000        0.91377375450000       -1.30516252830000
H            3.94091059480000        2.47653189060000       -0.85736490220000
H            3.19127199450000        1.37209418940000       -3.20624864160000
H            1.95248372570000        2.03687944920000       -2.13122811850000
H            1.07985943120000       -0.14019983430000       -2.26094580490000
H            2.68237511200000       -0.86404330360000       -2.57593076600000
