34
frame_0030
O      -3.851890606600000      2.637190507100000     -0.414997370800000
C      -3.651981402400000      2.493572421000000     -1.709328133400000
O      -3.662810482800000      3.408643475100000     -2.483482086100000
H      -3.767467322100000      1.773838235800000      0.081317080800000
C      -3.436846980000000      1.036694992800000     -2.179021921300000
H      -3.290598818000000      1.039314077100000     -3.258302633900000
H      -4.352719864700000      0.481474476300000     -1.936448987400000
N      -2.303792778300000      0.390525253700000     -1.547900052300000
H      -1.509257968500000      0.100204642300000     -2.104351247900000
C      -2.279451288500000      0.007451454600000     -0.267708487200000
O      -3.162587095900000      0.282373315400000      0.539189285200000
C      -1.019725363800000     -0.748485863600000      0.125135631000000
H      -1.296533119700000     -1.475662252700000      0.905653755100000
N      -0.417680534100000     -1.351138318000000     -1.056319887900000
H      -0.908276539900000     -2.201173212500000     -1.313573526300000
H       0.547350051200000     -1.597776729700000     -0.862868302300000
C      -0.047178486700000      0.275934044600000      0.751172424300000
H      -0.586526348900000      0.830874952700000      1.520407877400000
H       0.272202820700000      0.970110075600000     -0.027671542100000
C       1.139452532300000     -0.402525419500000      1.350522553800000
C       1.234429634100000     -0.915636971900000      2.612176345200000
H       0.509692607100000     -0.898442606000000      3.403638190200000
N       2.457217099900000     -1.500430897100000      2.793926638700000
H       2.776936573400000     -1.930349398800000      3.644784757100000
C       3.184688212500000     -1.375668539500000      1.646312656200000
C       4.470511235100000     -1.803926826400000      1.340783620300000
H       5.070637712600000     -2.327922419800000      2.070070165900000
C       4.950250722500000     -1.532491562600000      0.078123476500000
H       5.945764690500000     -1.850293459000000     -0.193435337500000
C       4.174257561800000     -0.847603676700000     -0.861829030800000
H       4.590714613500000     -0.650878214300000     -1.838633268400000
C       2.899967348200000     -0.420347529100000     -0.566448109400000
H       2.312199542000000      0.112425004000000     -1.299455769500000
C       2.383046287600000     -0.686868181700000      0.703116205400000
