34
frame_0016
O      -0.858569285089305      2.584226015850899      0.123757799402219
C      -1.081437711296612      2.263736104118411     -1.338376107875219
O      -0.339077858120485      2.830386075548222     -2.317151095597384
H      -1.700648236208446      1.899541240176238      0.446054200649707
C      -2.230710943133279      1.225767070330441     -1.945897462458201
H      -2.203141869955839      1.013608271075614     -2.992276787474907
H      -3.071539628751249      1.372825624458029     -1.649140853965341
N      -1.814635351075538     -0.140381091644505     -1.432352061355487
H      -1.601628060407014     -0.767497816994043     -1.850982793669051
C      -2.067944036353293     -0.332635120993216      0.058555024745295
O      -2.313410431005184      0.437430858535150      0.706400244486394
C      -1.862082471655987     -1.848576421855836      0.405058576189552
H      -2.856262959928283     -2.198140444137813      0.527092964411492
N      -1.687334076158312     -2.740479604053017     -0.792937828574295
H      -1.947469591967111     -3.485238243304312     -0.721423877597932
H      -0.752664852903338     -2.456990749155287     -0.901963655321822
C      -0.830765394959990     -2.100355561320951      1.489189819473641
H      -0.978213478941667     -3.141254911990770      1.959942295835126
H      -1.092839227199221     -1.360713483450155      2.211984843862052
C       0.598257704285902     -1.658943449183949      0.851384528342760
C       1.326881594634115     -2.615878364074505      0.215454416639802
H       1.349151280666785     -3.487168117513647      0.066207408839997
N       2.228374771900972     -1.924752816745506     -0.148289426264629
H       3.337717787129592     -2.347260532255317     -0.530908607303928
C       2.398234709093093     -0.770900057160124      0.291698501495996
C       3.397735457668334      0.445882721815846      0.076113837586822
H       4.193643836687984      0.298134403870202     -0.545596106883918
C       3.090952162328689      1.525799185940340      0.619590766639340
H       3.701122457998113      2.543559183223060      0.499732225676418
C       1.828077471424204      1.787562250618337      1.301088714830438
H       1.611832512545804      2.574586852641407      1.692936277656279
C       0.993126228935243      0.842790652599487      1.353949188166373
H      -0.030816693708310      0.883305931452454      2.108593970055270
C       1.238296056095121     -0.596190739212764      1.041356558627419
