34
 energy: -56.480678153689 gnorm: 0.000866513608 xtb: 6.7.1-6.fc44.fc44
O           -1.03582763722997        2.55588841287469       -0.14397513267608
C           -1.05857226087107        2.29226783802526       -1.43182980863842
O           -0.37749862196357        2.86351428387131       -2.23666366132287
H           -1.59023748416793        1.90820604449298        0.38038689498594
C           -2.08557807035849        1.21821220613632       -1.86010684042130
H           -2.06132557804717        1.13350356551609       -2.94566974349071
H           -3.07520636899825        1.57669891351606       -1.54520066856298
N           -1.83843571846395       -0.08819537645409       -1.28254677109425
H           -1.68746974508706       -0.87870414270893       -1.89524124718898
C           -2.01843907520000       -0.38218429172674        0.00827877758897
O           -2.26785042741943        0.46221449243228        0.86334587317215
C           -1.90166378671324       -1.86440455857024        0.34933962311437
H           -2.87579372715677       -2.15481625578367        0.75952037595271
N           -1.65010376628123       -2.64401064949349       -0.85338647606839
H           -1.93535417652477       -3.60667368558522       -0.71488711667790
H           -0.64830047801380       -2.64983887445740       -1.03791652543277
C           -0.82993260387766       -2.05507925453640        1.45568313736617
H           -0.87979125731287       -3.08712918651041        1.81194722902001
H           -1.06963329105859       -1.38548556830039        2.28127964595159
C            0.53470659304318       -1.75831593190120        0.93045987783949
C            1.36434367179143       -2.62239501857962        0.27078774990636
H            1.24463808468103       -3.67439952910553        0.08360481989454
N            2.49858593403974       -1.97112082257492       -0.13399390867418
H            3.27304736923181       -2.39181904232423       -0.61732803043374
C            2.42343407305424       -0.66459342453821        0.25949363663249
C            3.31825521540609        0.38293561208172        0.08203218963635
H            4.25018702001684        0.23593943791652       -0.44409102257198
C            2.97079740661161        1.61020152984213        0.60249649515486
H            3.63929139698337        2.44861604304151        0.47798195471786
C            1.77028575632951        1.79385952892867        1.29406211139609
H            1.53823806635125        2.77093910155945        1.68820928072954
C            0.88031713998163        0.76025745088637        1.47274967942735
H           -0.04221471444746        0.91089641831215        2.01146117221542
C            1.19531293424684       -0.48920034907420        0.93856192782229
