34
frame_0012
O      -0.475250557600000      2.162156502500000     -0.302406163000000
C      -0.498928955000000      1.854778227900000     -1.581661658900000
O       0.237187820000000      2.342929491200000     -2.392117336100000
H      -1.144616757400000      1.637630456400000      0.223790541200000
C      -1.612997841900000      0.868694807800000     -2.006138839200000
H      -1.512029002000000      0.685272092200000     -3.074956224100000
H      -2.567779325300000      1.378465141800000     -1.816451216600000
N      -1.601313782400000     -0.400750213000000     -1.307071560000000
H      -1.480260001800000     -1.250197873000000     -1.838610262200000
C      -1.911408784300000     -0.546191216900000     -0.015801778900000
O      -2.116179882100000      0.398120278100000      0.740022758900000
C      -1.968530740100000     -1.994898816300000      0.449313150500000
H      -2.518021539800000     -1.998896074300000      1.404507439200000
N      -2.579159327500000     -2.809795177100000     -0.594158748800000
H      -2.521161164100000     -3.791763735000000     -0.345851071400000
H      -3.561964628600000     -2.578252256200000     -0.698789156200000
C      -0.523394027600000     -2.486490892300000      0.696457634300000
H      -0.112160099400000     -2.816376064200000     -0.258868954800000
H      -0.550502079500000     -3.342494959100000      1.374345018800000
C       0.329999657500000     -1.394169989700000      1.252615017400000
C       0.338612381500000     -0.915560623700000      2.530773257100000
H      -0.205660129300000     -1.262856835900000      3.388136028200000
N       1.190977707300000      0.147808926800000      2.627612788600000
H       1.347040856000000      0.695251984600000      3.456111017200000
C       1.741402814400000      0.391844551800000      1.402717553300000
C       2.641563449900000      1.367496005300000      0.994066313400000
H       3.018907045800000      2.102026181300000      1.689850766200000
C       3.023789153800000      1.368773356300000     -0.328717954100000
H       3.712321296600000      2.119412834500000     -0.685006665500000
C       2.531565498900000      0.419364015100000     -1.228050113700000
H       2.852299877800000      0.460886454600000     -2.257807800700000
C       1.638752919600000     -0.548060808400000     -0.830090444100000
H       1.266238612600000     -1.276614549600000     -1.536425604000000
C       1.225716599700000     -0.570097054300000      0.502906589200000
