      -----------------------------------------------------------      
     |                   =====================                   |     
     |                           x T B                           |     
     |                   =====================                   |     
     |                         S. Grimme                         |     
     |          Mulliken Center for Theoretical Chemistry        |     
     |                    University of Bonn                     |     
      -----------------------------------------------------------      

   * xtb version 6.7.1-6.fc44.fc44 compiled by Fedora project on Sun Jan 18 23:32:34 UTC 2026

   xtb is free software: you can redistribute it and/or modify it under
   the terms of the GNU Lesser General Public License as published by
   the Free Software Foundation, either version 3 of the License, or
   (at your option) any later version.
   
   xtb is distributed in the hope that it will be useful,
   but WITHOUT ANY WARRANTY; without even the implied warranty of
   MERCHANTABILITY or FITNESS FOR A PARTICULAR PURPOSE.  See the
   GNU Lesser General Public License for more details.
   
   Cite this work as:
   * C. Bannwarth, E. Caldeweyher, S. Ehlert, A. Hansen, P. Pracht,
     J. Seibert, S. Spicher, S. Grimme, WIREs Comput. Mol. Sci., 2020, 11,
     e01493. DOI: 10.1002/wcms.1493
   
   for GFN2-xTB:
   * C. Bannwarth, S. Ehlert and S. Grimme., J. Chem. Theory Comput., 2019,
     15, 1652-1671. DOI: 10.1021/acs.jctc.8b01176
   for GFN1-xTB:
   * S. Grimme, C. Bannwarth, P. Shushkov, J. Chem. Theory Comput., 2017,
     13, 1989-2009. DOI: 10.1021/acs.jctc.7b00118
   for GFN0-xTB:
   * P. Pracht, E. Caldeweyher, S. Ehlert, S. Grimme, ChemRxiv, 2019, preprint.
     DOI: 10.26434/chemrxiv.8326202.v1
   for GFN-FF:
   * S. Spicher and S. Grimme, Angew. Chem. Int. Ed., 2020, 59, 15665-15673.
     DOI: 10.1002/anie.202004239
   
   for ALPB and GBSA implicit solvation:
   * S. Ehlert, M. Stahn, S. Spicher, S. Grimme, J. Chem. Theory Comput.,
     2021, 17, 4250-4261. DOI: 10.1021/acs.jctc.1c00471
   
   for ddCOSMO and CPCM-X implicit solvation:
   * M. Stahn, S. Ehlert, S. Grimme, J. Phys. Chem. A,
     2023, XX, XXXX-XXXX. DOI: 10.1021/acs.jpca.3c04382
   
   for DFT-D4:
   * E. Caldeweyher, C. Bannwarth and S. Grimme, J. Chem. Phys., 2017,
     147, 034112. DOI: 10.1063/1.4993215
   * E. Caldeweyher, S. Ehlert, A. Hansen, H. Neugebauer, S. Spicher,
     C. Bannwarth and S. Grimme, J. Chem. Phys., 2019, 150, 154122.
     DOI: 10.1063/1.5090222
   * E. Caldeweyher, J.-M. Mewes, S. Ehlert and S. Grimme, Phys. Chem. Chem. Phys.
     2020, 22, 8499-8512. DOI: 10.1039/D0CP00502A
   
   for sTDA-xTB:
   * S. Grimme and C. Bannwarth, J. Chem. Phys., 2016, 145, 054103.
     DOI: 10.1063/1.4959605
   
   in the mass-spec context:
   * V. Asgeirsson, C. Bauer and S. Grimme, Chem. Sci., 2017, 8, 4879.
     DOI: 10.1039/c7sc00601b
   * J. Koopman and S. Grimme, ACS Omega 2019, 4, 12, 15120-15133.
     DOI: 10.1021/acsomega.9b02011
   
   for metadynamics refer to:
   * S. Grimme, J. Chem. Theory Comput., 2019, 155, 2847-2862
     DOI: 10.1021/acs.jctc.9b00143
   
   for SPH calculations refer to:
   * S. Spicher and S. Grimme, J. Chem. Theory Comput., 2021, 17, 1701-1714
     DOI: 10.1021/acs.jctc.0c01306
   
   for ONIOM refer to:
   * C. Plett, A. Katbashev, S. Ehlert, S. Grimme, M. Bursch,
     Phys. Chem. Chem. Phys., 2023, 25, 17860-17868. DOI: 10.1039/D3CP02178E
   
   for DIPRO refer to:
   * J. Kohn, N. Gildemeister, S. Grimme, D. Fazzi, A. Hansen,
     J. Chem. Phys., 2023, just accepted.
   
   for PTB refer to:
   * S. Grimme, M. Mueller, A. Hansen, J. Chem. Phys., 2023, 158, 124111.
     DOI: 10.1063/5.0137838
   
   with help from (in alphabetical order)
   P. Atkinson, C. Bannwarth, F. Bohle, G. Brandenburg, E. Caldeweyher
   M. Checinski, S. Dohm, S. Ehlert, S. Ehrlich, I. Gerasimov, C. Hölzer
   A. Katbashev, J. Kohn, J. Koopman, C. Lavigne, S. Lehtola, F. März, M. Müller,
   F. Musil, H. Neugebauer, J. Pisarek, C. Plett, P. Pracht, F. Pultar,
   J. Seibert, P. Shushkov, S. Spicher, M. Stahn, M. Steiner, T. Strunk,
   J. Stückrath, T. Rose, and J. Unsleber
   
 * started run on 2026/10/01 at 18:03:10.681     
   ID    Z sym.   atoms
    1    8 O      1, 3, 11
    2    6 C      2, 5, 10, 12, 17, 20, 21, 25, 26, 28, 30, 32, 34
    3    1 H      4, 6, 7, 9, 13, 15, 16, 18, 19, 22, 24, 27, 29, 31, 33
    4    7 N      8, 14, 23

           -------------------------------------------------
          |                Calculation Setup                |
           -------------------------------------------------

          program call               : /usr/bin/xtb input.xyz --opt --gfn 2 --chrg 0 --uhf 0
          hostname                   : fedora
          coordinate file            : input.xyz
          omp threads                :                    16


           -------------------------------------------------
          |                 G F N 2 - x T B                 |
           -------------------------------------------------

        Reference                      10.1021/acs.jctc.8b01176
      * Hamiltonian:
        H0-scaling (s, p, d)           1.850000    2.230000    2.230000
        zeta-weighting                 0.500000
      * Dispersion:
        s8                             2.700000
        a1                             0.520000
        a2                             5.000000
        s9                             5.000000
      * Repulsion:
        kExp                           1.500000    1.000000
        rExp                           1.000000
      * Coulomb:
        alpha                          2.000000
        third order                    shell-resolved
        anisotropic                    true
        a3                             3.000000
        a5                             4.000000
        cn-shift                       1.200000
        cn-exp                         4.000000
        max-rad                        5.000000


          ...................................................
          :                      SETUP                      :
          :.................................................:
          :  # basis functions                  91          :
          :  # atomic orbitals                  91          :
          :  # shells                           53          :
          :  # electrons                       100          :
          :  max. iterations                   250          :
          :  Hamiltonian                  GFN2-xTB          :
          :  restarted?                      false          :
          :  GBSA solvation                  false          :
          :  PC potential                    false          :
          :  electronic temp.          300.0000000     K    :
          :  accuracy                    1.0000000          :
          :  -> integral cutoff          0.2500000E+02      :
          :  -> integral neglect         0.1000000E-07      :
          :  -> SCF convergence          0.1000000E-05 Eh   :
          :  -> wf. convergence          0.1000000E-03 e    :
          :  Broyden damping             0.4000000          :
          :  net charge                          0          :
          :  unpaired electrons                  0          :
          ...................................................

 iter      E             dE          RMSdq      gap      omega  full diag
   1    -57.0893586 -0.570894E+02  0.414E+00    3.24       0.0  T
   2    -57.2259975 -0.136639E+00  0.242E+00    3.57       1.0  T
   3    -57.2342258 -0.822833E-02  0.132E+00    3.60       1.0  T
   4    -57.2343876 -0.161719E-03  0.432E-01    3.39       1.0  T
   5    -57.2399173 -0.552972E-02  0.118E-01    3.36       1.0  T
   6    -57.2401159 -0.198621E-03  0.588E-02    3.38       1.0  T
   7    -57.2401590 -0.431223E-04  0.255E-02    3.38       1.0  T
   8    -57.2401601 -0.112389E-05  0.116E-02    3.38       1.5  T
   9    -57.2401625 -0.236872E-05  0.331E-03    3.38       5.2  T
  10    -57.2401626 -0.411775E-07  0.153E-03    3.38      11.2  T
  11    -57.2401626 -0.189445E-07  0.629E-04    3.38      27.3  T
  12    -57.2401626 -0.328886E-08  0.213E-04    3.38      80.4  T

   *** convergence criteria satisfied after 12 iterations ***

         #    Occupation            Energy/Eh            Energy/eV
      -------------------------------------------------------------
         1        2.0000           -0.7291337             -19.8407
       ...           ...                  ...                  ...
        44        2.0000           -0.4188347             -11.3971
        45        2.0000           -0.4097062             -11.1487
        46        2.0000           -0.4070822             -11.0773
        47        2.0000           -0.3994182             -10.8687
        48        2.0000           -0.3961644             -10.7802
        49        2.0000           -0.3739548             -10.1758
        50        2.0000           -0.3579043              -9.7391 (HOMO)
        51                         -0.2336999              -6.3593 (LUMO)
        52                         -0.2261821              -6.1547
        53                         -0.2213507              -6.0233
        54                         -0.1883344              -5.1248
        55                         -0.1546841              -4.2092
       ...                                ...                  ...
        91                          0.7255068              19.7420
      -------------------------------------------------------------
                  HL-Gap            0.1242044 Eh            3.3798 eV
             Fermi-level           -0.2958021 Eh           -8.0492 eV

 SCC (total)                   0 d,  0 h,  0 min,  0.676 sec
 SCC setup                      ...        0 min,  0.007 sec (  1.002%)
 Dispersion                     ...        0 min,  0.001 sec (  0.112%)
 classical contributions        ...        0 min,  0.005 sec (  0.752%)
 integral evaluation            ...        0 min,  0.017 sec (  2.471%)
 iterations                     ...        0 min,  0.622 sec ( 92.062%)
 molecular gradient             ...        0 min,  0.024 sec (  3.528%)
 printout                       ...        0 min,  0.000 sec (  0.071%)

         :::::::::::::::::::::::::::::::::::::::::::::::::::::
         ::                     SUMMARY                     ::
         :::::::::::::::::::::::::::::::::::::::::::::::::::::
         :: total energy             -56.480917080802 Eh    ::
         :: gradient norm              0.000181766020 Eh/a0 ::
         :: HOMO-LUMO gap              3.379773693557 eV    ::
         ::.................................................::
         :: SCC energy               -57.239205667143 Eh    ::
         :: -> isotropic ES            0.098853967421 Eh    ::
         :: -> anisotropic ES          0.004016500552 Eh    ::
         :: -> anisotropic XC          0.019353897482 Eh    ::
         :: -> dispersion             -0.040601393151 Eh    ::
         :: repulsion energy           0.758288586340 Eh    ::
         :: add. restraining           0.000000000000 Eh    ::
         :: total charge               0.000000000000 e     ::
         :::::::::::::::::::::::::::::::::::::::::::::::::::::

      ----------------------------------------------------------- 
     |                   =====================                   |
     |                        A N C O P T                        |
     |                   =====================                   |
     |               Approximate Normal Coordinate               |
     |                Rational Function Optimizer                |
      ----------------------------------------------------------- 
      ----------------------------------------------------------- 
     |                   =====================                   |
     |                        A N C O P T                        |
     |                   =====================                   |
     |               Approximate Normal Coordinate               |
     |                Rational Function Optimizer                |
      ----------------------------------------------------------- 

          ...................................................
          :                      SETUP                      :
          :.................................................:
          :   optimization level            normal          :
          :   max. optcycles                   200          :
          :   ANC micro-cycles                  20          :
          :   degrees of freedom                96          :
          :.................................................:
          :   RF solver                   davidson          :
          :   write xtbopt.log                true          :
          :   linear?                        false          :
          :   energy convergence         0.5000000E-05 Eh   :
          :   grad. convergence          0.1000000E-02 Eh/α :
          :   maxmium RF displ.          1.0000000          :
          :   Hlow (freq-cutoff)         0.1000000E-01      :
          :   Hmax (freq-cutoff)         5.0000000          :
          :   S6 in model hess.         20.0000000          :
          ...................................................

generating ANC from exact Hessian ...
Using Lindh-Hessian (1995)
 Shifting diagonal of input Hessian by    9.4828898475539502E-003
 Lowest  eigenvalues of input Hessian
    0.000000    0.000000    0.000000    0.000000    0.000000    0.000000
    0.010000    0.010781    0.011127    0.011894    0.012557    0.014911
    0.015991    0.018212    0.019318    0.021847    0.023082    0.025973
 Highest eigenvalues
    2.004489    2.013433    2.102019    2.209306    2.317540    2.368174


........................................................................
.............................. CYCLE    1 ..............................
........................................................................

 iter      E             dE          RMSdq      gap      omega  full diag
   1    -57.2401626 -0.572402E+02  0.988E-05    3.38       0.0  T
   2    -57.2401626 -0.520970E-10  0.580E-05    3.38     295.9  T
   3    -57.2401626 -0.923706E-11  0.375E-05    3.38     457.5  T
     SCC iter.                  ...        0 min,  0.116 sec
     gradient                   ...        0 min,  0.046 sec
 * total energy  :   -56.4809171 Eh     change       -0.5276704E-09 Eh
   gradient norm :     0.0001804 Eh/α   predicted     0.0000000E+00 (-100.00%)
   displ. norm   :     0.0002706 α      lambda        0.0000000E+00
   maximum displ.:     0.0001925 α      in ANC's #92, #84, #96, ...

   *** GEOMETRY OPTIMIZATION CONVERGED AFTER 1 ITERATIONS ***

------------------------------------------------------------------------
 total energy gain   :        -0.0000000 Eh       -0.0000 kcal/mol
 total RMSD          :         0.0000001 a0        0.0000 Å
 total power (kW/mol):        -0.0000014 (step)   -0.0000 (real)
------------------------------------------------------------------------

 ANCopt (total)                0 d,  0 h,  0 min,  0.188 sec
 optimizer setup                ...        0 min,  0.000 sec (  0.111%)
 model hessian                  ...        0 min,  0.012 sec (  6.125%)
 ANC generation                 ...        0 min,  0.013 sec (  6.740%)
 coordinate transformation      ...        0 min,  0.000 sec (  0.009%)
 single point calculation       ...        0 min,  0.163 sec ( 86.788%)
 optimization log               ...        0 min,  0.000 sec (  0.045%)
 hessian update                 ...        0 min,  0.000 sec (  0.000%)
 rational function              ...        0 min,  0.000 sec (  0.036%)

================
 final structure:
================
34
 xtb: 6.7.1-6.fc44.fc44
O           -0.47525055760000        2.16215650250000       -0.30240616300000
C           -0.49892895500000        1.85477822790000       -1.58166165890000
O            0.23718782000000        2.34292949120000       -2.39211733610000
H           -1.14461675740000        1.63763045640000        0.22379054120000
C           -1.61299784190000        0.86869480780000       -2.00613883920000
H           -1.51202900200000        0.68527209220000       -3.07495622410000
H           -2.56777932530000        1.37846514180000       -1.81645121660000
N           -1.60131378240000       -0.40075021300000       -1.30707156000000
H           -1.48026000180000       -1.25019787300000       -1.83861026220000
C           -1.91140878430000       -0.54619121690000       -0.01580177890000
O           -2.11617988210000        0.39812027810000        0.74002275890000
C           -1.96853074010000       -1.99489881630000        0.44931315050000
H           -2.51802153980000       -1.99889607430000        1.40450743920000
N           -2.57915932750000       -2.80979517710000       -0.59415874880000
H           -2.52116116410000       -3.79176373500000       -0.34585107140000
H           -3.56196462860000       -2.57825225620000       -0.69878915620000
C           -0.52339402760000       -2.48649089230000        0.69645763430000
H           -0.11216009940000       -2.81637606420000       -0.25886895480000
H           -0.55050207950000       -3.34249495910000        1.37434501880000
C            0.32999965750000       -1.39416998970000        1.25261501740000
C            0.33861238150000       -0.91556062370000        2.53077325710000
H           -0.20566012930000       -1.26285683590000        3.38813602820000
N            1.19097770730000        0.14780892680000        2.62761278860000
H            1.34704085600000        0.69525198460000        3.45611101720000
C            1.74140281440000        0.39184455180000        1.40271755330000
C            2.64156344990000        1.36749600530000        0.99406631340000
H            3.01890704580000        2.10202618130000        1.68985076620000
C            3.02378915380000        1.36877335630000       -0.32871795410000
H            3.71232129660000        2.11941283450000       -0.68500666550000
C            2.53156549890000        0.41936401510000       -1.22805011370000
H            2.85229987780000        0.46088645460000       -2.25780780070000
C            1.63875291960000       -0.54806080840000       -0.83009044410000
H            1.26623861260000       -1.27661454960000       -1.53642560400000
C            1.22571659970000       -0.57009705430000        0.50290658920000

 Bond Distances (Angstroems)
 ---------------------------
O1-C2=1.3159         O1-H4=1.0000         C2-O1=1.3159         C2-O3=1.1987         C2-C5=1.5472         O3-C2=1.1987         
H4-O1=1.0000         C5-C2=1.5472         C5-H6=1.0891         C5-H7=1.0988         C5-N8=1.4492         H6-C5=1.0891         
H7-C5=1.0988         N8-C5=1.4492         N8-H9=1.0093         N8-C10=1.3359        H9-N8=1.0093         C10-N8=1.3359        
C10-O11=1.2268       C10-C12=1.5226       O11-C10=1.2268       C12-C10=1.5226       C12-H13=1.1020       C12-N14=1.4580       
C12-C17=1.5463       H13-C12=1.1020       N14-C12=1.4580       N14-H15=1.0145       N14-H16=1.0151       H15-N14=1.0145       
H16-N14=1.0151       C17-C12=1.5463       C17-H18=1.0911       C17-H19=1.0922       C17-C20=1.4936       H18-C17=1.0911       
H19-C17=1.0922       C20-C17=1.4936       C20-C21=1.3649       C20-C34=1.4295       C21-C20=1.3649       C21-H22=1.0733       
C21-N23=1.3663       H22-C21=1.0733       N23-C21=1.3663       N23-H24=1.0052       N23-C25=1.3649       H24-N23=1.0052       
C25-N23=1.3649       C25-C26=1.3889       C25-C34=1.4145       C26-C25=1.3889       C26-H27=1.0798       C26-C28=1.3769       
H27-C26=1.0798       C28-C26=1.3769       C28-H29=1.0791       C28-C30=1.3973       H29-C28=1.0791       C30-C28=1.3973       
C30-H31=1.0793       C30-C32=1.3753       H31-C30=1.0793       C32-C30=1.3753       C32-H33=1.0810       C32-C34=1.3957       
H33-C32=1.0810       C34-C20=1.4295       C34-C25=1.4145       C34-C32=1.3957       
 C  H  Rav=1.0866 sigma=0.0090  Rmin=1.0733  Rmax=1.1020    10
 C  C  Rav=1.4377 sigma=0.0667  Rmin=1.3649  Rmax=1.5472    12
 N  H  Rav=1.0111 sigma=0.0041  Rmin=1.0052  Rmax=1.0151     4
 N  C  Rav=1.3949 sigma=0.0493  Rmin=1.3359  Rmax=1.4580     5
 O  H  Rav=1.0000 sigma=0.0000  Rmin=1.0000  Rmax=1.0000     1
 O  C  Rav=1.2471 sigma=0.0499  Rmin=1.1987  Rmax=1.3159     3

 selected bond angles (degree)
 --------------------
H4-O1-C2=112.15                O3-C2-O1=123.44                C5-C2-O1=115.38                C5-C2-O3=121.08                
H6-C5-C2=108.05                H7-C5-C2=106.42                H7-C5-H6=109.15                N8-C5-C2=114.84                
N8-C5-H6=108.97                N8-C5-H7=109.27                H9-N8-C5=118.95                C10-N8-C5=124.04               
C10-N8-H9=116.44               O11-C10-N8=123.40              C12-C10-N8=114.05              C12-C10-O11=122.54             

 selected dihedral angles (degree)
 ---------------------------------
O3-C2-O1-H4=181.51            C5-C2-O1-H4=  5.16            H6-C5-C2-O1=180.98            H6-C5-C2-O3=  4.53            
H7-C5-C2-O1= 63.87            H7-C5-C2-O3=247.42            N8-C5-C2-O1=302.83            N8-C5-C2-O3=126.38            
H9-N8-C5-C2=240.49            H9-N8-C5-H6=  1.83            H9-N8-C5-H7=121.03            C10-N8-C5-C2= 69.46           
C10-N8-C5-H6=190.81           C10-N8-C5-H7=310.00           O11-C10-N8-C5=352.91          O11-C10-N8-H9=181.67          
C12-C10-N8-C5=173.83          C12-C10-N8-H9=  2.59          
           -------------------------------------------------
          |                Final Singlepoint                |
           -------------------------------------------------

          ...................................................
          :                      SETUP                      :
          :.................................................:
          :  # basis functions                  91          :
          :  # atomic orbitals                  91          :
          :  # shells                           53          :
          :  # electrons                       100          :
          :  max. iterations                   250          :
          :  Hamiltonian                  GFN2-xTB          :
          :  restarted?                      false          :
          :  GBSA solvation                  false          :
          :  PC potential                    false          :
          :  electronic temp.          300.0000000     K    :
          :  accuracy                    1.0000000          :
          :  -> integral cutoff          0.2500000E+02      :
          :  -> integral neglect         0.1000000E-07      :
          :  -> SCF convergence          0.1000000E-05 Eh   :
          :  -> wf. convergence          0.1000000E-03 e    :
          :  Broyden damping             0.4000000          :
          :  net charge                          0          :
          :  unpaired electrons                  0          :
          ...................................................

 iter      E             dE          RMSdq      gap      omega  full diag
   1    -57.2401626 -0.572402E+02  0.123E-05    3.38       0.0  T
   2    -57.2401626 -0.103029E-11  0.886E-06    3.38    1935.7  T
   3    -57.2401626 -0.144240E-11  0.502E-06    3.38    3415.7  T

   *** convergence criteria satisfied after 3 iterations ***

         #    Occupation            Energy/Eh            Energy/eV
      -------------------------------------------------------------
         1        2.0000           -0.7291359             -19.8408
       ...           ...                  ...                  ...
        44        2.0000           -0.4188354             -11.3971
        45        2.0000           -0.4097060             -11.1487
        46        2.0000           -0.4070821             -11.0773
        47        2.0000           -0.3994191             -10.8687
        48        2.0000           -0.3961649             -10.7802
        49        2.0000           -0.3739546             -10.1758
        50        2.0000           -0.3579041              -9.7391 (HOMO)
        51                         -0.2337007              -6.3593 (LUMO)
        52                         -0.2261833              -6.1548
        53                         -0.2213512              -6.0233
        54                         -0.1883340              -5.1248
        55                         -0.1546839              -4.2092
       ...                                ...                  ...
        91                          0.7255067              19.7420
      -------------------------------------------------------------
                  HL-Gap            0.1242034 Eh            3.3797 eV
             Fermi-level           -0.2958024 Eh           -8.0492 eV

 SCC (total)                   0 d,  0 h,  0 min,  0.042 sec
 SCC setup                      ...        0 min,  0.003 sec (  6.143%)
 Dispersion                     ...        0 min,  0.000 sec (  0.277%)
 classical contributions        ...        0 min,  0.005 sec ( 11.340%)
 integral evaluation            ...        0 min,  0.002 sec (  5.735%)
 iterations                     ...        0 min,  0.025 sec ( 60.770%)
 molecular gradient             ...        0 min,  0.006 sec ( 14.653%)
 printout                       ...        0 min,  0.000 sec (  0.870%)

         :::::::::::::::::::::::::::::::::::::::::::::::::::::
         ::                     SUMMARY                     ::
         :::::::::::::::::::::::::::::::::::::::::::::::::::::
         :: total energy             -56.480917081352 Eh    ::
         :: gradient norm              0.000180874888 Eh/a0 ::
         :: HOMO-LUMO gap              3.379745979528 eV    ::
         ::.................................................::
         :: SCC energy               -57.239205667692 Eh    ::
         :: -> isotropic ES            0.098853226141 Eh    ::
         :: -> anisotropic ES          0.004016639854 Eh    ::
         :: -> anisotropic XC          0.019353784027 Eh    ::
         :: -> dispersion             -0.040601419682 Eh    ::
         :: repulsion energy           0.758288586340 Eh    ::
         :: add. restraining           0.000000000000 Eh    ::
         :: total charge               0.000000000000 e     ::
         :::::::::::::::::::::::::::::::::::::::::::::::::::::

           -------------------------------------------------
          |                Property Printout                |
           -------------------------------------------------

    * Orbital Energies and Occupations

         #    Occupation            Energy/Eh            Energy/eV
      -------------------------------------------------------------
         1        2.0000           -0.7291359             -19.8408
       ...           ...                  ...                  ...
        38        2.0000           -0.4591456             -12.4940
        39        2.0000           -0.4581085             -12.4658
        40        2.0000           -0.4468418             -12.1592
        41        2.0000           -0.4445546             -12.0969
        42        2.0000           -0.4410235             -12.0009
        43        2.0000           -0.4198395             -11.4244
        44        2.0000           -0.4188354             -11.3971
        45        2.0000           -0.4097060             -11.1487
        46        2.0000           -0.4070821             -11.0773
        47        2.0000           -0.3994191             -10.8687
        48        2.0000           -0.3961649             -10.7802
        49        2.0000           -0.3739546             -10.1758
        50        2.0000           -0.3579041              -9.7391 (HOMO)
        51                         -0.2337007              -6.3593 (LUMO)
        52                         -0.2261833              -6.1548
        53                         -0.2213512              -6.0233
        54                         -0.1883340              -5.1248
        55                         -0.1546839              -4.2092
        56                         -0.0635136              -1.7283
        57                         -0.0188351              -0.5125
        58                          0.0197086               0.5363
        59                          0.0325574               0.8859
        60                          0.0580467               1.5795
        61                          0.0852431               2.3196
       ...                                ...                  ...
        91                          0.7255067              19.7420
      -------------------------------------------------------------
                  HL-Gap            0.1242034 Eh            3.3797 eV
             Fermi-level           -0.2958024 Eh           -8.0492 eV

     #   Z          covCN         q      C6AA      α(0)
     1   8 O        1.654    -0.377    20.415     6.099
     2   6 C        2.684     0.361    20.881     7.478
     3   8 O        0.856    -0.380    21.282     6.185
     4   1 H        0.800     0.365     0.555     1.171
     5   6 C        3.736    -0.039    21.364     6.596
     6   1 H        0.925     0.078     2.001     2.212
     7   1 H        0.923     0.073     2.058     2.244
     8   7 N        2.687    -0.156    24.365     7.331
     9   1 H        0.860     0.203     1.089     1.635
    10   6 C        2.757     0.270    22.446     7.758
    11   8 O        0.859    -0.460    22.915     6.418
    12   6 C        3.788     0.032    20.051     6.378
    13   1 H        0.923     0.032     2.560     2.502
    14   7 N        2.634    -0.353    29.095     8.011
    15   1 H        0.860     0.151     1.396     1.851
    16   1 H        0.860     0.142     1.457     1.891
    17   6 C        3.808    -0.064    21.717     6.634
    18   1 H        0.924     0.054     2.274     2.358
    19   1 H        0.924     0.040     2.445     2.445
    20   6 C        3.059    -0.040    28.935     8.821
    21   6 C        3.032    -0.004    28.088     8.693
    22   1 H        0.926     0.031     2.572     2.508
    23   7 N        2.781    -0.100    23.194     7.153
    24   1 H        0.860     0.160     1.332     1.808
    25   6 C        3.089     0.047    26.844     8.493
    26   6 C        2.909    -0.047    29.178     8.857
    27   1 H        0.926     0.027     2.635     2.539
    28   6 C        2.925    -0.029    28.717     8.788
    29   1 H        0.926     0.035     2.518     2.481
    30   6 C        2.920    -0.035    28.872     8.811
    31   1 H        0.926     0.033     2.544     2.494
    32   6 C        2.912    -0.042    29.033     8.836
    33   1 H        0.926     0.016     2.789     2.611
    34   6 C        3.117    -0.023    28.419     8.732

 Mol. C6AA /au·bohr⁶  :      13343.475699
 Mol. C8AA /au·bohr⁸  :     312480.828692
 Mol. α(0) /au        :        178.822654


Wiberg/Mayer (AO) data.
largest (>0.10) Wiberg bond orders for each atom

 ---------------------------------------------------------------------------
     #   Z sym  total        # sym  WBO       # sym  WBO       # sym  WBO
 ---------------------------------------------------------------------------
     1   8 O    2.232 --     2 C    1.204     4 H    0.763     3 O    0.182
     2   6 C    3.932 --     3 O    1.770     1 O    1.204     5 C    0.924
     3   8 O    2.063 --     2 C    1.770     1 O    0.182
     4   1 H    0.867 --     1 O    0.763
     5   6 C    3.964 --     8 N    0.992     6 H    0.974     7 H    0.951
                             2 C    0.924
     6   1 H    0.994 --     5 C    0.974
     7   1 H    0.995 --     5 C    0.951
     8   7 N    3.482 --    10 C    1.310     5 C    0.992     9 H    0.924
                            11 O    0.193
     9   1 H    0.959 --     8 N    0.924
    10   6 C    3.946 --    11 O    1.605     8 N    1.310    12 C    0.950
    11   8 O    2.013 --    10 C    1.605     8 N    0.193
    12   6 C    3.981 --    14 N    1.012    13 H    0.959    17 C    0.957
                            10 C    0.950
    13   1 H    0.999 --    12 C    0.959
    14   7 N    3.009 --    12 C    1.012    16 H    0.965    15 H    0.961
    15   1 H    0.977 --    14 N    0.961
    16   1 H    0.979 --    14 N    0.965
    17   6 C    3.992 --    20 C    1.013    19 H    0.971    18 H    0.971
                            12 C    0.957
    18   1 H    0.997 --    17 C    0.971
    19   1 H    0.997 --    17 C    0.971
    20   6 C    3.973 --    21 C    1.578    34 C    1.204    17 C    1.013
    21   6 C    3.952 --    20 C    1.578    23 N    1.203    22 H    0.970
    22   1 H    0.998 --    21 C    0.970
    23   7 N    3.547 --    21 C    1.203    25 C    1.175    24 H    0.947
    24   1 H    0.974 --    23 N    0.947
    25   6 C    3.959 --    26 C    1.336    34 C    1.251    23 N    1.175
    26   6 C    3.990 --    28 C    1.498    25 C    1.336    27 H    0.968
                            32 C    0.114
    27   1 H    0.999 --    26 C    0.968
    28   6 C    3.992 --    26 C    1.498    30 C    1.369    29 H    0.972
    29   1 H    0.998 --    28 C    0.972
    30   6 C    3.991 --    32 C    1.508    28 C    1.369    31 H    0.971
    31   1 H    0.999 --    30 C    0.971
    32   6 C    3.992 --    30 C    1.508    34 C    1.327    33 H    0.968
                            26 C    0.114
    33   1 H    0.999 --    32 C    0.968
    34   6 C    3.984 --    32 C    1.327    25 C    1.251    20 C    1.204
 ---------------------------------------------------------------------------

Topologies differ in total number of bonds
Writing topology from bond orders to xtbtopo.mol

molecular dipole:
                 x           y           z       tot (Debye)
 q only:       -0.700      -1.636       0.367
   full:       -1.256      -2.089       0.809       6.528
molecular quadrupole (traceless):
                xx          xy          yy          xz          yz          zz
 q only:        0.940       3.648      -4.390      10.947       7.777       3.450
  q+dip:        1.676       9.101      -6.517      10.314       9.171       4.841
   full:        3.383       6.894      -6.015      11.815       8.454       2.631

           -------------------------------------------------
          |                Geometry Summary                 |
           -------------------------------------------------

      molecular mass/u    :      261.2770023
   center of mass at/Å    :        0.0000000      -0.0000000       0.0000000
  moments of inertia/u·Å² :        0.9520086E+03   0.1219454E+04   0.1680193E+04
rotational constants/cm⁻¹ :        0.1770744E-01   0.1382392E-01   0.1003315E-01

 * 31 selected distances

     #   Z          #   Z                                           value/Å
     1   8 O        2   6 C                                       1.3158788
     2   6 C        3   8 O                                       1.1987486
     1   8 O        4   1 H                                       1.0000309 (min)
     5   6 C        6   1 H                                       1.0891324
     5   6 C        7   1 H                                       1.0988426
     5   6 C        8   7 N                                       1.4492490
     8   7 N        9   1 H                                       1.0093309
     8   7 N       10   6 C                                       1.3359229
    10   6 C       11   8 O                                       1.2267544
    12   6 C       13   1 H                                       1.1019766
    12   6 C       14   7 N                                       1.4579977 (max)
    14   7 N       15   1 H                                       1.0145358
    14   7 N       16   1 H                                       1.0151188
    17   6 C       18   1 H                                       1.0911401
    17   6 C       19   1 H                                       1.0922497
    20   6 C       21   6 C                                       1.3648553
    21   6 C       22   1 H                                       1.0732746
    21   6 C       23   7 N                                       1.3662575
    23   7 N       24   1 H                                       1.0052160
    23   7 N       25   6 C                                       1.3648772
    25   6 C       26   6 C                                       1.3889496
    26   6 C       27   1 H                                       1.0798329
    26   6 C       28   6 C                                       1.3769011
    28   6 C       29   1 H                                       1.0791098
    28   6 C       30   6 C                                       1.3973049
    30   6 C       31   1 H                                       1.0793497
    30   6 C       32   6 C                                       1.3752808
    32   6 C       33   1 H                                       1.0809565
    20   6 C       34   6 C                                       1.4294993
    25   6 C       34   6 C                                       1.4145402
    32   6 C       34   6 C                                       1.3956955

 * 6 distinct bonds (by element types)

   Z      Z             #   av. dist./Å        max./Å        min./Å
   1 H    6 C          10     1.0865865     1.1019766     1.0732746
   6 C    6 C           8     1.3928783     1.4294993     1.3648553
   1 H    7 N           4     1.0110504     1.0151188     1.0052160
   6 C    7 N           5     1.3948609     1.4579977     1.3359229
   1 H    8 O           1     1.0000309     1.0000309     1.0000309
   6 C    8 O           3     1.2471273     1.3158788     1.1987486


optimized geometry written to: xtbopt.xyz


           -------------------------------------------------
          | TOTAL ENERGY              -56.480917081352 Eh   |
          | GRADIENT NORM               0.000180874888 Eh/α |
          | HOMO-LUMO GAP               3.379745979528 eV   |
           -------------------------------------------------

------------------------------------------------------------------------
 * finished run on 2026/10/01 at 18:03:11.623     
------------------------------------------------------------------------
 total:
 * wall-time:     0 d,  0 h,  0 min,  0.942 sec
 *  cpu-time:     0 d,  0 h,  0 min, 12.923 sec
 * ratio c/w:    13.719 speedup
 SCF:
 * wall-time:     0 d,  0 h,  0 min,  0.676 sec
 *  cpu-time:     0 d,  0 h,  0 min,  9.333 sec
 * ratio c/w:    13.801 speedup
 ANC optimizer:
 * wall-time:     0 d,  0 h,  0 min,  0.231 sec
 *  cpu-time:     0 d,  0 h,  0 min,  3.133 sec
 * ratio c/w:    13.564 speedup


--- STDERR ---
normal termination of xtb
Note: The following floating-point exceptions are signalling: IEEE_UNDERFLOW_FLAG IEEE_DENORMAL
