34
 energy: -56.480917081352 gnorm: 0.000180874888 xtb: 6.7.1-6.fc44.fc44
O           -0.47525055760000        2.16215650250000       -0.30240616300000
C           -0.49892895500000        1.85477822790000       -1.58166165890000
O            0.23718782000000        2.34292949120000       -2.39211733610000
H           -1.14461675740000        1.63763045640000        0.22379054120000
C           -1.61299784190000        0.86869480780000       -2.00613883920000
H           -1.51202900200000        0.68527209220000       -3.07495622410000
H           -2.56777932530000        1.37846514180000       -1.81645121660000
N           -1.60131378240000       -0.40075021300000       -1.30707156000000
H           -1.48026000180000       -1.25019787300000       -1.83861026220000
C           -1.91140878430000       -0.54619121690000       -0.01580177890000
O           -2.11617988210000        0.39812027810000        0.74002275890000
C           -1.96853074010000       -1.99489881630000        0.44931315050000
H           -2.51802153980000       -1.99889607430000        1.40450743920000
N           -2.57915932750000       -2.80979517710000       -0.59415874880000
H           -2.52116116410000       -3.79176373500000       -0.34585107140000
H           -3.56196462860000       -2.57825225620000       -0.69878915620000
C           -0.52339402760000       -2.48649089230000        0.69645763430000
H           -0.11216009940000       -2.81637606420000       -0.25886895480000
H           -0.55050207950000       -3.34249495910000        1.37434501880000
C            0.32999965750000       -1.39416998970000        1.25261501740000
C            0.33861238150000       -0.91556062370000        2.53077325710000
H           -0.20566012930000       -1.26285683590000        3.38813602820000
N            1.19097770730000        0.14780892680000        2.62761278860000
H            1.34704085600000        0.69525198460000        3.45611101720000
C            1.74140281440000        0.39184455180000        1.40271755330000
C            2.64156344990000        1.36749600530000        0.99406631340000
H            3.01890704580000        2.10202618130000        1.68985076620000
C            3.02378915380000        1.36877335630000       -0.32871795410000
H            3.71232129660000        2.11941283450000       -0.68500666550000
C            2.53156549890000        0.41936401510000       -1.22805011370000
H            2.85229987780000        0.46088645460000       -2.25780780070000
C            1.63875291960000       -0.54806080840000       -0.83009044410000
H            1.26623861260000       -1.27661454960000       -1.53642560400000
C            1.22571659970000       -0.57009705430000        0.50290658920000
