34
frame_0021
O      -2.128951131500000      2.707563550700000     -0.698667992300000
C      -1.849234842300000      2.272341368400000     -1.910790730700000
O      -2.268305840300000      2.788984357300000     -2.908514405800000
H      -1.732718740400000      2.126073456800000      0.011837777200000
C      -0.902085676800000      1.054106607900000     -1.963158101200000
H       0.047216095400000      1.354259212400000     -1.499316137100000
H      -0.728131462300000      0.795990592900000     -3.007016382400000
N      -1.413349256300000     -0.109914510800000     -1.267081121200000
H      -1.692477656700000     -0.926422748600000     -1.792747307600000
C      -1.494272202500000     -0.204707928800000      0.063342722900000
O      -1.290985578300000      0.736079739400000      0.822962291400000
C      -1.849731336200000     -1.599613111500000      0.560258194100000
H      -2.264369479500000     -1.485252003100000      1.574869230500000
N      -2.757721646000000     -2.230140271600000     -0.389561377100000
H      -3.662587827900000     -1.770310592400000     -0.376803591500000
H      -2.904348257900000     -3.202237407900000     -0.139413600800000
C      -0.548828357900000     -2.430218107100000      0.646654949700000
H      -0.270405510700000     -2.729326720100000     -0.365134244200000
H      -0.746085633000000     -3.330941687600000      1.232328465300000
C       0.554346688400000     -1.634785123300000      1.261055434600000
C       0.761556606700000     -1.392948768400000      2.587659384700000
H       0.226720084200000     -1.773054359800000      3.437131915000000
N       1.819836787600000     -0.544055101100000      2.752568206400000
H       2.150538116700000     -0.190761546400000      3.633831317200000
C       2.309073168100000     -0.200109507800000      1.527346476800000
C       3.356026950000000      0.642372161400000      1.175447168400000
H       3.935369940800000      1.155283094200000      1.928928181700000
C       3.624619291300000      0.801891940300000     -0.166483744300000
H       4.427978936900000      1.453408172800000     -0.476267424900000
C       2.877904817900000      0.132513974000000     -1.140395390600000
H       3.124908231200000      0.280996719200000     -2.181580193900000
C       1.842228011000000     -0.707194194500000     -0.797998347200000
H       1.279234727000000     -1.226114635300000     -1.560376152100000
C       1.537690483100000     -0.878096908500000      0.552581279400000
