      -----------------------------------------------------------      
     |                   =====================                   |     
     |                           x T B                           |     
     |                   =====================                   |     
     |                         S. Grimme                         |     
     |          Mulliken Center for Theoretical Chemistry        |     
     |                    University of Bonn                     |     
      -----------------------------------------------------------      

   * xtb version 6.7.1-6.fc44.fc44 compiled by Fedora project on Sun Jan 18 23:32:34 UTC 2026

   xtb is free software: you can redistribute it and/or modify it under
   the terms of the GNU Lesser General Public License as published by
   the Free Software Foundation, either version 3 of the License, or
   (at your option) any later version.
   
   xtb is distributed in the hope that it will be useful,
   but WITHOUT ANY WARRANTY; without even the implied warranty of
   MERCHANTABILITY or FITNESS FOR A PARTICULAR PURPOSE.  See the
   GNU Lesser General Public License for more details.
   
   Cite this work as:
   * C. Bannwarth, E. Caldeweyher, S. Ehlert, A. Hansen, P. Pracht,
     J. Seibert, S. Spicher, S. Grimme, WIREs Comput. Mol. Sci., 2020, 11,
     e01493. DOI: 10.1002/wcms.1493
   
   for GFN2-xTB:
   * C. Bannwarth, S. Ehlert and S. Grimme., J. Chem. Theory Comput., 2019,
     15, 1652-1671. DOI: 10.1021/acs.jctc.8b01176
   for GFN1-xTB:
   * S. Grimme, C. Bannwarth, P. Shushkov, J. Chem. Theory Comput., 2017,
     13, 1989-2009. DOI: 10.1021/acs.jctc.7b00118
   for GFN0-xTB:
   * P. Pracht, E. Caldeweyher, S. Ehlert, S. Grimme, ChemRxiv, 2019, preprint.
     DOI: 10.26434/chemrxiv.8326202.v1
   for GFN-FF:
   * S. Spicher and S. Grimme, Angew. Chem. Int. Ed., 2020, 59, 15665-15673.
     DOI: 10.1002/anie.202004239
   
   for ALPB and GBSA implicit solvation:
   * S. Ehlert, M. Stahn, S. Spicher, S. Grimme, J. Chem. Theory Comput.,
     2021, 17, 4250-4261. DOI: 10.1021/acs.jctc.1c00471
   
   for ddCOSMO and CPCM-X implicit solvation:
   * M. Stahn, S. Ehlert, S. Grimme, J. Phys. Chem. A,
     2023, XX, XXXX-XXXX. DOI: 10.1021/acs.jpca.3c04382
   
   for DFT-D4:
   * E. Caldeweyher, C. Bannwarth and S. Grimme, J. Chem. Phys., 2017,
     147, 034112. DOI: 10.1063/1.4993215
   * E. Caldeweyher, S. Ehlert, A. Hansen, H. Neugebauer, S. Spicher,
     C. Bannwarth and S. Grimme, J. Chem. Phys., 2019, 150, 154122.
     DOI: 10.1063/1.5090222
   * E. Caldeweyher, J.-M. Mewes, S. Ehlert and S. Grimme, Phys. Chem. Chem. Phys.
     2020, 22, 8499-8512. DOI: 10.1039/D0CP00502A
   
   for sTDA-xTB:
   * S. Grimme and C. Bannwarth, J. Chem. Phys., 2016, 145, 054103.
     DOI: 10.1063/1.4959605
   
   in the mass-spec context:
   * V. Asgeirsson, C. Bauer and S. Grimme, Chem. Sci., 2017, 8, 4879.
     DOI: 10.1039/c7sc00601b
   * J. Koopman and S. Grimme, ACS Omega 2019, 4, 12, 15120-15133.
     DOI: 10.1021/acsomega.9b02011
   
   for metadynamics refer to:
   * S. Grimme, J. Chem. Theory Comput., 2019, 155, 2847-2862
     DOI: 10.1021/acs.jctc.9b00143
   
   for SPH calculations refer to:
   * S. Spicher and S. Grimme, J. Chem. Theory Comput., 2021, 17, 1701-1714
     DOI: 10.1021/acs.jctc.0c01306
   
   for ONIOM refer to:
   * C. Plett, A. Katbashev, S. Ehlert, S. Grimme, M. Bursch,
     Phys. Chem. Chem. Phys., 2023, 25, 17860-17868. DOI: 10.1039/D3CP02178E
   
   for DIPRO refer to:
   * J. Kohn, N. Gildemeister, S. Grimme, D. Fazzi, A. Hansen,
     J. Chem. Phys., 2023, just accepted.
   
   for PTB refer to:
   * S. Grimme, M. Mueller, A. Hansen, J. Chem. Phys., 2023, 158, 124111.
     DOI: 10.1063/5.0137838
   
   with help from (in alphabetical order)
   P. Atkinson, C. Bannwarth, F. Bohle, G. Brandenburg, E. Caldeweyher
   M. Checinski, S. Dohm, S. Ehlert, S. Ehrlich, I. Gerasimov, C. Hölzer
   A. Katbashev, J. Kohn, J. Koopman, C. Lavigne, S. Lehtola, F. März, M. Müller,
   F. Musil, H. Neugebauer, J. Pisarek, C. Plett, P. Pracht, F. Pultar,
   J. Seibert, P. Shushkov, S. Spicher, M. Stahn, M. Steiner, T. Strunk,
   J. Stückrath, T. Rose, and J. Unsleber
   
 * started run on 2026/10/01 at 18:03:18.416     
   ID    Z sym.   atoms
    1    8 O      1, 3, 11
    2    6 C      2, 5, 10, 12, 17, 20, 21, 25, 26, 28, 30, 32, 34
    3    1 H      4, 6, 7, 9, 13, 15, 16, 18, 19, 22, 24, 27, 29, 31, 33
    4    7 N      8, 14, 23

           -------------------------------------------------
          |                Calculation Setup                |
           -------------------------------------------------

          program call               : /usr/bin/xtb input.xyz --opt --gfn 2 --chrg 0 --uhf 0
          hostname                   : fedora
          coordinate file            : input.xyz
          omp threads                :                    16


           -------------------------------------------------
          |                 G F N 2 - x T B                 |
           -------------------------------------------------

        Reference                      10.1021/acs.jctc.8b01176
      * Hamiltonian:
        H0-scaling (s, p, d)           1.850000    2.230000    2.230000
        zeta-weighting                 0.500000
      * Dispersion:
        s8                             2.700000
        a1                             0.520000
        a2                             5.000000
        s9                             5.000000
      * Repulsion:
        kExp                           1.500000    1.000000
        rExp                           1.000000
      * Coulomb:
        alpha                          2.000000
        third order                    shell-resolved
        anisotropic                    true
        a3                             3.000000
        a5                             4.000000
        cn-shift                       1.200000
        cn-exp                         4.000000
        max-rad                        5.000000


          ...................................................
          :                      SETUP                      :
          :.................................................:
          :  # basis functions                  91          :
          :  # atomic orbitals                  91          :
          :  # shells                           53          :
          :  # electrons                       100          :
          :  max. iterations                   250          :
          :  Hamiltonian                  GFN2-xTB          :
          :  restarted?                      false          :
          :  GBSA solvation                  false          :
          :  PC potential                    false          :
          :  electronic temp.          300.0000000     K    :
          :  accuracy                    1.0000000          :
          :  -> integral cutoff          0.2500000E+02      :
          :  -> integral neglect         0.1000000E-07      :
          :  -> SCF convergence          0.1000000E-05 Eh   :
          :  -> wf. convergence          0.1000000E-03 e    :
          :  Broyden damping             0.4000000          :
          :  net charge                          0          :
          :  unpaired electrons                  0          :
          ...................................................

 iter      E             dE          RMSdq      gap      omega  full diag
   1    -57.0888200 -0.570888E+02  0.418E+00    3.21       0.0  T
   2    -57.2217865 -0.132966E+00  0.245E+00    3.55       1.0  T
   3    -57.2305160 -0.872956E-02  0.134E+00    3.66       1.0  T
   4    -57.2312347 -0.718657E-03  0.470E-01    3.55       1.0  T
   5    -57.2380987 -0.686403E-02  0.121E-01    3.61       1.0  T
   6    -57.2383093 -0.210533E-03  0.597E-02    3.61       1.0  T
   7    -57.2383536 -0.443816E-04  0.263E-02    3.60       1.0  T
   8    -57.2383547 -0.103048E-05  0.118E-02    3.60       1.5  T
   9    -57.2383571 -0.240090E-05  0.344E-03    3.60       5.0  T
  10    -57.2383571 -0.448583E-07  0.157E-03    3.60      10.9  T
  11    -57.2383571 -0.205079E-07  0.627E-04    3.60      27.3  T
  12    -57.2383571 -0.365258E-08  0.226E-04    3.60      75.9  T

   *** convergence criteria satisfied after 12 iterations ***

         #    Occupation            Energy/Eh            Energy/eV
      -------------------------------------------------------------
         1        2.0000           -0.7319227             -19.9166
       ...           ...                  ...                  ...
        44        2.0000           -0.4234995             -11.5240
        45        2.0000           -0.4211103             -11.4590
        46        2.0000           -0.4152524             -11.2996
        47        2.0000           -0.4002713             -10.8919
        48        2.0000           -0.3974332             -10.8147
        49        2.0000           -0.3860386             -10.5046
        50        2.0000           -0.3680048             -10.0139 (HOMO)
        51                         -0.2355685              -6.4101 (LUMO)
        52                         -0.2331972              -6.3456
        53                         -0.2276221              -6.1939
        54                         -0.2014254              -5.4811
        55                         -0.1637662              -4.4563
       ...                                ...                  ...
        91                          0.7151767              19.4609
      -------------------------------------------------------------
                  HL-Gap            0.1324363 Eh            3.6038 eV
             Fermi-level           -0.3017867 Eh           -8.2120 eV

 SCC (total)                   0 d,  0 h,  0 min,  0.393 sec
 SCC setup                      ...        0 min,  0.000 sec (  0.083%)
 Dispersion                     ...        0 min,  0.011 sec (  2.907%)
 classical contributions        ...        0 min,  0.003 sec (  0.750%)
 integral evaluation            ...        0 min,  0.017 sec (  4.300%)
 iterations                     ...        0 min,  0.344 sec ( 87.371%)
 molecular gradient             ...        0 min,  0.018 sec (  4.485%)
 printout                       ...        0 min,  0.000 sec (  0.097%)

         :::::::::::::::::::::::::::::::::::::::::::::::::::::
         ::                     SUMMARY                     ::
         :::::::::::::::::::::::::::::::::::::::::::::::::::::
         :: total energy             -56.479862072910 Eh    ::
         :: gradient norm              0.000065261322 Eh/a0 ::
         :: HOMO-LUMO gap              3.603775599064 eV    ::
         ::.................................................::
         :: SCC energy               -57.237561717337 Eh    ::
         :: -> isotropic ES            0.098641990086 Eh    ::
         :: -> anisotropic ES          0.003531251314 Eh    ::
         :: -> anisotropic XC          0.019355217425 Eh    ::
         :: -> dispersion             -0.037238926515 Eh    ::
         :: repulsion energy           0.757699644427 Eh    ::
         :: add. restraining           0.000000000000 Eh    ::
         :: total charge              -0.000000000000 e     ::
         :::::::::::::::::::::::::::::::::::::::::::::::::::::

      ----------------------------------------------------------- 
     |                   =====================                   |
     |                        A N C O P T                        |
     |                   =====================                   |
     |               Approximate Normal Coordinate               |
     |                Rational Function Optimizer                |
      ----------------------------------------------------------- 
      ----------------------------------------------------------- 
     |                   =====================                   |
     |                        A N C O P T                        |
     |                   =====================                   |
     |               Approximate Normal Coordinate               |
     |                Rational Function Optimizer                |
      ----------------------------------------------------------- 

          ...................................................
          :                      SETUP                      :
          :.................................................:
          :   optimization level            normal          :
          :   max. optcycles                   200          :
          :   ANC micro-cycles                  20          :
          :   degrees of freedom                96          :
          :.................................................:
          :   RF solver                   davidson          :
          :   write xtbopt.log                true          :
          :   linear?                        false          :
          :   energy convergence         0.5000000E-05 Eh   :
          :   grad. convergence          0.1000000E-02 Eh/α :
          :   maxmium RF displ.          1.0000000          :
          :   Hlow (freq-cutoff)         0.1000000E-01      :
          :   Hmax (freq-cutoff)         5.0000000          :
          :   S6 in model hess.         20.0000000          :
          ...................................................

generating ANC from exact Hessian ...
Using Lindh-Hessian (1995)
 Shifting diagonal of input Hessian by    9.5035313962938163E-003
 Lowest  eigenvalues of input Hessian
    0.000000    0.000000    0.000000    0.000000    0.000000    0.000000
    0.010000    0.010184    0.010897    0.011602    0.012346    0.014486
    0.016454    0.018434    0.019350    0.020246    0.024016    0.025021
 Highest eigenvalues
    2.003240    2.013808    2.102273    2.210131    2.319693    2.365473


........................................................................
.............................. CYCLE    1 ..............................
........................................................................

 iter      E             dE          RMSdq      gap      omega  full diag
   1    -57.2383571 -0.572384E+02  0.107E-04    3.60       0.0  T
   2    -57.2383571 -0.689084E-10  0.636E-05    3.60     269.7  T
   3    -57.2383571 -0.211315E-10  0.417E-05    3.60     411.6  T
     SCC iter.                  ...        0 min,  0.018 sec
     gradient                   ...        0 min,  0.008 sec
 * total energy  :   -56.4798621 Eh     change       -0.5020055E-09 Eh
   gradient norm :     0.0000653 Eh/α   predicted     0.0000000E+00 (-100.00%)
   displ. norm   :     0.0000979 α      lambda        0.0000000E+00
   maximum displ.:     0.0000279 α      in ANC's #96, #80, #29, ...

   *** GEOMETRY OPTIMIZATION CONVERGED AFTER 1 ITERATIONS ***

------------------------------------------------------------------------
 total energy gain   :        -0.0000000 Eh       -0.0000 kcal/mol
 total RMSD          :         0.0000000 a0        0.0000 Å
 total power (kW/mol):        -0.0000013 (step)   -0.0000 (real)
------------------------------------------------------------------------

 ANCopt (total)                0 d,  0 h,  0 min,  0.057 sec
 optimizer setup                ...        0 min,  0.000 sec (  0.088%)
 model hessian                  ...        0 min,  0.007 sec ( 13.027%)
 ANC generation                 ...        0 min,  0.016 sec ( 28.329%)
 coordinate transformation      ...        0 min,  0.000 sec (  0.046%)
 single point calculation       ...        0 min,  0.032 sec ( 57.405%)
 optimization log               ...        0 min,  0.000 sec (  0.191%)
 hessian update                 ...        0 min,  0.000 sec (  0.001%)
 rational function              ...        0 min,  0.000 sec (  0.117%)

================
 final structure:
================
34
 xtb: 6.7.1-6.fc44.fc44
O           -2.12895113150000        2.70756355070000       -0.69866799230000
C           -1.84923484230000        2.27234136840000       -1.91079073070000
O           -2.26830584030000        2.78898435730000       -2.90851440580000
H           -1.73271874040000        2.12607345680000        0.01183777720000
C           -0.90208567680000        1.05410660790000       -1.96315810120000
H            0.04721609540000        1.35425921240000       -1.49931613710000
H           -0.72813146230000        0.79599059290000       -3.00701638240000
N           -1.41334925630000       -0.10991451080000       -1.26708112120000
H           -1.69247765670000       -0.92642274860000       -1.79274730760000
C           -1.49427220250000       -0.20470792880000        0.06334272290000
O           -1.29098557830000        0.73607973940000        0.82296229140000
C           -1.84973133620000       -1.59961311150000        0.56025819410000
H           -2.26436947950000       -1.48525200310000        1.57486923050000
N           -2.75772164600000       -2.23014027160000       -0.38956137710000
H           -3.66258782790000       -1.77031059240000       -0.37680359150000
H           -2.90434825790000       -3.20223740790000       -0.13941360080000
C           -0.54882835790000       -2.43021810710000        0.64665494970000
H           -0.27040551070000       -2.72932672010000       -0.36513424420000
H           -0.74608563300000       -3.33094168760000        1.23232846530000
C            0.55434668840000       -1.63478512330000        1.26105543460000
C            0.76155660670000       -1.39294876840000        2.58765938470000
H            0.22672008420000       -1.77305435980000        3.43713191500000
N            1.81983678760000       -0.54405510110000        2.75256820640000
H            2.15053811670000       -0.19076154640000        3.63383131720000
C            2.30907316810000       -0.20010950780000        1.52734647680000
C            3.35602695000000        0.64237216140000        1.17544716840000
H            3.93536994080000        1.15528309420000        1.92892818170000
C            3.62461929130000        0.80189194030000       -0.16648374430000
H            4.42797893690000        1.45340817280000       -0.47626742490000
C            2.87790481790000        0.13251397400000       -1.14039539060000
H            3.12490823120000        0.28099671920000       -2.18158019390000
C            1.84222801100000       -0.70719419450000       -0.79799834720000
H            1.27923472700000       -1.22611463530000       -1.56037615210000
C            1.53769048310000       -0.87809690850000        0.55258127940000

 Bond Distances (Angstroems)
 ---------------------------
O1-C2=1.3179         O1-H4=1.0000         C2-O1=1.3179         C2-O3=1.1992         C2-C5=1.5440         O3-C2=1.1992         
H4-O1=1.0000         C5-C2=1.5440         C5-H6=1.0984         C5-H7=1.0893         C5-N8=1.4494         H6-C5=1.0984         
H7-C5=1.0893         N8-C5=1.4494         N8-H9=1.0104         N8-C10=1.3362        H9-N8=1.0104         C10-N8=1.3362        
C10-O11=1.2261       C10-C12=1.5228       O11-C10=1.2261       C12-C10=1.5228       C12-H13=1.1020       C12-N14=1.4575       
C12-C17=1.5459       H13-C12=1.1020       N14-C12=1.4575       N14-H15=1.0151       N14-H16=1.0144       H15-N14=1.0151       
H16-N14=1.0144       C17-C12=1.5459       C17-H18=1.0912       C17-H19=1.0923       C17-C20=1.4924       H18-C17=1.0912       
H19-C17=1.0923       C20-C17=1.4924       C20-C21=1.3643       C20-C34=1.4288       C21-C20=1.3643       C21-H22=1.0734       
C21-N23=1.3667       H22-C21=1.0734       N23-C21=1.3667       N23-H24=1.0054       N23-C25=1.3634       H24-N23=1.0054       
C25-N23=1.3634       C25-C26=1.3891       C25-C34=1.4159       C26-C25=1.3891       C26-H27=1.0800       C26-C28=1.3778       
H27-C26=1.0800       C28-C26=1.3778       C28-H29=1.0797       C28-C30=1.3979       H29-C28=1.0797       C30-C28=1.3979       
C30-H31=1.0803       C30-C32=1.3766       H31-C30=1.0803       C32-C30=1.3766       C32-H33=1.0805       C32-C34=1.3950       
H33-C32=1.0805       C34-C20=1.4288       C34-C25=1.4159       C34-C32=1.3950       
 C  H  Rav=1.0867 sigma=0.0088  Rmin=1.0734  Rmax=1.1020    10
 C  C  Rav=1.4375 sigma=0.0660  Rmin=1.3643  Rmax=1.5459    12
 N  H  Rav=1.0113 sigma=0.0039  Rmin=1.0054  Rmax=1.0151     4
 N  C  Rav=1.3946 sigma=0.0492  Rmin=1.3362  Rmax=1.4575     5
 O  H  Rav=1.0000 sigma=0.0000  Rmin=1.0000  Rmax=1.0000     1
 O  C  Rav=1.2477 sigma=0.0508  Rmin=1.1992  Rmax=1.3179     3

 selected bond angles (degree)
 --------------------
H4-O1-C2=112.17                O3-C2-O1=123.28                C5-C2-O1=114.96                C5-C2-O3=121.74                
H6-C5-C2=107.47                H7-C5-C2=108.51                H7-C5-H6=109.36                N8-C5-C2=113.64                
N8-C5-H6=108.75                N8-C5-H7=109.04                H9-N8-C5=119.77                C10-N8-C5=123.81               
C10-N8-H9=116.35               O11-C10-N8=123.53              C12-C10-N8=113.83              C12-C10-O11=122.64             

 selected dihedral angles (degree)
 ---------------------------------
O3-C2-O1-H4=176.98            C5-C2-O1-H4=355.51            H6-C5-C2-O1=299.20            H6-C5-C2-O3=117.75            
H7-C5-C2-O1=181.05            H7-C5-C2-O3=359.60            N8-C5-C2-O1= 59.58            N8-C5-C2-O3=238.13            
H9-N8-C5-C2=111.13            H9-N8-C5-H6=230.78            H9-N8-C5-H7=349.96            C10-N8-C5-C2=288.23           
C10-N8-C5-H6= 47.88           C10-N8-C5-H7=167.05           O11-C10-N8-C5=  8.77          O11-C10-N8-H9=185.96          
C12-C10-N8-C5=189.40          C12-C10-N8-H9=  6.58          
           -------------------------------------------------
          |                Final Singlepoint                |
           -------------------------------------------------

          ...................................................
          :                      SETUP                      :
          :.................................................:
          :  # basis functions                  91          :
          :  # atomic orbitals                  91          :
          :  # shells                           53          :
          :  # electrons                       100          :
          :  max. iterations                   250          :
          :  Hamiltonian                  GFN2-xTB          :
          :  restarted?                      false          :
          :  GBSA solvation                  false          :
          :  PC potential                    false          :
          :  electronic temp.          300.0000000     K    :
          :  accuracy                    1.0000000          :
          :  -> integral cutoff          0.2500000E+02      :
          :  -> integral neglect         0.1000000E-07      :
          :  -> SCF convergence          0.1000000E-05 Eh   :
          :  -> wf. convergence          0.1000000E-03 e    :
          :  Broyden damping             0.4000000          :
          :  net charge                          0          :
          :  unpaired electrons                  0          :
          ...................................................

 iter      E             dE          RMSdq      gap      omega  full diag
   1    -57.2383571 -0.572384E+02  0.130E-05    3.60       0.0  T
   2    -57.2383571 -0.710543E-12  0.919E-06    3.60    1865.2  T
   3    -57.2383571 -0.175504E-11  0.535E-06    3.60    3204.4  T

   *** convergence criteria satisfied after 3 iterations ***

         #    Occupation            Energy/Eh            Energy/eV
      -------------------------------------------------------------
         1        2.0000           -0.7319248             -19.9167
       ...           ...                  ...                  ...
        44        2.0000           -0.4234999             -11.5240
        45        2.0000           -0.4211106             -11.4590
        46        2.0000           -0.4152528             -11.2996
        47        2.0000           -0.4002720             -10.8920
        48        2.0000           -0.3974335             -10.8147
        49        2.0000           -0.3860389             -10.5047
        50        2.0000           -0.3680049             -10.0139 (HOMO)
        51                         -0.2355687              -6.4102 (LUMO)
        52                         -0.2331981              -6.3456
        53                         -0.2276236              -6.1940
        54                         -0.2014256              -5.4811
        55                         -0.1637662              -4.4563
       ...                                ...                  ...
        91                          0.7151761              19.4609
      -------------------------------------------------------------
                  HL-Gap            0.1324362 Eh            3.6038 eV
             Fermi-level           -0.3017868 Eh           -8.2120 eV

 SCC (total)                   0 d,  0 h,  0 min,  0.144 sec
 SCC setup                      ...        0 min,  0.000 sec (  0.122%)
 Dispersion                     ...        0 min,  0.008 sec (  5.654%)
 classical contributions        ...        0 min,  0.004 sec (  3.021%)
 integral evaluation            ...        0 min,  0.014 sec (  9.468%)
 iterations                     ...        0 min,  0.115 sec ( 80.145%)
 molecular gradient             ...        0 min,  0.002 sec (  1.257%)
 printout                       ...        0 min,  0.000 sec (  0.293%)

         :::::::::::::::::::::::::::::::::::::::::::::::::::::
         ::                     SUMMARY                     ::
         :::::::::::::::::::::::::::::::::::::::::::::::::::::
         :: total energy             -56.479862073436 Eh    ::
         :: gradient norm              0.000065331092 Eh/a0 ::
         :: HOMO-LUMO gap              3.603771973633 eV    ::
         ::.................................................::
         :: SCC energy               -57.237561717863 Eh    ::
         :: -> isotropic ES            0.098640781567 Eh    ::
         :: -> anisotropic ES          0.003531421496 Eh    ::
         :: -> anisotropic XC          0.019355099902 Eh    ::
         :: -> dispersion             -0.037238955909 Eh    ::
         :: repulsion energy           0.757699644427 Eh    ::
         :: add. restraining           0.000000000000 Eh    ::
         :: total charge              -0.000000000000 e     ::
         :::::::::::::::::::::::::::::::::::::::::::::::::::::

           -------------------------------------------------
          |                Property Printout                |
           -------------------------------------------------

    * Orbital Energies and Occupations

         #    Occupation            Energy/Eh            Energy/eV
      -------------------------------------------------------------
         1        2.0000           -0.7319248             -19.9167
       ...           ...                  ...                  ...
        38        2.0000           -0.4668591             -12.7039
        39        2.0000           -0.4608111             -12.5393
        40        2.0000           -0.4589320             -12.4882
        41        2.0000           -0.4543908             -12.3646
        42        2.0000           -0.4436457             -12.0722
        43        2.0000           -0.4320909             -11.7578
        44        2.0000           -0.4234999             -11.5240
        45        2.0000           -0.4211106             -11.4590
        46        2.0000           -0.4152528             -11.2996
        47        2.0000           -0.4002720             -10.8920
        48        2.0000           -0.3974335             -10.8147
        49        2.0000           -0.3860389             -10.5047
        50        2.0000           -0.3680049             -10.0139 (HOMO)
        51                         -0.2355687              -6.4102 (LUMO)
        52                         -0.2331981              -6.3456
        53                         -0.2276236              -6.1940
        54                         -0.2014256              -5.4811
        55                         -0.1637662              -4.4563
        56                         -0.0758123              -2.0630
        57                         -0.0182506              -0.4966
        58                          0.0151875               0.4133
        59                          0.0275732               0.7503
        60                          0.0624200               1.6985
        61                          0.0848667               2.3093
       ...                                ...                  ...
        91                          0.7151761              19.4609
      -------------------------------------------------------------
                  HL-Gap            0.1324362 Eh            3.6038 eV
             Fermi-level           -0.3017868 Eh           -8.2120 eV

     #   Z          covCN         q      C6AA      α(0)
     1   8 O        1.654    -0.378    20.420     6.100
     2   6 C        2.684     0.358    20.930     7.487
     3   8 O        0.856    -0.380    21.278     6.185
     4   1 H        0.800     0.364     0.556     1.172
     5   6 C        3.737    -0.040    21.379     6.598
     6   1 H        0.923     0.079     1.987     2.204
     7   1 H        0.925     0.078     2.002     2.213
     8   7 N        2.688    -0.158    24.426     7.340
     9   1 H        0.860     0.204     1.088     1.634
    10   6 C        2.757     0.269    22.455     7.760
    11   8 O        0.859    -0.457    22.862     6.411
    12   6 C        3.789     0.032    20.042     6.376
    13   1 H        0.923     0.032     2.559     2.502
    14   7 N        2.634    -0.353    29.105     8.012
    15   1 H        0.860     0.145     1.435     1.876
    16   1 H        0.860     0.151     1.392     1.848
    17   6 C        3.809    -0.062    21.688     6.629
    18   1 H        0.924     0.053     2.283     2.363
    19   1 H        0.924     0.041     2.434     2.440
    20   6 C        3.058    -0.033    28.773     8.797
    21   6 C        3.035    -0.001    28.029     8.684
    22   1 H        0.926     0.033     2.543     2.494
    23   7 N        2.780    -0.098    23.156     7.147
    24   1 H        0.860     0.161     1.326     1.804
    25   6 C        3.089     0.048    26.829     8.490
    26   6 C        2.909    -0.051    29.268     8.871
    27   1 H        0.926     0.026     2.645     2.543
    28   6 C        2.924    -0.037    28.911     8.818
    29   1 H        0.926     0.030     2.589     2.516
    30   6 C        2.920    -0.044    29.084     8.844
    31   1 H        0.926     0.026     2.640     2.541
    32   6 C        2.912    -0.041    29.009     8.832
    33   1 H        0.926     0.021     2.717     2.578
    34   6 C        3.119    -0.018    28.293     8.712

 Mol. C6AA /au·bohr⁶  :      13342.635947
 Mol. C8AA /au·bohr⁸  :     312494.129030
 Mol. α(0) /au        :        178.818325


Wiberg/Mayer (AO) data.
largest (>0.10) Wiberg bond orders for each atom

 ---------------------------------------------------------------------------
     #   Z sym  total        # sym  WBO       # sym  WBO       # sym  WBO
 ---------------------------------------------------------------------------
     1   8 O    2.231 --     2 C    1.201     4 H    0.766     3 O    0.183
     2   6 C    3.931 --     3 O    1.771     1 O    1.201     5 C    0.926
     3   8 O    2.063 --     2 C    1.771     1 O    0.183
     4   1 H    0.867 --     1 O    0.766
     5   6 C    3.963 --     8 N    0.990     7 H    0.974     6 H    0.949
                             2 C    0.926
     6   1 H    0.994 --     5 C    0.949
     7   1 H    0.994 --     5 C    0.974
     8   7 N    3.481 --    10 C    1.309     5 C    0.990     9 H    0.921
                            11 O    0.193
     9   1 H    0.959 --     8 N    0.921
    10   6 C    3.947 --    11 O    1.609     8 N    1.309    12 C    0.950
    11   8 O    2.016 --    10 C    1.609     8 N    0.193
    12   6 C    3.981 --    14 N    1.012    13 H    0.958    17 C    0.956
                            10 C    0.950
    13   1 H    0.999 --    12 C    0.958
    14   7 N    3.013 --    12 C    1.012    15 H    0.965    16 H    0.961
    15   1 H    0.978 --    14 N    0.965
    16   1 H    0.977 --    14 N    0.961
    17   6 C    3.992 --    20 C    1.015    18 H    0.971    19 H    0.970
                            12 C    0.956
    18   1 H    0.997 --    17 C    0.971
    19   1 H    0.997 --    17 C    0.970
    20   6 C    3.975 --    21 C    1.582    34 C    1.204    17 C    1.015
    21   6 C    3.953 --    20 C    1.582    23 N    1.201    22 H    0.970
    22   1 H    0.998 --    21 C    0.970
    23   7 N    3.549 --    21 C    1.201    25 C    1.179    24 H    0.946
    24   1 H    0.973 --    23 N    0.946
    25   6 C    3.959 --    26 C    1.338    34 C    1.246    23 N    1.179
    26   6 C    3.989 --    28 C    1.494    25 C    1.338    27 H    0.968
                            32 C    0.113
    27   1 H    0.999 --    26 C    0.968
    28   6 C    3.991 --    26 C    1.494    30 C    1.371    29 H    0.972
    29   1 H    0.999 --    28 C    0.972
    30   6 C    3.990 --    32 C    1.504    28 C    1.371    31 H    0.972
    31   1 H    0.999 --    30 C    0.972
    32   6 C    3.992 --    30 C    1.504    34 C    1.330    33 H    0.968
                            26 C    0.113
    33   1 H    0.999 --    32 C    0.968
    34   6 C    3.984 --    32 C    1.330    25 C    1.246    20 C    1.204
 ---------------------------------------------------------------------------

Topologies differ in total number of bonds
Writing topology from bond orders to xtbtopo.mol

molecular dipole:
                 x           y           z       tot (Debye)
 q only:        0.681      -2.022       0.820
   full:        0.633      -2.504       1.408       7.478
molecular quadrupole (traceless):
                xx          xy          yy          xz          yz          zz
 q only:        0.525      16.880      -5.592      -1.812       8.945       5.067
  q+dip:        2.137      25.814     -10.298      -4.269      10.048       8.160
   full:        3.497      24.175      -9.045      -3.903       9.834       5.548

           -------------------------------------------------
          |                Geometry Summary                 |
           -------------------------------------------------

      molecular mass/u    :      261.2770023
   center of mass at/Å    :       -0.0000000       0.0000000       0.0000000
  moments of inertia/u·Å² :        0.9777372E+03   0.1617945E+04   0.2112510E+04
rotational constants/cm⁻¹ :        0.1724148E-01   0.1041916E-01   0.7979908E-02

 * 32 selected distances

     #   Z          #   Z                                           value/Å
     1   8 O        2   6 C                                       1.3179156
     2   6 C        3   8 O                                       1.1991636
     1   8 O        4   1 H                                       0.9999747 (min)
     5   6 C        6   1 H                                       1.0983693
     5   6 C        7   1 H                                       1.0892770
     5   6 C        8   7 N                                       1.4494341
     8   7 N        9   1 H                                       1.0104076
     8   7 N       10   6 C                                       1.3362493
    10   6 C       11   8 O                                       1.2261440
    12   6 C       13   1 H                                       1.1020159
    12   6 C       14   7 N                                       1.4574527
    14   7 N       15   1 H                                       1.0150808
    14   7 N       16   1 H                                       1.0144192
    17   6 C       18   1 H                                       1.0911933
    17   6 C       19   1 H                                       1.0923493
    17   6 C       20   6 C                                       1.4923797 (max)
    20   6 C       21   6 C                                       1.3642944
    21   6 C       22   1 H                                       1.0733751
    21   6 C       23   7 N                                       1.3666648
    23   7 N       24   1 H                                       1.0053878
    23   7 N       25   6 C                                       1.3633853
    25   6 C       26   6 C                                       1.3891440
    26   6 C       27   1 H                                       1.0800230
    26   6 C       28   6 C                                       1.3778125
    28   6 C       29   1 H                                       1.0797343
    28   6 C       30   6 C                                       1.3979104
    30   6 C       31   1 H                                       1.0803351
    30   6 C       32   6 C                                       1.3765799
    32   6 C       33   1 H                                       1.0804906
    20   6 C       34   6 C                                       1.4288030
    25   6 C       34   6 C                                       1.4159328
    32   6 C       34   6 C                                       1.3949970

 * 6 distinct bonds (by element types)

   Z      Z             #   av. dist./Å        max./Å        min./Å
   1 H    6 C          10     1.0867163     1.1020159     1.0733751
   6 C    6 C           9     1.4042060     1.4923797     1.3642944
   1 H    7 N           4     1.0113238     1.0150808     1.0053878
   6 C    7 N           5     1.3946372     1.4574527     1.3362493
   1 H    8 O           1     0.9999747     0.9999747     0.9999747
   6 C    8 O           3     1.2477410     1.3179156     1.1991636


optimized geometry written to: xtbopt.xyz


           -------------------------------------------------
          | TOTAL ENERGY              -56.479862073436 Eh   |
          | GRADIENT NORM               0.000065331092 Eh/α |
          | HOMO-LUMO GAP               3.603771973633 eV   |
           -------------------------------------------------

------------------------------------------------------------------------
 * finished run on 2026/10/01 at 18:03:19.042     
------------------------------------------------------------------------
 total:
 * wall-time:     0 d,  0 h,  0 min,  0.626 sec
 *  cpu-time:     0 d,  0 h,  0 min,  8.616 sec
 * ratio c/w:    13.765 speedup
 SCF:
 * wall-time:     0 d,  0 h,  0 min,  0.393 sec
 *  cpu-time:     0 d,  0 h,  0 min,  5.425 sec
 * ratio c/w:    13.786 speedup
 ANC optimizer:
 * wall-time:     0 d,  0 h,  0 min,  0.202 sec
 *  cpu-time:     0 d,  0 h,  0 min,  2.780 sec
 * ratio c/w:    13.778 speedup


--- STDERR ---
normal termination of xtb
Note: The following floating-point exceptions are signalling: IEEE_UNDERFLOW_FLAG IEEE_DENORMAL
