34
 energy: -56.479862073436 gnorm: 0.000065331092 xtb: 6.7.1-6.fc44.fc44
O           -2.12895113150000        2.70756355070000       -0.69866799230000
C           -1.84923484230000        2.27234136840000       -1.91079073070000
O           -2.26830584030000        2.78898435730000       -2.90851440580000
H           -1.73271874040000        2.12607345680000        0.01183777720000
C           -0.90208567680000        1.05410660790000       -1.96315810120000
H            0.04721609540000        1.35425921240000       -1.49931613710000
H           -0.72813146230000        0.79599059290000       -3.00701638240000
N           -1.41334925630000       -0.10991451080000       -1.26708112120000
H           -1.69247765670000       -0.92642274860000       -1.79274730760000
C           -1.49427220250000       -0.20470792880000        0.06334272290000
O           -1.29098557830000        0.73607973940000        0.82296229140000
C           -1.84973133620000       -1.59961311150000        0.56025819410000
H           -2.26436947950000       -1.48525200310000        1.57486923050000
N           -2.75772164600000       -2.23014027160000       -0.38956137710000
H           -3.66258782790000       -1.77031059240000       -0.37680359150000
H           -2.90434825790000       -3.20223740790000       -0.13941360080000
C           -0.54882835790000       -2.43021810710000        0.64665494970000
H           -0.27040551070000       -2.72932672010000       -0.36513424420000
H           -0.74608563300000       -3.33094168760000        1.23232846530000
C            0.55434668840000       -1.63478512330000        1.26105543460000
C            0.76155660670000       -1.39294876840000        2.58765938470000
H            0.22672008420000       -1.77305435980000        3.43713191500000
N            1.81983678760000       -0.54405510110000        2.75256820640000
H            2.15053811670000       -0.19076154640000        3.63383131720000
C            2.30907316810000       -0.20010950780000        1.52734647680000
C            3.35602695000000        0.64237216140000        1.17544716840000
H            3.93536994080000        1.15528309420000        1.92892818170000
C            3.62461929130000        0.80189194030000       -0.16648374430000
H            4.42797893690000        1.45340817280000       -0.47626742490000
C            2.87790481790000        0.13251397400000       -1.14039539060000
H            3.12490823120000        0.28099671920000       -2.18158019390000
C            1.84222801100000       -0.70719419450000       -0.79799834720000
H            1.27923472700000       -1.22611463530000       -1.56037615210000
C            1.53769048310000       -0.87809690850000        0.55258127940000
