34
frame_0062
O       0.337614144300000      1.766077886300000     -1.183248299500000
C      -0.846594372500000      2.348612139200000     -1.354900599200000
O      -0.978441935500000      3.357315972000000     -1.985923425500000
H       0.290198011400000      0.996720502800000     -0.583427628900000
C      -2.023244951200000      1.625102501900000     -0.702311679000000
H      -2.929131742300000      1.861633502800000     -1.272245233000000
H      -2.154487935500000      2.006078149600000      0.317675307200000
N      -1.802850463500000      0.204675036200000     -0.598260857100000
H      -1.615710515700000     -0.339362744400000     -1.432298215200000
C      -2.137727662800000     -0.507321500500000      0.500945474500000
O      -2.493366778800000     -0.008634051500000      1.546261423400000
C      -1.974850584200000     -2.016655520500000      0.315105245900000
H      -2.801908213300000     -2.493693296200000      0.867221954400000
N      -1.965250344300000     -2.351143286600000     -1.104699928200000
H      -2.910454014200000     -2.345278182300000     -1.474219401500000
H      -1.588140012700000     -3.282263389600000     -1.241147640300000
C      -0.658662893200000     -2.459874402100000      0.986250326400000
H      -0.580242789100000     -3.547276603800000      0.905983795100000
H      -0.719269568000000     -2.195766863500000      2.043039495700000
C       0.547414296600000     -1.822882287800000      0.381897107100000
C       1.314866839400000     -2.300629421000000     -0.640518110600000
H       1.205259918600000     -3.206851654000000     -1.204895319300000
N       2.348597360100000     -1.442564519000000     -0.898441458000000
H       3.056941884800000     -1.575619947600000     -1.599267787500000
C       2.276750404000000     -0.387181060100000     -0.036863761500000
C       3.099642397900000      0.723729403400000      0.106319238100000
H       3.963969984800000      0.861267872400000     -0.525185633000000
C       2.771746776000000      1.637245125900000      1.083453838500000
H       3.389390928100000      2.510953491500000      1.223541886300000
C       1.653710600700000      1.456834319200000      1.904296485100000
H       1.435805090900000      2.196907233700000      2.659414189700000
C       0.834228432300000      0.358599392900000      1.773123091400000
H      -0.027132097500000      0.229027971000000      2.410231814400000
C       1.139729132800000     -0.584934028900000      0.786933590400000
