34
frame_0023
O      -2.539542647300000      1.743802682300000     -2.235062702600000
C      -1.707010408100000      2.476257735300000     -1.522636209000000
O      -1.786437484300000      3.669100423600000     -1.437211520100000
H      -2.341827702300000      0.768507698700000     -2.155212096400000
C      -0.584410600700000      1.683477681400000     -0.819160841100000
H       0.057858650400000      2.382837011100000     -0.286364647500000
H       0.004336235500000      1.176213628300000     -1.594570952500000
N      -1.088399499700000      0.694117439800000      0.119927461200000
H      -0.838348760900000      0.809760406200000      1.088504666600000
C      -1.634682756200000     -0.469609645700000     -0.269108260300000
O      -1.941263730800000     -0.694123732600000     -1.435927395400000
C      -1.870700471500000     -1.496794085100000      0.835197862200000
H      -2.107894154400000     -0.976224346400000      1.770250404700000
N      -2.955872201500000     -2.404724768300000      0.528333306300000
H      -2.798934354000000     -2.814266225300000     -0.388311825300000
H      -3.837776090000000     -1.904976400700000      0.484093004200000
C      -0.573928163200000     -2.318577154900000      1.031051864300000
H      -0.364064825600000     -2.850648509700000      0.101695827400000
H      -0.774633369100000     -3.055267848600000      1.809492761600000
C       0.590581998900000     -1.464809166000000      1.399880207000000
C       0.962568870100000     -1.063393905400000      2.650940721900000
H       0.525146804600000     -1.312154505800000      3.599097611600000
N       2.054838828600000     -0.240977171700000      2.578809688900000
H       2.541543272100000      0.151815931700000      3.366127761000000
C       2.418941569600000     -0.099772355900000      1.270213821900000
C       3.448593281600000      0.631791084200000      0.691429948500000
H       4.132899860700000      1.206881298400000      1.297429191000000
C       3.564384672100000      0.592589541500000     -0.680922861400000
H       4.352645517500000      1.149096175300000     -1.164884731200000
C       2.682605195200000     -0.158296058800000     -1.464290786900000
H       2.813526829800000     -0.164736426800000     -2.536266254800000
C       1.660756138800000     -0.885639469300000     -0.897225116400000
H       0.985338227000000     -1.463756049800000     -1.510509303300000
C       1.513690078100000     -0.858380503000000      0.490215287700000
