      -----------------------------------------------------------      
     |                   =====================                   |     
     |                           x T B                           |     
     |                   =====================                   |     
     |                         S. Grimme                         |     
     |          Mulliken Center for Theoretical Chemistry        |     
     |                    University of Bonn                     |     
      -----------------------------------------------------------      

   * xtb version 6.7.1-6.fc44.fc44 compiled by Fedora project on Sun Jan 18 23:32:34 UTC 2026

   xtb is free software: you can redistribute it and/or modify it under
   the terms of the GNU Lesser General Public License as published by
   the Free Software Foundation, either version 3 of the License, or
   (at your option) any later version.
   
   xtb is distributed in the hope that it will be useful,
   but WITHOUT ANY WARRANTY; without even the implied warranty of
   MERCHANTABILITY or FITNESS FOR A PARTICULAR PURPOSE.  See the
   GNU Lesser General Public License for more details.
   
   Cite this work as:
   * C. Bannwarth, E. Caldeweyher, S. Ehlert, A. Hansen, P. Pracht,
     J. Seibert, S. Spicher, S. Grimme, WIREs Comput. Mol. Sci., 2020, 11,
     e01493. DOI: 10.1002/wcms.1493
   
   for GFN2-xTB:
   * C. Bannwarth, S. Ehlert and S. Grimme., J. Chem. Theory Comput., 2019,
     15, 1652-1671. DOI: 10.1021/acs.jctc.8b01176
   for GFN1-xTB:
   * S. Grimme, C. Bannwarth, P. Shushkov, J. Chem. Theory Comput., 2017,
     13, 1989-2009. DOI: 10.1021/acs.jctc.7b00118
   for GFN0-xTB:
   * P. Pracht, E. Caldeweyher, S. Ehlert, S. Grimme, ChemRxiv, 2019, preprint.
     DOI: 10.26434/chemrxiv.8326202.v1
   for GFN-FF:
   * S. Spicher and S. Grimme, Angew. Chem. Int. Ed., 2020, 59, 15665-15673.
     DOI: 10.1002/anie.202004239
   
   for ALPB and GBSA implicit solvation:
   * S. Ehlert, M. Stahn, S. Spicher, S. Grimme, J. Chem. Theory Comput.,
     2021, 17, 4250-4261. DOI: 10.1021/acs.jctc.1c00471
   
   for ddCOSMO and CPCM-X implicit solvation:
   * M. Stahn, S. Ehlert, S. Grimme, J. Phys. Chem. A,
     2023, XX, XXXX-XXXX. DOI: 10.1021/acs.jpca.3c04382
   
   for DFT-D4:
   * E. Caldeweyher, C. Bannwarth and S. Grimme, J. Chem. Phys., 2017,
     147, 034112. DOI: 10.1063/1.4993215
   * E. Caldeweyher, S. Ehlert, A. Hansen, H. Neugebauer, S. Spicher,
     C. Bannwarth and S. Grimme, J. Chem. Phys., 2019, 150, 154122.
     DOI: 10.1063/1.5090222
   * E. Caldeweyher, J.-M. Mewes, S. Ehlert and S. Grimme, Phys. Chem. Chem. Phys.
     2020, 22, 8499-8512. DOI: 10.1039/D0CP00502A
   
   for sTDA-xTB:
   * S. Grimme and C. Bannwarth, J. Chem. Phys., 2016, 145, 054103.
     DOI: 10.1063/1.4959605
   
   in the mass-spec context:
   * V. Asgeirsson, C. Bauer and S. Grimme, Chem. Sci., 2017, 8, 4879.
     DOI: 10.1039/c7sc00601b
   * J. Koopman and S. Grimme, ACS Omega 2019, 4, 12, 15120-15133.
     DOI: 10.1021/acsomega.9b02011
   
   for metadynamics refer to:
   * S. Grimme, J. Chem. Theory Comput., 2019, 155, 2847-2862
     DOI: 10.1021/acs.jctc.9b00143
   
   for SPH calculations refer to:
   * S. Spicher and S. Grimme, J. Chem. Theory Comput., 2021, 17, 1701-1714
     DOI: 10.1021/acs.jctc.0c01306
   
   for ONIOM refer to:
   * C. Plett, A. Katbashev, S. Ehlert, S. Grimme, M. Bursch,
     Phys. Chem. Chem. Phys., 2023, 25, 17860-17868. DOI: 10.1039/D3CP02178E
   
   for DIPRO refer to:
   * J. Kohn, N. Gildemeister, S. Grimme, D. Fazzi, A. Hansen,
     J. Chem. Phys., 2023, just accepted.
   
   for PTB refer to:
   * S. Grimme, M. Mueller, A. Hansen, J. Chem. Phys., 2023, 158, 124111.
     DOI: 10.1063/5.0137838
   
   with help from (in alphabetical order)
   P. Atkinson, C. Bannwarth, F. Bohle, G. Brandenburg, E. Caldeweyher
   M. Checinski, S. Dohm, S. Ehlert, S. Ehrlich, I. Gerasimov, C. Hölzer
   A. Katbashev, J. Kohn, J. Koopman, C. Lavigne, S. Lehtola, F. März, M. Müller,
   F. Musil, H. Neugebauer, J. Pisarek, C. Plett, P. Pracht, F. Pultar,
   J. Seibert, P. Shushkov, S. Spicher, M. Stahn, M. Steiner, T. Strunk,
   J. Stückrath, T. Rose, and J. Unsleber
   
 * started run on 2026/10/01 at 18:03:19.579     
   ID    Z sym.   atoms
    1    8 O      1, 3, 11
    2    6 C      2, 5, 10, 12, 17, 20, 21, 25, 26, 28, 30, 32, 34
    3    1 H      4, 6, 7, 9, 13, 15, 16, 18, 19, 22, 24, 27, 29, 31, 33
    4    7 N      8, 14, 23

           -------------------------------------------------
          |                Calculation Setup                |
           -------------------------------------------------

          program call               : /usr/bin/xtb input.xyz --opt --gfn 2 --chrg 0 --uhf 0
          hostname                   : fedora
          coordinate file            : input.xyz
          omp threads                :                    16


           -------------------------------------------------
          |                 G F N 2 - x T B                 |
           -------------------------------------------------

        Reference                      10.1021/acs.jctc.8b01176
      * Hamiltonian:
        H0-scaling (s, p, d)           1.850000    2.230000    2.230000
        zeta-weighting                 0.500000
      * Dispersion:
        s8                             2.700000
        a1                             0.520000
        a2                             5.000000
        s9                             5.000000
      * Repulsion:
        kExp                           1.500000    1.000000
        rExp                           1.000000
      * Coulomb:
        alpha                          2.000000
        third order                    shell-resolved
        anisotropic                    true
        a3                             3.000000
        a5                             4.000000
        cn-shift                       1.200000
        cn-exp                         4.000000
        max-rad                        5.000000


          ...................................................
          :                      SETUP                      :
          :.................................................:
          :  # basis functions                  91          :
          :  # atomic orbitals                  91          :
          :  # shells                           53          :
          :  # electrons                       100          :
          :  max. iterations                   250          :
          :  Hamiltonian                  GFN2-xTB          :
          :  restarted?                      false          :
          :  GBSA solvation                  false          :
          :  PC potential                    false          :
          :  electronic temp.          300.0000000     K    :
          :  accuracy                    1.0000000          :
          :  -> integral cutoff          0.2500000E+02      :
          :  -> integral neglect         0.1000000E-07      :
          :  -> SCF convergence          0.1000000E-05 Eh   :
          :  -> wf. convergence          0.1000000E-03 e    :
          :  Broyden damping             0.4000000          :
          :  net charge                          0          :
          :  unpaired electrons                  0          :
          ...................................................

 iter      E             dE          RMSdq      gap      omega  full diag
   1    -57.0938571 -0.570939E+02  0.417E+00    3.02       0.0  T
   2    -57.2217052 -0.127848E+00  0.244E+00    3.45       1.0  T
   3    -57.2284431 -0.673793E-02  0.132E+00    3.56       1.0  T
   4    -57.2285571 -0.114014E-03  0.523E-01    3.49       1.0  T
   5    -57.2368661 -0.830897E-02  0.119E-01    3.51       1.0  T
   6    -57.2370377 -0.171591E-03  0.596E-02    3.51       1.0  T
   7    -57.2370769 -0.391838E-04  0.252E-02    3.51       1.0  T
   8    -57.2370769 -0.954779E-07  0.111E-02    3.51       1.5  T
   9    -57.2370791 -0.216304E-05  0.355E-03    3.51       4.8  T
  10    -57.2370792 -0.552934E-07  0.153E-03    3.51      11.2  T
  11    -57.2370792 -0.148328E-07  0.657E-04    3.51      26.1  T
  12    -57.2370792 -0.498247E-08  0.225E-04    3.51      76.1  T

   *** convergence criteria satisfied after 12 iterations ***

         #    Occupation            Energy/Eh            Energy/eV
      -------------------------------------------------------------
         1        2.0000           -0.7372031             -20.0603
       ...           ...                  ...                  ...
        44        2.0000           -0.4320936             -11.7579
        45        2.0000           -0.4290905             -11.6761
        46        2.0000           -0.4271389             -11.6230
        47        2.0000           -0.4070376             -11.0761
        48        2.0000           -0.3967042             -10.7949
        49        2.0000           -0.3849976             -10.4763
        50        2.0000           -0.3766355             -10.2488 (HOMO)
        51                         -0.2476996              -6.7402 (LUMO)
        52                         -0.2389559              -6.5023
        53                         -0.2329993              -6.3402
        54                         -0.2117848              -5.7630
        55                         -0.1753473              -4.7714
       ...                                ...                  ...
        91                          0.7024555              19.1148
      -------------------------------------------------------------
                  HL-Gap            0.1289360 Eh            3.5085 eV
             Fermi-level           -0.3121675 Eh           -8.4945 eV

 SCC (total)                   0 d,  0 h,  0 min,  0.731 sec
 SCC setup                      ...        0 min,  0.003 sec (  0.447%)
 Dispersion                     ...        0 min,  0.014 sec (  1.914%)
 classical contributions        ...        0 min,  0.007 sec (  0.908%)
 integral evaluation            ...        0 min,  0.011 sec (  1.569%)
 iterations                     ...        0 min,  0.681 sec ( 93.157%)
 molecular gradient             ...        0 min,  0.014 sec (  1.949%)
 printout                       ...        0 min,  0.000 sec (  0.055%)

         :::::::::::::::::::::::::::::::::::::::::::::::::::::
         ::                     SUMMARY                     ::
         :::::::::::::::::::::::::::::::::::::::::::::::::::::
         :: total energy             -56.479531457316 Eh    ::
         :: gradient norm              0.000055218177 Eh/a0 ::
         :: HOMO-LUMO gap              3.508526775467 eV    ::
         ::.................................................::
         :: SCC energy               -57.236308712975 Eh    ::
         :: -> isotropic ES            0.096984183605 Eh    ::
         :: -> anisotropic ES          0.005973575503 Eh    ::
         :: -> anisotropic XC          0.019644642856 Eh    ::
         :: -> dispersion             -0.037649609688 Eh    ::
         :: repulsion energy           0.756777255659 Eh    ::
         :: add. restraining           0.000000000000 Eh    ::
         :: total charge               0.000000000000 e     ::
         :::::::::::::::::::::::::::::::::::::::::::::::::::::

      ----------------------------------------------------------- 
     |                   =====================                   |
     |                        A N C O P T                        |
     |                   =====================                   |
     |               Approximate Normal Coordinate               |
     |                Rational Function Optimizer                |
      ----------------------------------------------------------- 
      ----------------------------------------------------------- 
     |                   =====================                   |
     |                        A N C O P T                        |
     |                   =====================                   |
     |               Approximate Normal Coordinate               |
     |                Rational Function Optimizer                |
      ----------------------------------------------------------- 

          ...................................................
          :                      SETUP                      :
          :.................................................:
          :   optimization level            normal          :
          :   max. optcycles                   200          :
          :   ANC micro-cycles                  20          :
          :   degrees of freedom                96          :
          :.................................................:
          :   RF solver                   davidson          :
          :   write xtbopt.log                true          :
          :   linear?                        false          :
          :   energy convergence         0.5000000E-05 Eh   :
          :   grad. convergence          0.1000000E-02 Eh/α :
          :   maxmium RF displ.          1.0000000          :
          :   Hlow (freq-cutoff)         0.1000000E-01      :
          :   Hmax (freq-cutoff)         5.0000000          :
          :   S6 in model hess.         20.0000000          :
          ...................................................

generating ANC from exact Hessian ...
Using Lindh-Hessian (1995)
 Shifting diagonal of input Hessian by    9.4627337525005212E-003
 Lowest  eigenvalues of input Hessian
    0.000000    0.000000    0.000000    0.000000    0.000000    0.000000
    0.010000    0.010267    0.010733    0.011582    0.012325    0.014627
    0.017398    0.018554    0.019076    0.021533    0.023618    0.024701
 Highest eigenvalues
    2.000060    2.007880    2.094373    2.201992    2.285544    2.367783


........................................................................
.............................. CYCLE    1 ..............................
........................................................................

 iter      E             dE          RMSdq      gap      omega  full diag
   1    -57.2370792 -0.572371E+02  0.994E-05    3.51       0.0  T
   2    -57.2370792 -0.467111E-10  0.585E-05    3.51     293.4  T
   3    -57.2370792 -0.337508E-11  0.368E-05    3.51     465.5  T
     SCC iter.                  ...        0 min,  0.033 sec
     gradient                   ...        0 min,  0.002 sec
 * total energy  :   -56.4795315 Eh     change       -0.5998260E-09 Eh
   gradient norm :     0.0000546 Eh/α   predicted     0.0000000E+00 (-100.00%)
   displ. norm   :     0.0000818 α      lambda        0.0000000E+00
   maximum displ.:     0.0000309 α      in ANC's #57, #28, #45, ...

   *** GEOMETRY OPTIMIZATION CONVERGED AFTER 1 ITERATIONS ***

------------------------------------------------------------------------
 total energy gain   :        -0.0000000 Eh       -0.0000 kcal/mol
 total RMSD          :         0.0000001 a0        0.0000 Å
 total power (kW/mol):        -0.0000016 (step)   -0.0000 (real)
------------------------------------------------------------------------

 ANCopt (total)                0 d,  0 h,  0 min,  0.118 sec
 optimizer setup                ...        0 min,  0.000 sec (  0.076%)
 model hessian                  ...        0 min,  0.010 sec (  8.727%)
 ANC generation                 ...        0 min,  0.063 sec ( 52.780%)
 coordinate transformation      ...        0 min,  0.000 sec (  0.016%)
 single point calculation       ...        0 min,  0.045 sec ( 37.966%)
 optimization log               ...        0 min,  0.000 sec (  0.068%)
 hessian update                 ...        0 min,  0.000 sec (  0.001%)
 rational function              ...        0 min,  0.000 sec (  0.060%)

================
 final structure:
================
34
 xtb: 6.7.1-6.fc44.fc44
O           -2.53954264730000        1.74380268230000       -2.23506270260000
C           -1.70701040810000        2.47625773530000       -1.52263620900000
O           -1.78643748430000        3.66910042360000       -1.43721152010000
H           -2.34182770230000        0.76850769870000       -2.15521209640000
C           -0.58441060070000        1.68347768140000       -0.81916084110000
H            0.05785865040000        2.38283701110000       -0.28636464750000
H            0.00433623550000        1.17621362830000       -1.59457095250000
N           -1.08839949970000        0.69411743980000        0.11992746120000
H           -0.83834876090000        0.80976040620000        1.08850466660000
C           -1.63468275620000       -0.46960964570000       -0.26910826030000
O           -1.94126373080000       -0.69412373260000       -1.43592739540000
C           -1.87070047150000       -1.49679408510000        0.83519786220000
H           -2.10789415440000       -0.97622434640000        1.77025040470000
N           -2.95587220150000       -2.40472476830000        0.52833330630000
H           -2.79893435400000       -2.81426622530000       -0.38831182530000
H           -3.83777609000000       -1.90497640070000        0.48409300420000
C           -0.57392816320000       -2.31857715490000        1.03105186430000
H           -0.36406482560000       -2.85064850970000        0.10169582740000
H           -0.77463336910000       -3.05526784860000        1.80949276160000
C            0.59058199890000       -1.46480916600000        1.39988020700000
C            0.96256887010000       -1.06339390540000        2.65094072190000
H            0.52514680460000       -1.31215450580000        3.59909761160000
N            2.05483882860000       -0.24097717170000        2.57880968890000
H            2.54154327210000        0.15181593170000        3.36612776100000
C            2.41894156960000       -0.09977235590000        1.27021382190000
C            3.44859328160000        0.63179108420000        0.69142994850000
H            4.13289986070000        1.20688129840000        1.29742919100000
C            3.56438467210000        0.59258954150000       -0.68092286140000
H            4.35264551750000        1.14909617530000       -1.16488473120000
C            2.68260519520000       -0.15829605880000       -1.46429078690000
H            2.81352682980000       -0.16473642680000       -2.53626625480000
C            1.66075613880000       -0.88563946930000       -0.89722511640000
H            0.98533822700000       -1.46375604980000       -1.51050930330000
C            1.51369007810000       -0.85838050300000        0.49021528770000

 Bond Distances (Angstroems)
 ---------------------------
O1-C2=1.3180         O1-H4=0.9983         C2-O1=1.3180         C2-O3=1.1985         C2-C5=1.5439         O3-C2=1.1985         
H4-O1=0.9983         C5-C2=1.5439         C5-H6=1.0888         C5-H7=1.0978         C5-N8=1.4542         H6-C5=1.0888         
H7-C5=1.0978         N8-C5=1.4542         N8-H9=1.0070         N8-C10=1.3431        H9-N8=1.0070         C10-N8=1.3431        
C10-O11=1.2271       C10-C12=1.5265       O11-C10=1.2271       C12-C10=1.5265       C12-H13=1.0962       C12-N14=1.4478       
C12-C17=1.5477       H13-C12=1.0962       N14-C12=1.4478       N14-H15=1.0162       N14-H16=1.0146       H15-N14=1.0162       
H16-N14=1.0146       C17-C12=1.5477       C17-H18=1.0913       C17-H19=1.0904       C17-C20=1.4903       H18-C17=1.0913       
H19-C17=1.0904       C20-C17=1.4903       C20-C21=1.3655       C20-C34=1.4309       C21-C20=1.3655       C21-H22=1.0734       
C21-N23=1.3692       H22-C21=1.0734       N23-C21=1.3692       N23-H24=1.0055       N23-C25=1.3656       H24-N23=1.0055       
C25-N23=1.3656       C25-C26=1.3894       C25-C34=1.4154       C26-C25=1.3894       C26-H27=1.0799       C26-C28=1.3778       
H27-C26=1.0799       C28-C26=1.3778       C28-H29=1.0795       C28-C30=1.3982       H29-C28=1.0795       C30-C28=1.3982       
C30-H31=1.0800       C30-C32=1.3765       H31-C30=1.0800       C32-C30=1.3765       C32-H33=1.0801       C32-C34=1.3955       
H33-C32=1.0801       C34-C20=1.4309       C34-C25=1.4154       C34-C32=1.3955       
 C  H  Rav=1.0857 sigma=0.0078  Rmin=1.0734  Rmax=1.0978    10
 C  C  Rav=1.4381 sigma=0.0663  Rmin=1.3655  Rmax=1.5477    12
 N  H  Rav=1.0108 sigma=0.0046  Rmin=1.0055  Rmax=1.0162     4
 N  C  Rav=1.3960 sigma=0.0458  Rmin=1.3431  Rmax=1.4542     5
 O  H  Rav=0.9983 sigma=0.0000  Rmin=0.9983  Rmax=0.9983     1
 O  C  Rav=1.2479 sigma=0.0509  Rmin=1.1985  Rmax=1.3180     3

 selected bond angles (degree)
 --------------------
H4-O1-C2=112.00                O3-C2-O1=123.35                C5-C2-O1=114.85                C5-C2-O3=121.79                
H6-C5-C2=108.79                H7-C5-C2=107.78                H7-C5-H6=109.03                N8-C5-C2=113.05                
N8-C5-H6=108.99                N8-C5-H7=109.12                H9-N8-C5=117.19                C10-N8-C5=122.91               
C10-N8-H9=118.63               O11-C10-N8=122.38              C12-C10-N8=115.87              C12-C10-O11=121.74             

 selected dihedral angles (degree)
 ---------------------------------
O3-C2-O1-H4=182.48            C5-C2-O1-H4=  3.81            H6-C5-C2-O1=178.38            H6-C5-C2-O3=359.69            
H7-C5-C2-O1= 60.30            H7-C5-C2-O3=241.61            N8-C5-C2-O1=299.61            N8-C5-C2-O3=120.92            
H9-N8-C5-C2=242.26            H9-N8-C5-H6=  3.37            H9-N8-C5-H7=122.34            C10-N8-C5-C2= 75.33           
C10-N8-C5-H6=196.44           C10-N8-C5-H7=315.41           O11-C10-N8-C5=348.20          O11-C10-N8-H9=181.44          
C12-C10-N8-C5=168.98          C12-C10-N8-H9=  2.23          
           -------------------------------------------------
          |                Final Singlepoint                |
           -------------------------------------------------

          ...................................................
          :                      SETUP                      :
          :.................................................:
          :  # basis functions                  91          :
          :  # atomic orbitals                  91          :
          :  # shells                           53          :
          :  # electrons                       100          :
          :  max. iterations                   250          :
          :  Hamiltonian                  GFN2-xTB          :
          :  restarted?                      false          :
          :  GBSA solvation                  false          :
          :  PC potential                    false          :
          :  electronic temp.          300.0000000     K    :
          :  accuracy                    1.0000000          :
          :  -> integral cutoff          0.2500000E+02      :
          :  -> integral neglect         0.1000000E-07      :
          :  -> SCF convergence          0.1000000E-05 Eh   :
          :  -> wf. convergence          0.1000000E-03 e    :
          :  Broyden damping             0.4000000          :
          :  net charge                          0          :
          :  unpaired electrons                  0          :
          ...................................................

 iter      E             dE          RMSdq      gap      omega  full diag
   1    -57.2370792 -0.572371E+02  0.117E-05    3.51       0.0  T
   2    -57.2370792 -0.110134E-11  0.839E-06    3.51    2043.0  T
   3    -57.2370792 -0.945022E-12  0.483E-06    3.51    3549.9  T

   *** convergence criteria satisfied after 3 iterations ***

         #    Occupation            Energy/Eh            Energy/eV
      -------------------------------------------------------------
         1        2.0000           -0.7372049             -20.0604
       ...           ...                  ...                  ...
        44        2.0000           -0.4320936             -11.7579
        45        2.0000           -0.4290903             -11.6761
        46        2.0000           -0.4271388             -11.6230
        47        2.0000           -0.4070379             -11.0761
        48        2.0000           -0.3967040             -10.7949
        49        2.0000           -0.3849978             -10.4763
        50        2.0000           -0.3766355             -10.2488 (HOMO)
        51                         -0.2476994              -6.7402 (LUMO)
        52                         -0.2389558              -6.5023
        53                         -0.2330007              -6.3403
        54                         -0.2117844              -5.7629
        55                         -0.1753471              -4.7714
       ...                                ...                  ...
        91                          0.7024555              19.1148
      -------------------------------------------------------------
                  HL-Gap            0.1289362 Eh            3.5085 eV
             Fermi-level           -0.3121674 Eh           -8.4945 eV

 SCC (total)                   0 d,  0 h,  0 min,  0.112 sec
 SCC setup                      ...        0 min,  0.005 sec (  4.693%)
 Dispersion                     ...        0 min,  0.009 sec (  7.964%)
 classical contributions        ...        0 min,  0.005 sec (  4.642%)
 integral evaluation            ...        0 min,  0.005 sec (  4.188%)
 iterations                     ...        0 min,  0.045 sec ( 40.408%)
 molecular gradient             ...        0 min,  0.042 sec ( 37.730%)
 printout                       ...        0 min,  0.000 sec (  0.348%)

         :::::::::::::::::::::::::::::::::::::::::::::::::::::
         ::                     SUMMARY                     ::
         :::::::::::::::::::::::::::::::::::::::::::::::::::::
         :: total energy             -56.479531457938 Eh    ::
         :: gradient norm              0.000054570279 Eh/a0 ::
         :: HOMO-LUMO gap              3.508531301575 eV    ::
         ::.................................................::
         :: SCC energy               -57.236308713597 Eh    ::
         :: -> isotropic ES            0.096982724429 Eh    ::
         :: -> anisotropic ES          0.005973749198 Eh    ::
         :: -> anisotropic XC          0.019644499225 Eh    ::
         :: -> dispersion             -0.037649639437 Eh    ::
         :: repulsion energy           0.756777255659 Eh    ::
         :: add. restraining           0.000000000000 Eh    ::
         :: total charge              -0.000000000000 e     ::
         :::::::::::::::::::::::::::::::::::::::::::::::::::::

           -------------------------------------------------
          |                Property Printout                |
           -------------------------------------------------

    * Orbital Energies and Occupations

         #    Occupation            Energy/Eh            Energy/eV
      -------------------------------------------------------------
         1        2.0000           -0.7372049             -20.0604
       ...           ...                  ...                  ...
        38        2.0000           -0.4700838             -12.7916
        39        2.0000           -0.4686750             -12.7533
        40        2.0000           -0.4659275             -12.6785
        41        2.0000           -0.4600476             -12.5185
        42        2.0000           -0.4500032             -12.2452
        43        2.0000           -0.4401862             -11.9781
        44        2.0000           -0.4320936             -11.7579
        45        2.0000           -0.4290903             -11.6761
        46        2.0000           -0.4271388             -11.6230
        47        2.0000           -0.4070379             -11.0761
        48        2.0000           -0.3967040             -10.7949
        49        2.0000           -0.3849978             -10.4763
        50        2.0000           -0.3766355             -10.2488 (HOMO)
        51                         -0.2476994              -6.7402 (LUMO)
        52                         -0.2389558              -6.5023
        53                         -0.2330007              -6.3403
        54                         -0.2117844              -5.7629
        55                         -0.1753471              -4.7714
        56                         -0.0860873              -2.3426
        57                         -0.0243120              -0.6616
        58                          0.0031670               0.0862
        59                          0.0396755               1.0796
        60                          0.0549941               1.4965
        61                          0.0798052               2.1716
       ...                                ...                  ...
        91                          0.7024555              19.1148
      -------------------------------------------------------------
                  HL-Gap            0.1289362 Eh            3.5085 eV
             Fermi-level           -0.3121674 Eh           -8.4945 eV

     #   Z          covCN         q      C6AA      α(0)
     1   8 O        1.655    -0.375    20.368     6.092
     2   6 C        2.685     0.359    20.912     7.484
     3   8 O        0.856    -0.377    21.233     6.178
     4   1 H        0.800     0.364     0.556     1.172
     5   6 C        3.737    -0.036    21.308     6.587
     6   1 H        0.925     0.073     2.053     2.241
     7   1 H        0.924     0.077     2.010     2.217
     8   7 N        2.685    -0.170    24.674     7.377
     9   1 H        0.860     0.179     1.217     1.728
    10   6 C        2.754     0.261    22.600     7.785
    11   8 O        0.859    -0.454    22.787     6.400
    12   6 C        3.786     0.034    20.013     6.372
    13   1 H        0.924     0.034     2.526     2.485
    14   7 N        2.633    -0.335    28.620     7.945
    15   1 H        0.860     0.162     1.324     1.803
    16   1 H        0.860     0.145     1.435     1.876
    17   6 C        3.809    -0.067    21.774     6.642
    18   1 H        0.924     0.056     2.244     2.343
    19   1 H        0.924     0.061     2.192     2.315
    20   6 C        3.053    -0.039    28.915     8.819
    21   6 C        3.031    -0.012    28.276     8.722
    22   1 H        0.926     0.033     2.540     2.492
    23   7 N        2.777    -0.107    23.330     7.174
    24   1 H        0.860     0.160     1.333     1.809
    25   6 C        3.084     0.042    26.959     8.512
    26   6 C        2.908    -0.053    29.318     8.879
    27   1 H        0.926     0.026     2.637     2.540
    28   6 C        2.925    -0.036    28.888     8.814
    29   1 H        0.926     0.033     2.548     2.496
    30   6 C        2.920    -0.042    29.039     8.837
    31   1 H        0.926     0.031     2.577     2.510
    32   6 C        2.911    -0.038    28.948     8.822
    33   1 H        0.926     0.032     2.564     2.504
    34   6 C        3.118    -0.023    28.414     8.731

 Mol. C6AA /au·bohr⁶  :      13324.093218
 Mol. C8AA /au·bohr⁸  :     312295.711201
 Mol. α(0) /au        :        178.703967


Wiberg/Mayer (AO) data.
largest (>0.10) Wiberg bond orders for each atom

 ---------------------------------------------------------------------------
     #   Z sym  total        # sym  WBO       # sym  WBO       # sym  WBO
 ---------------------------------------------------------------------------
     1   8 O    2.232 --     2 C    1.200     4 H    0.769     3 O    0.183
     2   6 C    3.932 --     3 O    1.773     1 O    1.200     5 C    0.927
     3   8 O    2.065 --     2 C    1.773     1 O    0.183
     4   1 H    0.867 --     1 O    0.769
     5   6 C    3.962 --     8 N    0.985     6 H    0.975     7 H    0.949
                             2 C    0.927
     6   1 H    0.994 --     5 C    0.975
     7   1 H    0.994 --     5 C    0.949
     8   7 N    3.459 --    10 C    1.284     5 C    0.985     9 H    0.938
                            11 O    0.186
     9   1 H    0.968 --     8 N    0.938
    10   6 C    3.938 --    11 O    1.615     8 N    1.284    12 C    0.944
    11   8 O    2.019 --    10 C    1.615     8 N    0.186
    12   6 C    3.988 --    14 N    1.030    13 H    0.959    17 C    0.947
                            10 C    0.944
    13   1 H    0.999 --    12 C    0.959
    14   7 N    3.016 --    12 C    1.030    16 H    0.963    15 H    0.956
    15   1 H    0.974 --    14 N    0.956
    16   1 H    0.978 --    14 N    0.963
    17   6 C    3.991 --    20 C    1.021    18 H    0.970    19 H    0.967
                            12 C    0.947
    18   1 H    0.997 --    17 C    0.970
    19   1 H    0.995 --    17 C    0.967
    20   6 C    3.976 --    21 C    1.579    34 C    1.201    17 C    1.021
    21   6 C    3.950 --    20 C    1.579    23 N    1.196    22 H    0.970
    22   1 H    0.998 --    21 C    0.970
    23   7 N    3.541 --    21 C    1.196    25 C    1.174    24 H    0.947
    24   1 H    0.974 --    23 N    0.947
    25   6 C    3.958 --    26 C    1.337    34 C    1.251    23 N    1.174
    26   6 C    3.989 --    28 C    1.495    25 C    1.337    27 H    0.968
                            32 C    0.114
    27   1 H    0.999 --    26 C    0.968
    28   6 C    3.991 --    26 C    1.495    30 C    1.370    29 H    0.972
    29   1 H    0.999 --    28 C    0.972
    30   6 C    3.991 --    32 C    1.505    28 C    1.370    31 H    0.972
    31   1 H    0.999 --    30 C    0.972
    32   6 C    3.992 --    30 C    1.505    34 C    1.329    33 H    0.968
                            26 C    0.114
    33   1 H    0.999 --    32 C    0.968
    34   6 C    3.984 --    32 C    1.329    25 C    1.251    20 C    1.201
 ---------------------------------------------------------------------------

Topologies differ in total number of bonds
Writing topology from bond orders to xtbtopo.mol

molecular dipole:
                 x           y           z       tot (Debye)
 q only:        1.156      -1.043       1.800
   full:        1.501      -1.013       2.124       7.094
molecular quadrupole (traceless):
                xx          xy          yy          xz          yz          zz
 q only:        1.895      11.312     -11.791      -3.343       7.442       9.896
  q+dip:        3.018      14.417     -20.128      -2.694      12.881      17.111
   full:        4.090      12.537     -19.154      -2.938      12.469      15.064

           -------------------------------------------------
          |                Geometry Summary                 |
           -------------------------------------------------

      molecular mass/u    :      261.2770023
   center of mass at/Å    :        0.0000000       0.0000000       0.0000000
  moments of inertia/u·Å² :        0.1050960E+04   0.1533704E+04   0.2112306E+04
rotational constants/cm⁻¹ :        0.1604022E-01   0.1099145E-01   0.7980678E-02

 * 32 selected distances

     #   Z          #   Z                                           value/Å
     1   8 O        2   6 C                                       1.3180107
     2   6 C        3   8 O                                       1.1985324
     1   8 O        4   1 H                                       0.9983325 (min)
     5   6 C        6   1 H                                       1.0887999
     5   6 C        7   1 H                                       1.0978163
     5   6 C        8   7 N                                       1.4542097
     8   7 N        9   1 H                                       1.0069959
     8   7 N       10   6 C                                       1.3431438
    10   6 C       11   8 O                                       1.2271372
    12   6 C       13   1 H                                       1.0961648
    12   6 C       14   7 N                                       1.4477921
    14   7 N       15   1 H                                       1.0161654
    14   7 N       16   1 H                                       1.0146232
    17   6 C       18   1 H                                       1.0912586
    17   6 C       19   1 H                                       1.0903973
    17   6 C       20   6 C                                       1.4903149 (max)
    20   6 C       21   6 C                                       1.3655260
    21   6 C       22   1 H                                       1.0734159
    21   6 C       23   7 N                                       1.3691699
    23   7 N       24   1 H                                       1.0055036
    23   7 N       25   6 C                                       1.3656255
    25   6 C       26   6 C                                       1.3893735
    26   6 C       27   1 H                                       1.0799257
    26   6 C       28   6 C                                       1.3777870
    28   6 C       29   1 H                                       1.0794786
    28   6 C       30   6 C                                       1.3982238
    30   6 C       31   1 H                                       1.0799600
    30   6 C       32   6 C                                       1.3765056
    32   6 C       33   1 H                                       1.0800583
    20   6 C       34   6 C                                       1.4308651
    25   6 C       34   6 C                                       1.4154027
    32   6 C       34   6 C                                       1.3954794

 * 6 distinct bonds (by element types)

   Z      Z             #   av. dist./Å        max./Å        min./Å
   1 H    6 C          10     1.0857275     1.0978163     1.0734159
   6 C    6 C           9     1.4043864     1.4903149     1.3655260
   1 H    7 N           4     1.0108220     1.0161654     1.0055036
   6 C    7 N           5     1.3959882     1.4542097     1.3431438
   1 H    8 O           1     0.9983325     0.9983325     0.9983325
   6 C    8 O           3     1.2478934     1.3180107     1.1985324


optimized geometry written to: xtbopt.xyz


           -------------------------------------------------
          | TOTAL ENERGY              -56.479531457938 Eh   |
          | GRADIENT NORM               0.000054570279 Eh/α |
          | HOMO-LUMO GAP               3.508531301575 eV   |
           -------------------------------------------------

------------------------------------------------------------------------
 * finished run on 2026/10/01 at 18:03:20.585     
------------------------------------------------------------------------
 total:
 * wall-time:     0 d,  0 h,  0 min,  1.006 sec
 *  cpu-time:     0 d,  0 h,  0 min, 13.718 sec
 * ratio c/w:    13.637 speedup
 SCF:
 * wall-time:     0 d,  0 h,  0 min,  0.731 sec
 *  cpu-time:     0 d,  0 h,  0 min, 10.062 sec
 * ratio c/w:    13.762 speedup
 ANC optimizer:
 * wall-time:     0 d,  0 h,  0 min,  0.232 sec
 *  cpu-time:     0 d,  0 h,  0 min,  3.103 sec
 * ratio c/w:    13.384 speedup


--- STDERR ---
normal termination of xtb
Note: The following floating-point exceptions are signalling: IEEE_UNDERFLOW_FLAG IEEE_DENORMAL
