34
 energy: -56.479531457938 gnorm: 0.000054570279 xtb: 6.7.1-6.fc44.fc44
O           -2.53954264730000        1.74380268230000       -2.23506270260000
C           -1.70701040810000        2.47625773530000       -1.52263620900000
O           -1.78643748430000        3.66910042360000       -1.43721152010000
H           -2.34182770230000        0.76850769870000       -2.15521209640000
C           -0.58441060070000        1.68347768140000       -0.81916084110000
H            0.05785865040000        2.38283701110000       -0.28636464750000
H            0.00433623550000        1.17621362830000       -1.59457095250000
N           -1.08839949970000        0.69411743980000        0.11992746120000
H           -0.83834876090000        0.80976040620000        1.08850466660000
C           -1.63468275620000       -0.46960964570000       -0.26910826030000
O           -1.94126373080000       -0.69412373260000       -1.43592739540000
C           -1.87070047150000       -1.49679408510000        0.83519786220000
H           -2.10789415440000       -0.97622434640000        1.77025040470000
N           -2.95587220150000       -2.40472476830000        0.52833330630000
H           -2.79893435400000       -2.81426622530000       -0.38831182530000
H           -3.83777609000000       -1.90497640070000        0.48409300420000
C           -0.57392816320000       -2.31857715490000        1.03105186430000
H           -0.36406482560000       -2.85064850970000        0.10169582740000
H           -0.77463336910000       -3.05526784860000        1.80949276160000
C            0.59058199890000       -1.46480916600000        1.39988020700000
C            0.96256887010000       -1.06339390540000        2.65094072190000
H            0.52514680460000       -1.31215450580000        3.59909761160000
N            2.05483882860000       -0.24097717170000        2.57880968890000
H            2.54154327210000        0.15181593170000        3.36612776100000
C            2.41894156960000       -0.09977235590000        1.27021382190000
C            3.44859328160000        0.63179108420000        0.69142994850000
H            4.13289986070000        1.20688129840000        1.29742919100000
C            3.56438467210000        0.59258954150000       -0.68092286140000
H            4.35264551750000        1.14909617530000       -1.16488473120000
C            2.68260519520000       -0.15829605880000       -1.46429078690000
H            2.81352682980000       -0.16473642680000       -2.53626625480000
C            1.66075613880000       -0.88563946930000       -0.89722511640000
H            0.98533822700000       -1.46375604980000       -1.51050930330000
C            1.51369007810000       -0.85838050300000        0.49021528770000
