68
 energy: -106.573894676338 gnorm: 0.000847771738 xtb: 6.7.1-6.fc44.fc44
O            1.09643465860719       -0.43179447570946        1.27357995739186
O            0.86594902311804       -0.82936317873305       -1.71613756758537
O           -3.25229682044102       -2.56445130349457        0.14780080919989
O           -3.24466422278778        3.17295817452470        0.16432902472178
O           -1.30489651765290        1.62808405070716       -1.44623254124704
O            2.13935579241984        2.81664627709465        1.25143697193176
N            0.42030531591080       -2.54664973329832       -0.37466756295459
N           -2.23009948186389       -0.88892515331796       -0.96785381741118
N           -3.83903032423128        1.02004075264632        0.21443989556995
N           -0.60410609345687        2.27025617543649        0.59920977765385
N            1.92434827309730        1.71715390050602       -0.71153365933856
N            3.20064345447368       -0.49711696615704        0.49729026063100
C            1.98185196658023       -1.03130885348637        0.69043376624254
C            1.77386151839374       -2.45338508161473        0.15621286598774
C            1.82828946732013       -3.49315154954345        1.28226642788478
C            0.35765465812311       -3.67438264889168        1.65409056981800
C           -0.34104695499475       -3.57782622451131        0.30210624976867
C            0.05560421761446       -1.65030197268962       -1.29837340483001
C           -1.38859918993861       -1.71579718197650       -1.81239175393629
C           -1.45270216378146       -1.19466557450634       -3.24372482512609
C           -3.09343793180975       -1.37359652841258       -0.07788122462034
C           -3.90039087493131       -0.32924496777575        0.72434604498937
C           -5.35876893039307       -0.78271684808090        0.78509366293574
C           -2.99867635586364        2.03865967736323        0.51141593559094
C           -1.73272419728691        1.70669281617840        1.31595561483751
C           -1.82255580900038        2.34469962567741        2.69667407362801
C           -0.45986709918714        2.12788305741951       -0.71788387061028
C            0.90074294542912        2.60564768615322       -1.24119753104869
C            0.94535329235043        2.57850411008468       -2.75975073504315
C            2.41533059924461        1.87466296519598        0.52700348505721
C            3.48005002381446        0.86079695342430        0.94203372647902
C            4.83392536866015        1.18827764386921        0.30554701082641
C            5.50756188258977       -0.17750106220912        0.21987019290945
C            4.35014476348740       -1.10357986074055       -0.15026652007441
H            2.48563807248211       -2.65940914803829       -0.64824019152091
H            2.24630854423279       -4.42904580124236        0.90800120937892
H            2.43162508685328       -3.14992093596971        2.12133899011173
H            0.16069038830400       -4.61621719075106        2.16088007736694
H            0.03583934721573       -2.84933714028965        2.28931626433135
H           -0.24207620071854       -4.52224443169091       -0.25005679821543
H           -1.39704834515311       -3.32734751909795        0.38996859212945
H           -2.10308826608296        0.11899713813378       -1.09917122345078
H           -1.75839403830295       -2.74423784542169       -1.75147522746327
H           -2.46550589143747       -1.28202157321693       -3.62727538662849
H           -0.77830255975733       -1.75971254503996       -3.88170566601435
H           -1.15709924337502       -0.14878569577994       -3.25350602184015
H           -4.61152961107802        1.29590608914299       -0.37785557579391
H           -3.49068664083956       -0.35263209549544        1.74220269995706
H           -5.92588158858398       -0.15566239586982        1.46829578925292
H           -5.39732458619176       -1.81381461837255        1.12512473440504
H           -5.80857789809307       -0.73055525970342       -0.20455404488521
H            0.15868060543946        2.65746706610684        1.14386159916171
H           -1.58084695109204        0.62365680155439        1.40060776069567
H           -2.62963028048604        1.89480272942173        3.27021049820088
H           -2.01808249590940        3.40936536395523        2.59092312901308
H           -0.88687300458382        2.20144269288286        3.23210570699737
H            1.94818972072914        0.80513963462924       -1.15594964639951
H            1.10187087347401        3.60877159537139       -0.84903531799282
H            0.14275339187760        3.19036945271270       -3.16027497323631
H            0.80623279136082        1.55614561855839       -3.10288102217820
H            1.89951812631287        2.95372795760246       -3.12035557250334
H            3.53697301683755        0.89144402682974        2.03794215981715
H            5.39555899916615        1.90776641059326        0.89568585990391
H            4.67969849666264        1.59692718182040       -0.69449559218943
H            5.91261818087475       -0.45699709224683        1.19290524714714
H            6.30908379494461       -0.20736642235786       -0.51464710460748
H            4.20387675121684       -1.12664982943881       -1.23721793299292
H            4.51405483538664       -2.12154935705215        0.20967334559967
