34
frame_0066
O       0.013699930700000      3.293839071800000     -0.485281364900000
C      -0.494901271400000      2.122051253500000     -0.870025033400000
O      -0.154789521700000      1.590269870000000     -1.889045459400000
H      -0.300846405000000      3.577775783600000      0.383534624900000
C      -1.560823121900000      1.534572051100000      0.042442622100000
H      -2.471727152100000      2.144344726200000     -0.052328427900000
H      -1.242693902900000      1.548004959700000      1.092767307800000
N      -1.814393134800000      0.172459409500000     -0.347301760900000
H      -1.414620918000000     -0.072191690600000     -1.246185717700000
C      -2.032521709100000     -0.797946268000000      0.576114580700000
O      -2.314459586700000     -0.544364133100000      1.728485529200000
C      -1.893434454100000     -2.227211347300000      0.047648084200000
H      -2.601414177600000     -2.851853799800000      0.604573574400000
N      -2.153750884500000     -2.420799266800000     -1.364825928600000
H      -1.413519963900000     -2.019395117700000     -1.930597510100000
H      -3.037046546300000     -2.004504724300000     -1.634893214600000
C      -0.456045833300000     -2.698681641100000      0.375949637400000
H      -0.318347968100000     -3.676668852500000     -0.087118548800000
H      -0.364048214400000     -2.799544786100000      1.457492485800000
C       0.568516238200000     -1.735333839100000     -0.125901872900000
C       1.142318347100000     -1.699082602200000     -1.365239964400000
H       1.025909571400000     -2.383008553100000     -2.185257525200000
N       1.988885980100000     -0.629105985000000     -1.465885356400000
H       2.484119160700000     -0.352661033900000     -2.295727685400000
C       1.964006592400000      0.067149208200000     -0.295206045700000
C       2.624547812600000      1.231500050700000      0.076498923400000
H       3.288163666400000      1.737433059700000     -0.608128358300000
C       2.390623342600000      1.720057726700000      1.343217526600000
H       2.883101856700000      2.626478927100000      1.663646998400000
C       1.528755419700000      1.063032308700000      2.227733207600000
H       1.378552529800000      1.476233950200000      3.214977336400000
C       0.875990250700000     -0.095293059500000      1.868923093600000
H       0.207457657600000     -0.589509416400000      2.557208989400000
C       1.081353627600000     -0.604737321500000      0.585928375100000
