68
frame_0000
O       1.111189241500000     -0.664046727300000      1.509988416600000
O       0.900523288400000     -0.864641071700000     -1.614531749000000
O      -3.225616352200000     -2.560445514300000      0.169942268600000
O      -3.220606773700000      3.183275224300000      0.126214544500000
O      -1.245845744600000      1.627406224600000     -1.421862682800000
O       2.231451986000000      2.877116119700000      1.256020778300000
N       0.436100682800000     -2.646523431300000     -0.367235059900000
N      -2.184266367800000     -0.897042726200000     -0.945087038400000
N      -3.789793619100000      1.024796275500000      0.220131305600000
N      -0.574156643400000      2.326076825100000      0.614491077400000
N       1.936806458700000      1.683782661400000     -0.638319146800000
N       3.112002040000000     -0.524459015700000      0.509987711400000
C       1.957750127800000     -1.158910594400000      0.786231713200000
C       1.775481211300000     -2.565521474900000      0.206346957700000
C       1.792045947900000     -3.625110991000000      1.315210925600000
C       0.311663626000000     -3.807836754800000      1.642140864800000
C      -0.349314457700000     -3.684447677600000      0.273279938700000
C       0.083641417500000     -1.706464400800000     -1.249387067200000
C      -1.352419460000000     -1.736741718100000     -1.787173103900000
C      -1.384545109700000     -1.201418049000000     -3.214259690600000
C      -3.051582968600000     -1.371724721500000     -0.052343825700000
C      -3.840580437300000     -0.316103424200000      0.753184439800000
C      -5.297640596800000     -0.766658362800000      0.854934072000000
C      -2.965484109900000      2.060243764900000      0.502602077200000
C      -1.705392566200000      1.764434225800000      1.330478251000000
C      -1.823590114600000      2.430685788700000      2.695491157500000
C      -0.413499495200000      2.153907369700000     -0.698937985200000
C       0.961440576600000      2.600231665900000     -1.209969852600000
C       1.035121168300000      2.543733017300000     -2.726313819700000
C       2.433283261500000      1.872660944800000      0.593172276800000
C       3.366568784800000      0.773206989000000      1.110810070800000
C       4.820764521900000      1.071494248500000      0.739915755000000
C       4.962805709300000      0.390426558100000     -0.618267447500000
C       4.130050702400000     -0.883457604600000     -0.461777601300000
H       2.518465166400000     -2.767261502200000     -0.568748914400000
H       2.219176824000000     -4.554347526000000      0.935356781900000
H       2.372485876000000     -3.297735615300000      2.176124885200000
H       0.097198554000000     -4.757564490000000      2.126331767000000
H      -0.023514553600000     -2.991709085600000      2.281750982000000
H      -0.242503409800000     -4.619029165800000     -0.292720660400000
H      -1.404862291300000     -3.425108051900000      0.341404811600000
H      -2.046448734900000      0.108648531600000     -1.076211442300000
H      -1.747633188100000     -2.756056417200000     -1.741762528800000
H      -1.064266765300000     -0.162766559200000     -3.211462126800000
H      -2.394345888500000     -1.260511363900000     -3.611224526300000
H      -0.716231134700000     -1.778119780900000     -3.848423377100000
H      -4.559802853900000      1.278817174700000     -0.385304115200000
H      -3.407515752400000     -0.324094756000000      1.761210579200000
H      -5.329463450700000     -1.792100809700000      1.212244794300000
H      -5.770410469100000     -0.729964047500000     -0.124427204500000
H      -5.848292758500000     -0.127624423500000      1.540488126700000
H       0.169180969500000      2.748160345800000      1.157983962300000
H      -1.540092742200000      0.685439915300000      1.441391768900000
H      -0.898210093200000      2.303483308100000      3.252449943500000
H      -2.638903966200000      1.987705148100000      3.262488689200000
H      -2.023836815300000      3.491590948700000      2.564578538600000
H       1.903197661800000      0.750338948800000     -1.036798594900000
H       1.185357324200000      3.602867372500000     -0.830284340500000
H       0.881833948600000      1.518353618500000     -3.054334165100000
H       2.004004271400000      2.892389847900000     -3.074348121500000
H       0.253918063400000      3.165126028300000     -3.154206029500000
H       3.210763349400000      0.722303215100000      2.193412809800000
H       5.492101943000000      0.615941834800000      1.468806656300000
H       5.015518235100000      2.140976967900000      0.704074448300000
H       5.998035954000000      0.173125846900000     -0.872485091400000
H       4.535195851100000      1.022306878900000     -1.396414964600000
H       3.676752693200000     -1.183857190300000     -1.409201706800000
H       4.743025371100000     -1.707940857400000     -0.077733779000000
