      -----------------------------------------------------------      
     |                   =====================                   |     
     |                           x T B                           |     
     |                   =====================                   |     
     |                         S. Grimme                         |     
     |          Mulliken Center for Theoretical Chemistry        |     
     |                    University of Bonn                     |     
      -----------------------------------------------------------      

   * xtb version 6.7.1-6.fc44.fc44 compiled by Fedora project on Sun Jan 18 23:32:34 UTC 2026

   xtb is free software: you can redistribute it and/or modify it under
   the terms of the GNU Lesser General Public License as published by
   the Free Software Foundation, either version 3 of the License, or
   (at your option) any later version.
   
   xtb is distributed in the hope that it will be useful,
   but WITHOUT ANY WARRANTY; without even the implied warranty of
   MERCHANTABILITY or FITNESS FOR A PARTICULAR PURPOSE.  See the
   GNU Lesser General Public License for more details.
   
   Cite this work as:
   * C. Bannwarth, E. Caldeweyher, S. Ehlert, A. Hansen, P. Pracht,
     J. Seibert, S. Spicher, S. Grimme, WIREs Comput. Mol. Sci., 2020, 11,
     e01493. DOI: 10.1002/wcms.1493
   
   for GFN2-xTB:
   * C. Bannwarth, S. Ehlert and S. Grimme., J. Chem. Theory Comput., 2019,
     15, 1652-1671. DOI: 10.1021/acs.jctc.8b01176
   for GFN1-xTB:
   * S. Grimme, C. Bannwarth, P. Shushkov, J. Chem. Theory Comput., 2017,
     13, 1989-2009. DOI: 10.1021/acs.jctc.7b00118
   for GFN0-xTB:
   * P. Pracht, E. Caldeweyher, S. Ehlert, S. Grimme, ChemRxiv, 2019, preprint.
     DOI: 10.26434/chemrxiv.8326202.v1
   for GFN-FF:
   * S. Spicher and S. Grimme, Angew. Chem. Int. Ed., 2020, 59, 15665-15673.
     DOI: 10.1002/anie.202004239
   
   for ALPB and GBSA implicit solvation:
   * S. Ehlert, M. Stahn, S. Spicher, S. Grimme, J. Chem. Theory Comput.,
     2021, 17, 4250-4261. DOI: 10.1021/acs.jctc.1c00471
   
   for ddCOSMO and CPCM-X implicit solvation:
   * M. Stahn, S. Ehlert, S. Grimme, J. Phys. Chem. A,
     2023, XX, XXXX-XXXX. DOI: 10.1021/acs.jpca.3c04382
   
   for DFT-D4:
   * E. Caldeweyher, C. Bannwarth and S. Grimme, J. Chem. Phys., 2017,
     147, 034112. DOI: 10.1063/1.4993215
   * E. Caldeweyher, S. Ehlert, A. Hansen, H. Neugebauer, S. Spicher,
     C. Bannwarth and S. Grimme, J. Chem. Phys., 2019, 150, 154122.
     DOI: 10.1063/1.5090222
   * E. Caldeweyher, J.-M. Mewes, S. Ehlert and S. Grimme, Phys. Chem. Chem. Phys.
     2020, 22, 8499-8512. DOI: 10.1039/D0CP00502A
   
   for sTDA-xTB:
   * S. Grimme and C. Bannwarth, J. Chem. Phys., 2016, 145, 054103.
     DOI: 10.1063/1.4959605
   
   in the mass-spec context:
   * V. Asgeirsson, C. Bauer and S. Grimme, Chem. Sci., 2017, 8, 4879.
     DOI: 10.1039/c7sc00601b
   * J. Koopman and S. Grimme, ACS Omega 2019, 4, 12, 15120-15133.
     DOI: 10.1021/acsomega.9b02011
   
   for metadynamics refer to:
   * S. Grimme, J. Chem. Theory Comput., 2019, 155, 2847-2862
     DOI: 10.1021/acs.jctc.9b00143
   
   for SPH calculations refer to:
   * S. Spicher and S. Grimme, J. Chem. Theory Comput., 2021, 17, 1701-1714
     DOI: 10.1021/acs.jctc.0c01306
   
   for ONIOM refer to:
   * C. Plett, A. Katbashev, S. Ehlert, S. Grimme, M. Bursch,
     Phys. Chem. Chem. Phys., 2023, 25, 17860-17868. DOI: 10.1039/D3CP02178E
   
   for DIPRO refer to:
   * J. Kohn, N. Gildemeister, S. Grimme, D. Fazzi, A. Hansen,
     J. Chem. Phys., 2023, just accepted.
   
   for PTB refer to:
   * S. Grimme, M. Mueller, A. Hansen, J. Chem. Phys., 2023, 158, 124111.
     DOI: 10.1063/5.0137838
   
   with help from (in alphabetical order)
   P. Atkinson, C. Bannwarth, F. Bohle, G. Brandenburg, E. Caldeweyher
   M. Checinski, S. Dohm, S. Ehlert, S. Ehrlich, I. Gerasimov, C. Hölzer
   A. Katbashev, J. Kohn, J. Koopman, C. Lavigne, S. Lehtola, F. März, M. Müller,
   F. Musil, H. Neugebauer, J. Pisarek, C. Plett, P. Pracht, F. Pultar,
   J. Seibert, P. Shushkov, S. Spicher, M. Stahn, M. Steiner, T. Strunk,
   J. Stückrath, T. Rose, and J. Unsleber
   
 * started run on 2026/10/01 at 13:38:21.575     
   ID    Z sym.   atoms
    1    8 O      1-6
    2    7 N      7-12
    3    6 C      13-34
    4    1 H      35-68

           -------------------------------------------------
          |                Calculation Setup                |
           -------------------------------------------------

          program call               : /usr/bin/xtb input.xyz --opt --gfn 2 --chrg 0 --uhf 0
          hostname                   : fedora
          coordinate file            : input.xyz
          omp threads                :                    16


           -------------------------------------------------
          |                 G F N 2 - x T B                 |
           -------------------------------------------------

        Reference                      10.1021/acs.jctc.8b01176
      * Hamiltonian:
        H0-scaling (s, p, d)           1.850000    2.230000    2.230000
        zeta-weighting                 0.500000
      * Dispersion:
        s8                             2.700000
        a1                             0.520000
        a2                             5.000000
        s9                             5.000000
      * Repulsion:
        kExp                           1.500000    1.000000
        rExp                           1.000000
      * Coulomb:
        alpha                          2.000000
        third order                    shell-resolved
        anisotropic                    true
        a3                             3.000000
        a5                             4.000000
        cn-shift                       1.200000
        cn-exp                         4.000000
        max-rad                        5.000000


          ...................................................
          :                      SETUP                      :
          :.................................................:
          :  # basis functions                 170          :
          :  # atomic orbitals                 170          :
          :  # shells                          102          :
          :  # electrons                       188          :
          :  max. iterations                   250          :
          :  Hamiltonian                  GFN2-xTB          :
          :  restarted?                      false          :
          :  GBSA solvation                  false          :
          :  PC potential                    false          :
          :  electronic temp.          300.0000000     K    :
          :  accuracy                    1.0000000          :
          :  -> integral cutoff          0.2500000E+02      :
          :  -> integral neglect         0.1000000E-07      :
          :  -> SCF convergence          0.1000000E-05 Eh   :
          :  -> wf. convergence          0.1000000E-03 e    :
          :  Broyden damping             0.4000000          :
          :  net charge                          0          :
          :  unpaired electrons                  0          :
          ...................................................

 iter      E             dE          RMSdq      gap      omega  full diag
   1   -107.5154198 -0.107515E+03  0.390E+00    4.33       0.0  T
   2   -107.7996310 -0.284211E+00  0.212E+00    3.93       1.0  T
   3   -107.8102907 -0.106597E-01  0.115E+00    4.13       1.0  T
   4   -107.8120741 -0.178336E-02  0.160E-01    4.08       1.0  T
   5   -107.8130092 -0.935068E-03  0.790E-02    4.12       1.0  T
   6   -107.8130582 -0.490742E-04  0.347E-02    4.11       1.0  T
   7   -107.8130613 -0.308254E-05  0.983E-03    4.10       1.2  T
   8   -107.8130625 -0.118414E-05  0.425E-03    4.10       2.9  T
   9   -107.8130627 -0.163861E-06  0.133E-03    4.10       9.1  T
  10   -107.8130627 -0.300811E-07  0.533E-04    4.10      22.7  T
  11   -107.8130627 -0.423947E-08  0.130E-04    4.10      93.3  T

   *** convergence criteria satisfied after 11 iterations ***

         #    Occupation            Energy/Eh            Energy/eV
      -------------------------------------------------------------
         1        2.0000           -0.7085401             -19.2804
       ...           ...                  ...                  ...
        88        2.0000           -0.4088586             -11.1256
        89        2.0000           -0.3911400             -10.6435
        90        2.0000           -0.3891671             -10.5898
        91        2.0000           -0.3871541             -10.5350
        92        2.0000           -0.3853949             -10.4871
        93        2.0000           -0.3831696             -10.4266
        94        2.0000           -0.3800277             -10.3411 (HOMO)
        95                         -0.2292799              -6.2390 (LUMO)
        96                         -0.2213778              -6.0240
        97                         -0.2168236              -5.9001
        98                         -0.2071658              -5.6373
        99                         -0.2025689              -5.5122
       ...                                ...                  ...
       170                          0.6491676              17.6647
      -------------------------------------------------------------
                  HL-Gap            0.1507477 Eh            4.1021 eV
             Fermi-level           -0.3046538 Eh           -8.2901 eV

 SCC (total)                   0 d,  0 h,  0 min,  4.650 sec
 SCC setup                      ...        0 min,  0.005 sec (  0.116%)
 Dispersion                     ...        0 min,  0.012 sec (  0.251%)
 classical contributions        ...        0 min,  0.006 sec (  0.119%)
 integral evaluation            ...        0 min,  0.015 sec (  0.331%)
 iterations                     ...        0 min,  4.554 sec ( 97.936%)
 molecular gradient             ...        0 min,  0.056 sec (  1.207%)
 printout                       ...        0 min,  0.002 sec (  0.040%)

         :::::::::::::::::::::::::::::::::::::::::::::::::::::
         ::                     SUMMARY                     ::
         :::::::::::::::::::::::::::::::::::::::::::::::::::::
         :: total energy            -106.574165018399 Eh    ::
         :: gradient norm              0.000049640523 Eh/a0 ::
         :: HOMO-LUMO gap              4.102054586239 eV    ::
         ::.................................................::
         :: SCC energy              -107.808620078375 Eh    ::
         :: -> isotropic ES            0.232708170740 Eh    ::
         :: -> anisotropic ES         -0.005924376384 Eh    ::
         :: -> anisotropic XC          0.028206426139 Eh    ::
         :: -> dispersion             -0.084031576906 Eh    ::
         :: repulsion energy           1.234455059976 Eh    ::
         :: add. restraining           0.000000000000 Eh    ::
         :: total charge               0.000000000000 e     ::
         :::::::::::::::::::::::::::::::::::::::::::::::::::::

      ----------------------------------------------------------- 
     |                   =====================                   |
     |                        A N C O P T                        |
     |                   =====================                   |
     |               Approximate Normal Coordinate               |
     |                Rational Function Optimizer                |
      ----------------------------------------------------------- 
      ----------------------------------------------------------- 
     |                   =====================                   |
     |                        A N C O P T                        |
     |                   =====================                   |
     |               Approximate Normal Coordinate               |
     |                Rational Function Optimizer                |
      ----------------------------------------------------------- 

          ...................................................
          :                      SETUP                      :
          :.................................................:
          :   optimization level            normal          :
          :   max. optcycles                   204          :
          :   ANC micro-cycles                  20          :
          :   degrees of freedom               198          :
          :.................................................:
          :   RF solver                   davidson          :
          :   write xtbopt.log                true          :
          :   linear?                        false          :
          :   energy convergence         0.5000000E-05 Eh   :
          :   grad. convergence          0.1000000E-02 Eh/α :
          :   maxmium RF displ.          1.0000000          :
          :   Hlow (freq-cutoff)         0.1000000E-01      :
          :   Hmax (freq-cutoff)         5.0000000          :
          :   S6 in model hess.         20.0000000          :
          ...................................................

generating ANC from exact Hessian ...
Using Lindh-Hessian (1995)
 Shifting diagonal of input Hessian by    9.6541239718028055E-003
 Lowest  eigenvalues of input Hessian
    0.000000    0.000000    0.000000    0.000000    0.000000    0.000000
    0.010000    0.010237    0.010728    0.011227    0.011559    0.011568
    0.011820    0.012346    0.012736    0.013437    0.013579    0.014079
 Highest eigenvalues
    2.284778    2.310643    2.315579    2.322027    2.338570    2.350407


........................................................................
.............................. CYCLE    1 ..............................
........................................................................

 iter      E             dE          RMSdq      gap      omega  full diag
   1   -107.8130627 -0.107813E+03  0.575E-05    4.10       0.0  T
   2   -107.8130627 -0.252101E-10  0.322E-05    4.10     376.4  T
   3   -107.8130627 -0.117950E-11  0.148E-05    4.10     820.5  T
     SCC iter.                  ...        0 min,  3.764 sec
     gradient                   ...        0 min,  0.056 sec
 * total energy  :  -106.5741650 Eh     change       -0.2419966E-09 Eh
   gradient norm :     0.0000495 Eh/α   predicted     0.0000000E+00 (-100.00%)
   displ. norm   :     0.0000743 α      lambda        0.0000000E+00
   maximum displ.:     0.0000208 α      in ANC's #112, #118, #113, ...

   *** GEOMETRY OPTIMIZATION CONVERGED AFTER 1 ITERATIONS ***

------------------------------------------------------------------------
 total energy gain   :        -0.0000000 Eh       -0.0000 kcal/mol
 total RMSD          :         0.0000000 a0        0.0000 Å
 total power (kW/mol):        -0.0000006 (step)   -0.0000 (real)
------------------------------------------------------------------------

 ANCopt (total)                0 d,  0 h,  0 min,  4.062 sec
 optimizer setup                ...        0 min,  0.000 sec (  0.005%)
 model hessian                  ...        0 min,  0.030 sec (  0.746%)
 ANC generation                 ...        0 min,  0.171 sec (  4.217%)
 coordinate transformation      ...        0 min,  0.000 sec (  0.001%)
 single point calculation       ...        0 min,  3.859 sec ( 95.007%)
 optimization log               ...        0 min,  0.000 sec (  0.003%)
 hessian update                 ...        0 min,  0.000 sec (  0.000%)
 rational function              ...        0 min,  0.000 sec (  0.002%)

================
 final structure:
================
68
 xtb: 6.7.1-6.fc44.fc44
O            1.11118924150000       -0.66404672730000        1.50998841660000
O            0.90052328840000       -0.86464107170000       -1.61453174900000
O           -3.22561635220000       -2.56044551430000        0.16994226860000
O           -3.22060677370000        3.18327522430000        0.12621454450000
O           -1.24584574460000        1.62740622460000       -1.42186268280000
O            2.23145198600000        2.87711611970000        1.25602077830000
N            0.43610068280000       -2.64652343130000       -0.36723505990000
N           -2.18426636780000       -0.89704272620000       -0.94508703840000
N           -3.78979361910000        1.02479627550000        0.22013130560000
N           -0.57415664340000        2.32607682510000        0.61449107740000
N            1.93680645870000        1.68378266140000       -0.63831914680000
N            3.11200204000000       -0.52445901570000        0.50998771140000
C            1.95775012780000       -1.15891059440000        0.78623171320000
C            1.77548121130000       -2.56552147490000        0.20634695770000
C            1.79204594790000       -3.62511099100000        1.31521092560000
C            0.31166362600000       -3.80783675480000        1.64214086480000
C           -0.34931445770000       -3.68444767760000        0.27327993870000
C            0.08364141750000       -1.70646440080000       -1.24938706720000
C           -1.35241946000000       -1.73674171810000       -1.78717310390000
C           -1.38454510970000       -1.20141804900000       -3.21425969060000
C           -3.05158296860000       -1.37172472150000       -0.05234382570000
C           -3.84058043730000       -0.31610342420000        0.75318443980000
C           -5.29764059680000       -0.76665836280000        0.85493407200000
C           -2.96548410990000        2.06024376490000        0.50260207720000
C           -1.70539256620000        1.76443422580000        1.33047825100000
C           -1.82359011460000        2.43068578870000        2.69549115750000
C           -0.41349949520000        2.15390736970000       -0.69893798520000
C            0.96144057660000        2.60023166590000       -1.20996985260000
C            1.03512116830000        2.54373301730000       -2.72631381970000
C            2.43328326150000        1.87266094480000        0.59317227680000
C            3.36656878480000        0.77320698900000        1.11081007080000
C            4.82076452190000        1.07149424850000        0.73991575500000
C            4.96280570930000        0.39042655810000       -0.61826744750000
C            4.13005070240000       -0.88345760460000       -0.46177760130000
H            2.51846516640000       -2.76726150220000       -0.56874891440000
H            2.21917682400000       -4.55434752600000        0.93535678190000
H            2.37248587600000       -3.29773561530000        2.17612488520000
H            0.09719855400000       -4.75756449000000        2.12633176700000
H           -0.02351455360000       -2.99170908560000        2.28175098200000
H           -0.24250340980000       -4.61902916580000       -0.29272066040000
H           -1.40486229130000       -3.42510805190000        0.34140481160000
H           -2.04644873490000        0.10864853160000       -1.07621144230000
H           -1.74763318810000       -2.75605641720000       -1.74176252880000
H           -1.06426676530000       -0.16276655920000       -3.21146212680000
H           -2.39434588850000       -1.26051136390000       -3.61122452630000
H           -0.71623113470000       -1.77811978090000       -3.84842337710000
H           -4.55980285390000        1.27881717470000       -0.38530411520000
H           -3.40751575240000       -0.32409475600000        1.76121057920000
H           -5.32946345070000       -1.79210080970000        1.21224479430000
H           -5.77041046910000       -0.72996404750000       -0.12442720450000
H           -5.84829275850000       -0.12762442350000        1.54048812670000
H            0.16918096950000        2.74816034580000        1.15798396230000
H           -1.54009274220000        0.68543991530000        1.44139176890000
H           -0.89821009320000        2.30348330810000        3.25244994350000
H           -2.63890396620000        1.98770514810000        3.26248868920000
H           -2.02383681530000        3.49159094870000        2.56457853860000
H            1.90319766180000        0.75033894880000       -1.03679859490000
H            1.18535732420000        3.60286737250000       -0.83028434050000
H            0.88183394860000        1.51835361850000       -3.05433416510000
H            2.00400427140000        2.89238984790000       -3.07434812150000
H            0.25391806340000        3.16512602830000       -3.15420602950000
H            3.21076334940000        0.72230321510000        2.19341280980000
H            5.49210194300000        0.61594183480000        1.46880665630000
H            5.01551823510000        2.14097696790000        0.70407444830000
H            5.99803595400000        0.17312584690000       -0.87248509140000
H            4.53519585110000        1.02230687890000       -1.39641496460000
H            3.67675269320000       -1.18385719030000       -1.40920170680000
H            4.74302537110000       -1.70794085740000       -0.07773377900000

 Bond Distances (Angstroems)
 ---------------------------
O1-C13=1.2188        O2-C18=1.2285        O3-C21=1.2218        O4-C24=1.2116        O5-C27=1.2217        O6-C30=1.2203        
N7-C14=1.4593        N7-C17=1.4507        N7-C18=1.3365        N8-C19=1.4513        N8-C21=1.3321        N8-H42=1.0235        
N9-C22=1.4439        N9-C24=1.3533        N9-H47=1.0119        N10-C25=1.4518       N10-C27=1.3344       N10-H52=1.0130       
N11-C28=1.4553       N11-C30=1.3412       N11-H57=1.0155       N12-C13=1.3458       N12-C31=1.4525       N12-C34=1.4525       
C13-O1=1.2188        C13-N12=1.3458       C13-C14=1.5323       C14-N7=1.4593        C14-C13=1.5323       C14-C15=1.5338       
C14-H35=1.0925       C15-C14=1.5338       C15-C16=1.5270       C15-H36=1.0910       C15-H37=1.0887       C16-C15=1.5270       
C16-C17=1.5251       C16-H38=1.0874       C16-H39=1.0897       C17-N7=1.4507        C17-C16=1.5251       C17-H40=1.0978       
C17-H41=1.0891       C18-O2=1.2285        C18-N7=1.3365        C18-C19=1.5338       C19-N8=1.4513        C19-C18=1.5338       
C19-C20=1.5245       C19-H43=1.0942       C20-C19=1.5245       C20-H44=1.0869       C20-H45=1.0866       C20-H46=1.0869       
C21-O3=1.2218        C21-N8=1.3321        C21-C22=1.5446       C22-N9=1.4439        C22-C21=1.5446       C22-C23=1.5285       
C22-H48=1.0971       C23-C22=1.5285       C23-H49=1.0864       C23-H50=1.0881       C23-H51=1.0870       C24-O4=1.2116        
C24-N9=1.3533        C24-C25=1.5365       C25-N10=1.4518       C25-C24=1.5365       C25-C26=1.5235       C25-H53=1.0972       
C26-C25=1.5235       C26-H54=1.0875       C26-H55=1.0874       C26-H56=1.0875       C27-O5=1.2217        C27-N10=1.3344       
C27-C28=1.5332       C28-N11=1.4553       C28-C27=1.5332       C28-C29=1.5192       C28-H58=1.0953       C29-C28=1.5192       
C29-H59=1.0874       C29-H60=1.0869       C29-H61=1.0860       C30-O6=1.2203        C30-N11=1.3412       C30-C31=1.5322       
C31-N12=1.4525       C31-C30=1.5322       C31-C32=1.5301       C31-H62=1.0949       C32-C31=1.5301       C32-C33=1.5260       
C32-H63=1.0906       C32-H64=1.0877       C33-C32=1.5260       C33-C34=1.5300       C33-H65=1.0879       C33-H66=1.0898       
C34-N12=1.4525       C34-C33=1.5300       C34-H67=1.0924       C34-H68=1.0968       H35-C14=1.0925       H36-C15=1.0910       
H37-C15=1.0887       H38-C16=1.0874       H39-C16=1.0897       H40-C17=1.0978       H41-C17=1.0891       H42-N8=1.0235        
H43-C19=1.0942       H44-C20=1.0869       H45-C20=1.0866       H46-C20=1.0869       H47-N9=1.0119        H48-C22=1.0971       
H49-C23=1.0864       H50-C23=1.0881       H51-C23=1.0870       H52-N10=1.0130       H53-C25=1.0972       H54-C26=1.0875       
H55-C26=1.0874       H56-C26=1.0875       H57-N11=1.0155       H58-C28=1.0953       H59-C29=1.0874       H60-C29=1.0869       
H61-C29=1.0860       H62-C31=1.0949       H63-C32=1.0906       H64-C32=1.0877       H65-C33=1.0879       H66-C33=1.0898       
H67-C34=1.0924       H68-C34=1.0968       
 C  H  Rav=1.0902 sigma=0.0037  Rmin=1.0860  Rmax=1.0978    30
 C  C  Rav=1.5300 sigma=0.0058  Rmin=1.5192  Rmax=1.5446    16
 N  H  Rav=1.0160 sigma=0.0045  Rmin=1.0119  Rmax=1.0235     4
 N  C  Rav=1.4043 sigma=0.0555  Rmin=1.3321  Rmax=1.4593    14
 O  C  Rav=1.2204 sigma=0.0050  Rmin=1.2116  Rmax=1.2285     6

 selected bond angles (degree)
 --------------------
C17-N7-C14=111.29              C18-N7-C14=117.55              C18-N7-C17=130.69              C21-N8-C19=123.77              
H42-N8-C19=114.65              H42-N8-C21=121.58              C24-N9-C22=130.91              H47-N9-C22=115.29              
H47-N9-C24=113.35              C27-N10-C25=121.96             H52-N10-C25=117.93             H52-N10-C27=119.57             

 selected dihedral angles (degree)
 ---------------------------------

           -------------------------------------------------
          |                Final Singlepoint                |
           -------------------------------------------------

          ...................................................
          :                      SETUP                      :
          :.................................................:
          :  # basis functions                 170          :
          :  # atomic orbitals                 170          :
          :  # shells                          102          :
          :  # electrons                       188          :
          :  max. iterations                   250          :
          :  Hamiltonian                  GFN2-xTB          :
          :  restarted?                      false          :
          :  GBSA solvation                  false          :
          :  PC potential                    false          :
          :  electronic temp.          300.0000000     K    :
          :  accuracy                    1.0000000          :
          :  -> integral cutoff          0.2500000E+02      :
          :  -> integral neglect         0.1000000E-07      :
          :  -> SCF convergence          0.1000000E-05 Eh   :
          :  -> wf. convergence          0.1000000E-03 e    :
          :  Broyden damping             0.4000000          :
          :  net charge                          0          :
          :  unpaired electrons                  0          :
          ...................................................

 iter      E             dE          RMSdq      gap      omega  full diag
   1   -107.8130627 -0.107813E+03  0.321E-06    4.10       0.0  T
   2   -107.8130627 -0.298428E-12  0.191E-06    4.10    6354.5  T
   3   -107.8130627  0.397904E-12  0.722E-07    4.10   16798.8  T

   *** convergence criteria satisfied after 3 iterations ***

         #    Occupation            Energy/Eh            Energy/eV
      -------------------------------------------------------------
         1        2.0000           -0.7085397             -19.2803
       ...           ...                  ...                  ...
        88        2.0000           -0.4088569             -11.1256
        89        2.0000           -0.3911399             -10.6435
        90        2.0000           -0.3891668             -10.5898
        91        2.0000           -0.3871536             -10.5350
        92        2.0000           -0.3853942             -10.4871
        93        2.0000           -0.3831679             -10.4265
        94        2.0000           -0.3800259             -10.3410 (HOMO)
        95                         -0.2292797              -6.2390 (LUMO)
        96                         -0.2213771              -6.0240
        97                         -0.2168233              -5.9001
        98                         -0.2071638              -5.6372
        99                         -0.2025669              -5.5121
       ...                                ...                  ...
       170                          0.6491695              17.6648
      -------------------------------------------------------------
                  HL-Gap            0.1507462 Eh            4.1020 eV
             Fermi-level           -0.3046528 Eh           -8.2900 eV

 SCC (total)                   0 d,  0 h,  0 min,  2.188 sec
 SCC setup                      ...        0 min,  0.004 sec (  0.166%)
 Dispersion                     ...        0 min,  0.009 sec (  0.427%)
 classical contributions        ...        0 min,  0.004 sec (  0.162%)
 integral evaluation            ...        0 min,  0.018 sec (  0.818%)
 iterations                     ...        0 min,  2.136 sec ( 97.587%)
 molecular gradient             ...        0 min,  0.013 sec (  0.590%)
 printout                       ...        0 min,  0.005 sec (  0.249%)

         :::::::::::::::::::::::::::::::::::::::::::::::::::::
         ::                     SUMMARY                     ::
         :::::::::::::::::::::::::::::::::::::::::::::::::::::
         :: total energy            -106.574165018645 Eh    ::
         :: gradient norm              0.000049499126 Eh/a0 ::
         :: HOMO-LUMO gap              4.102011672909 eV    ::
         ::.................................................::
         :: SCC energy              -107.808620078621 Eh    ::
         :: -> isotropic ES            0.232712136394 Eh    ::
         :: -> anisotropic ES         -0.005924205113 Eh    ::
         :: -> anisotropic XC          0.028206422294 Eh    ::
         :: -> dispersion             -0.084031629236 Eh    ::
         :: repulsion energy           1.234455059976 Eh    ::
         :: add. restraining           0.000000000000 Eh    ::
         :: total charge              -0.000000000000 e     ::
         :::::::::::::::::::::::::::::::::::::::::::::::::::::

           -------------------------------------------------
          |                Property Printout                |
           -------------------------------------------------

    * Orbital Energies and Occupations

         #    Occupation            Energy/Eh            Energy/eV
      -------------------------------------------------------------
         1        2.0000           -0.7085397             -19.2803
       ...           ...                  ...                  ...
        82        2.0000           -0.4454581             -12.1215
        83        2.0000           -0.4272300             -11.6255
        84        2.0000           -0.4231876             -11.5155
        85        2.0000           -0.4218992             -11.4805
        86        2.0000           -0.4194056             -11.4126
        87        2.0000           -0.4118322             -11.2065
        88        2.0000           -0.4088569             -11.1256
        89        2.0000           -0.3911399             -10.6435
        90        2.0000           -0.3891668             -10.5898
        91        2.0000           -0.3871536             -10.5350
        92        2.0000           -0.3853942             -10.4871
        93        2.0000           -0.3831679             -10.4265
        94        2.0000           -0.3800259             -10.3410 (HOMO)
        95                         -0.2292797              -6.2390 (LUMO)
        96                         -0.2213771              -6.0240
        97                         -0.2168233              -5.9001
        98                         -0.2071638              -5.6372
        99                         -0.2025669              -5.5121
       100                         -0.2018632              -5.4930
       101                         -0.0283262              -0.7708
       102                         -0.0113006              -0.3075
       103                         -0.0085771              -0.2334
       104                          0.0084256               0.2293
       105                          0.0112440               0.3060
       ...                                ...                  ...
       170                          0.6491695              17.6648
      -------------------------------------------------------------
                  HL-Gap            0.1507462 Eh            4.1020 eV
             Fermi-level           -0.3046528 Eh           -8.2900 eV

     #   Z          covCN         q      C6AA      α(0)
     1   8 O        0.859    -0.455    22.817     6.404
     2   8 O        0.860    -0.480    23.351     6.479
     3   8 O        0.858    -0.465    23.013     6.432
     4   8 O        0.860    -0.424    22.170     6.313
     5   8 O        0.858    -0.448    22.672     6.384
     6   8 O        0.858    -0.455    22.815     6.404
     7   7 N        2.763    -0.084    22.881     7.104
     8   7 N        2.691    -0.188    25.079     7.438
     9   7 N        2.688    -0.191    25.139     7.447
    10   7 N        2.695    -0.167    24.620     7.369
    11   7 N        2.693    -0.184    24.987     7.424
    12   7 N        2.757    -0.106    23.317     7.172
    13   6 C        2.764     0.268    22.470     7.763
    14   6 C        3.835     0.026    20.110     6.380
    15   6 C        3.831    -0.057    21.567     6.608
    16   6 C        3.835    -0.060    21.629     6.617
    17   6 C        3.770    -0.012    20.832     6.504
    18   6 C        2.768     0.259    22.631     7.791
    19   6 C        3.791     0.031    20.060     6.378
    20   6 C        3.758    -0.114    22.742     6.799
    21   6 C        2.751     0.263    22.557     7.777
    22   6 C        3.785     0.019    20.269     6.413
    23   6 C        3.758    -0.114    22.728     6.797
    24   6 C        2.751     0.279    22.280     7.729
    25   6 C        3.793     0.032    20.041     6.375
    26   6 C        3.757    -0.113    22.722     6.796
    27   6 C        2.759     0.274    22.365     7.744
    28   6 C        3.797     0.027    20.129     6.388
    29   6 C        3.757    -0.114    22.733     6.798
    30   6 C        2.754     0.273    22.379     7.747
    31   6 C        3.834     0.021    20.193     6.393
    32   6 C        3.832    -0.062    21.660     6.622
    33   6 C        3.832    -0.066    21.735     6.633
    34   6 C        3.765    -0.001    20.635     6.475
    35   1 H        0.924     0.043     2.411     2.428
    36   1 H        0.924     0.044     2.403     2.424
    37   1 H        0.925     0.047     2.364     2.404
    38   1 H        0.925     0.049     2.330     2.387
    39   1 H        0.925     0.066     2.134     2.285
    40   1 H        0.924     0.043     2.403     2.424
    41   1 H        0.925     0.097     1.814     2.106
    42   1 H        0.859     0.232     0.955     1.531
    43   1 H        0.924     0.062     2.177     2.308
    44   1 H        0.925     0.080     1.976     2.198
    45   1 H        0.925     0.049     2.336     2.390
    46   1 H        0.925     0.047     2.359     2.402
    47   1 H        0.860     0.194     1.135     1.669
    48   1 H        0.924     0.061     2.193     2.316
    49   1 H        0.925     0.077     2.015     2.220
    50   1 H        0.925     0.049     2.338     2.391
    51   1 H        0.925     0.049     2.326     2.385
    52   1 H        0.860     0.212     1.045     1.601
    53   1 H        0.924     0.049     2.337     2.391
    54   1 H        0.925     0.059     2.214     2.327
    55   1 H        0.925     0.048     2.349     2.397
    56   1 H        0.925     0.068     2.108     2.271
    57   1 H        0.860     0.218     1.018     1.581
    58   1 H        0.924     0.070     2.090     2.261
    59   1 H        0.925     0.070     2.083     2.257
    60   1 H        0.925     0.046     2.373     2.409
    61   1 H        0.925     0.062     2.173     2.305
    62   1 H        0.924     0.075     2.031     2.229
    63   1 H        0.924     0.052     2.295     2.369
    64   1 H        0.925     0.060     2.201     2.320
    65   1 H        0.925     0.052     2.292     2.367
    66   1 H        0.925     0.056     2.250     2.346
    67   1 H        0.924     0.059     2.210     2.325
    68   1 H        0.924     0.044     2.390     2.418

 Mol. C6AA /au·bohr⁶  :      43590.720868
 Mol. C8AA /au·bohr⁸  :     970011.329650
 Mol. α(0) /au        :        310.339217


Wiberg/Mayer (AO) data.
largest (>0.10) Wiberg bond orders for each atom

 ---------------------------------------------------------------------------
     #   Z sym  total        # sym  WBO       # sym  WBO       # sym  WBO
 ---------------------------------------------------------------------------
     1   8 O    1.984 --    13 C    1.657    12 N    0.193
     2   8 O    1.964 --    18 C    1.601     7 N    0.195
     3   8 O    1.978 --    21 C    1.628     8 N    0.203
     4   8 O    2.014 --    24 C    1.699     9 N    0.194
     5   8 O    2.020 --    27 C    1.617    10 N    0.198
     6   8 O    1.984 --    30 C    1.645    11 N    0.194
     7   7 N    3.528 --    18 C    1.307    17 C    0.976    14 C    0.965
                             2 O    0.195
     8   7 N    3.479 --    21 C    1.320    19 C    0.976    42 H    0.859
                             3 O    0.203
     9   7 N    3.431 --    24 C    1.240    22 C    0.992    47 H    0.927
                             4 O    0.194
    10   7 N    3.481 --    27 C    1.318    25 C    0.974    52 H    0.907
                             5 O    0.198
    11   7 N    3.455 --    30 C    1.293    28 C    0.971    57 H    0.895
                             6 O    0.194
    12   7 N    3.495 --    13 C    1.259    34 C    0.980    31 C    0.971
                             1 O    0.193
    13   6 C    3.955 --     1 O    1.657    12 N    1.259    14 C    0.935
    14   6 C    3.973 --    15 C    0.981     7 N    0.965    35 H    0.958
                            13 C    0.935
    15   6 C    3.994 --    16 C    1.005    14 C    0.981    36 H    0.978
                            37 H    0.977
    16   6 C    3.993 --    15 C    1.005    17 C    1.004    38 H    0.976
                            39 H    0.976
    17   6 C    3.959 --    16 C    1.004     7 N    0.976    40 H    0.966
                            41 H    0.947
    18   6 C    3.950 --     2 O    1.601     7 N    1.307    19 C    0.932
    19   6 C    3.969 --    20 C    1.000     8 N    0.976    43 H    0.956
                            18 C    0.932
    20   6 C    3.988 --    19 C    1.000    45 H    0.985    46 H    0.984
                            44 H    0.977
    21   6 C    3.956 --     3 O    1.628     8 N    1.320    22 C    0.921
    22   6 C    3.968 --    23 C    0.997     9 N    0.992    48 H    0.943
                            21 C    0.921
    23   6 C    3.988 --    22 C    0.997    51 H    0.985    50 H    0.985
                            49 H    0.979
    24   6 C    3.952 --     4 O    1.699     9 N    1.240    25 C    0.932
    25   6 C    3.970 --    26 C    0.999    10 N    0.974    53 H    0.952
                            24 C    0.932
    26   6 C    3.990 --    25 C    0.999    55 H    0.984    56 H    0.983
                            54 H    0.981
    27   6 C    3.949 --     5 O    1.617    10 N    1.318    28 C    0.926
    28   6 C    3.967 --    29 C    1.009    11 N    0.971    58 H    0.953
                            27 C    0.926
    29   6 C    3.989 --    28 C    1.009    60 H    0.986    61 H    0.982
                            59 H    0.979
    30   6 C    3.954 --     6 O    1.645    11 N    1.293    31 C    0.933
    31   6 C    3.967 --    32 C    0.980    12 N    0.971    62 H    0.953
                            30 C    0.933
    32   6 C    3.992 --    33 C    1.006    31 C    0.980    63 H    0.976
                            64 H    0.975
    33   6 C    3.994 --    32 C    1.006    34 C    1.003    66 H    0.978
                            65 H    0.977
    34   6 C    3.972 --    33 C    1.003    12 N    0.980    68 H    0.969
                            67 H    0.966
    35   1 H    0.998 --    14 C    0.958
    36   1 H    0.998 --    15 C    0.978
    37   1 H    0.997 --    15 C    0.977
    38   1 H    0.996 --    16 C    0.976
    39   1 H    0.996 --    16 C    0.976
    40   1 H    0.998 --    17 C    0.966
    41   1 H    0.990 --    17 C    0.947
    42   1 H    0.946 --     8 N    0.859
    43   1 H    0.996 --    19 C    0.956
    44   1 H    0.993 --    20 C    0.977
    45   1 H    0.997 --    20 C    0.985
    46   1 H    0.997 --    20 C    0.984
    47   1 H    0.962 --     9 N    0.927
    48   1 H    0.996 --    22 C    0.943
    49   1 H    0.993 --    23 C    0.979
    50   1 H    0.998 --    23 C    0.985
    51   1 H    0.997 --    23 C    0.985
    52   1 H    0.955 --    10 N    0.907
    53   1 H    0.998 --    25 C    0.952
    54   1 H    0.996 --    26 C    0.981
    55   1 H    0.997 --    26 C    0.984
    56   1 H    0.995 --    26 C    0.983
    57   1 H    0.952 --    11 N    0.895
    58   1 H    0.995 --    28 C    0.953
    59   1 H    0.995 --    29 C    0.979
    60   1 H    0.997 --    29 C    0.986
    61   1 H    0.995 --    29 C    0.982
    62   1 H    0.994 --    31 C    0.953
    63   1 H    0.997 --    32 C    0.976
    64   1 H    0.996 --    32 C    0.975
    65   1 H    0.997 --    33 C    0.977
    66   1 H    0.997 --    33 C    0.978
    67   1 H    0.996 --    34 C    0.966
    68   1 H    0.998 --    34 C    0.969
 ---------------------------------------------------------------------------

Topologies differ in total number of bonds
Writing topology from bond orders to xtbtopo.mol

molecular dipole:
                 x           y           z       tot (Debye)
 q only:        1.776      -1.742      -0.162
   full:        2.010      -2.096      -0.130       7.389
molecular quadrupole (traceless):
                xx          xy          yy          xz          yz          zz
 q only:       18.449      -3.046     -16.771      -8.524      -2.488      -1.679
  q+dip:       19.716      -6.965     -17.820      -6.832      -0.635      -1.896
   full:       20.085      -6.841     -18.973      -7.494      -0.921      -1.111

           -------------------------------------------------
          |                Geometry Summary                 |
           -------------------------------------------------

      molecular mass/u    :      478.5428241
   center of mass at/Å    :        0.0000000      -0.0000000      -0.0000000
  moments of inertia/u·Å² :        0.2882531E+04   0.4092299E+04   0.5330028E+04
rotational constants/cm⁻¹ :        0.5848205E-02   0.4119355E-02   0.3162766E-02

 * 64 selected distances

     #   Z          #   Z                                           value/Å
     1   8 O       13   6 C                                       1.2187615
    12   7 N       13   6 C                                       1.3457850
     7   7 N       14   6 C                                       1.4592800
    14   6 C       15   6 C                                       1.5338136 (max)
    15   6 C       16   6 C                                       1.5270246
     7   7 N       17   6 C                                       1.4506631
    16   6 C       17   6 C                                       1.5250894
     2   8 O       18   6 C                                       1.2285330
     7   7 N       18   6 C                                       1.3364621
     8   7 N       19   6 C                                       1.4512660
    19   6 C       20   6 C                                       1.5245262
     3   8 O       21   6 C                                       1.2217840
     8   7 N       21   6 C                                       1.3321231
     9   7 N       22   6 C                                       1.4438620
    22   6 C       23   6 C                                       1.5285213
     4   8 O       24   6 C                                       1.2115920
     9   7 N       24   6 C                                       1.3533025
    10   7 N       25   6 C                                       1.4518179
    25   6 C       26   6 C                                       1.5235230
     5   8 O       27   6 C                                       1.2217300
    10   7 N       27   6 C                                       1.3343722
    11   7 N       28   6 C                                       1.4553358
    28   6 C       29   6 C                                       1.5191841
     6   8 O       30   6 C                                       1.2202600
    11   7 N       30   6 C                                       1.3411695
    12   7 N       31   6 C                                       1.4524907
    31   6 C       32   6 C                                       1.5301057
    32   6 C       33   6 C                                       1.5260049
    12   7 N       34   6 C                                       1.4524570
    33   6 C       34   6 C                                       1.5299514
    14   6 C       35   1 H                                       1.0924734
    15   6 C       36   1 H                                       1.0909678
    15   6 C       37   1 H                                       1.0886956
    16   6 C       38   1 H                                       1.0873910
    16   6 C       39   1 H                                       1.0897294
    17   6 C       40   1 H                                       1.0978197
    17   6 C       41   1 H                                       1.0890728
     8   7 N       42   1 H                                       1.0235245
    19   6 C       43   1 H                                       1.0941932
    20   6 C       44   1 H                                       1.0869145
    20   6 C       45   1 H                                       1.0866328
    20   6 C       46   1 H                                       1.0869187
     9   7 N       47   1 H                                       1.0119254 (min)
    22   6 C       48   1 H                                       1.0971444
    23   6 C       49   1 H                                       1.0863775
    23   6 C       50   1 H                                       1.0881207
    23   6 C       51   1 H                                       1.0869990
    10   7 N       52   1 H                                       1.0129610
    25   6 C       53   1 H                                       1.0972032
    26   6 C       54   1 H                                       1.0875256
    26   6 C       55   1 H                                       1.0874074
    26   6 C       56   1 H                                       1.0875462
    11   7 N       57   1 H                                       1.0154963
    28   6 C       58   1 H                                       1.0952527
    29   6 C       59   1 H                                       1.0874270
    29   6 C       60   1 H                                       1.0869334
    29   6 C       61   1 H                                       1.0860477
    31   6 C       62   1 H                                       1.0949408
    32   6 C       63   1 H                                       1.0906439
    32   6 C       64   1 H                                       1.0876613
    33   6 C       65   1 H                                       1.0879100
    33   6 C       66   1 H                                       1.0897875
    34   6 C       67   1 H                                       1.0923972
    34   6 C       68   1 H                                       1.0968138

 * 5 distinct bonds (by element types)

   Z      Z             #   av. dist./Å        max./Å        min./Å
   1 H    6 C          30     1.0901649     1.0978197     1.0860477
   6 C    6 C          10     1.5267744     1.5338136     1.5191841
   1 H    7 N           4     1.0159768     1.0235245     1.0119254
   6 C    7 N          14     1.4043134     1.4592800     1.3321231
   6 C    8 O           6     1.2204434     1.2285330     1.2115920


optimized geometry written to: xtbopt.xyz


           -------------------------------------------------
          | TOTAL ENERGY             -106.574165018645 Eh   |
          | GRADIENT NORM               0.000049499126 Eh/α |
          | HOMO-LUMO GAP               4.102011672909 eV   |
           -------------------------------------------------

------------------------------------------------------------------------
 * finished run on 2026/10/01 at 13:38:32.523     
------------------------------------------------------------------------
 total:
 * wall-time:     0 d,  0 h,  0 min, 10.948 sec
 *  cpu-time:     0 d,  0 h,  2 min, 40.561 sec
 * ratio c/w:    14.666 speedup
 SCF:
 * wall-time:     0 d,  0 h,  0 min,  4.651 sec
 *  cpu-time:     0 d,  0 h,  1 min,  8.519 sec
 * ratio c/w:    14.732 speedup
 ANC optimizer:
 * wall-time:     0 d,  0 h,  0 min,  6.252 sec
 *  cpu-time:     0 d,  0 h,  1 min, 31.412 sec
 * ratio c/w:    14.622 speedup


--- STDERR ---
normal termination of xtb
Note: The following floating-point exceptions are signalling: IEEE_UNDERFLOW_FLAG IEEE_DENORMAL
