34
frame_0065
O      -3.873820540074836      0.965210250642296     -1.953005268045011
C      -3.464594477374483      2.148509150053776     -2.185410253511732
O      -3.440539024610203      2.957723619847171     -3.107680570929375
H      -3.906175202434932      0.796642367108562     -1.155055327825812
C      -2.960250481033365      2.850466853776055     -0.594373922838648
H      -3.569380694850646      2.809601665887081     -0.287051086352365
H      -2.520504090688032      3.729801067887153     -1.019889997558351
N      -1.987520289942144      1.863730960396957     -0.217463708750248
H      -0.926438708996763      2.355764234186667     -0.130357076805631
C      -2.048449695022883      0.845355237773611      0.322564200004449
O      -3.231248748065014      0.203540677024582      0.382571731193165
C      -0.871377734353803     -0.018237684647462      1.072465332636989
H      -0.036924097891938      0.863524315378168      0.934324193226346
N      -1.321830812565734     -0.392873070521973      2.257526695220832
H      -0.571047625755054     -1.246069568976955      2.351312275988778
H      -2.032099949276035     -0.946492750311249      1.936666272826221
C      -0.324654109781234     -0.857372304492867     -0.095925067301453
H      -0.034563772808038     -0.349643643658861     -1.109762196564476
H      -1.048528145644076     -1.598318775519436     -0.384088851122303
C       0.939865919972389     -1.571977669127848      0.290739460616477
C       1.185272461937551     -2.801437511156262      1.023359236094956
H       0.407728353927354     -3.633830909091213      1.155174321113518
N       2.406474296979893     -2.905082114062296      1.211313127415016
H       2.616111921024277     -3.830798245973463      1.794804493391428
C       3.129948854104303     -1.905608037542440      0.830102103976175
C       4.502095887437155     -1.764199279291782      1.142588786543201
H       5.016882882325737     -2.269291121895485      1.691731063079378
C       5.100987032057573     -0.166104885476500      0.589071619725764
H       6.036526148839050     -0.229774730846317      0.806530390700001
C       4.192799855789984      0.606123453638545      0.025780575931085
H       4.447829149388308      1.367438600340163     -0.360276186670052
C       2.929538917630059      0.040619396408690     -0.117085832051732
H       2.223748320947663      0.918730826071392     -0.670787931877724
C       2.089688950325846     -0.708505963902087      0.458691923861967
