34
 energy: -56.475075403885 gnorm: 0.000893999402 xtb: 6.7.1-6.fc44.fc44
O           -3.95215030049589        1.03306715561135       -2.09321430629350
C           -3.43201283645188        2.24401338197975       -2.14233455325161
O           -3.36834399846300        2.89422507437960       -3.14668692482587
H           -3.87806050088837        0.63022548771691       -1.18513495664719
C           -2.92274639956644        2.78346224902190       -0.78690975435390
H           -3.76776169330912        2.77806198918302       -0.08741578575720
H           -2.57233449886820        3.80520191550595       -0.92635200380416
N           -1.84683380137979        1.98223588374242       -0.22712352637332
H           -0.92408152336586        2.38434119265535       -0.21042582270090
C           -2.05604827058807        0.77682195000400        0.32758747112133
O           -3.15090535807727        0.22706820185587        0.29186759441183
C           -0.83952813725918        0.10730275944509        0.93460563432184
H           -0.06224753758334        0.84569636957734        1.16490044916842
N           -1.23023039643896       -0.53161838782924        2.17139102214569
H           -0.52338588388755       -1.20393210381590        2.45325421063582
H           -2.10740014420767       -1.02502701744278        2.03161168545112
C           -0.28887755978810       -0.87660259769947       -0.14186867037920
H           -0.08928169003748       -0.32569983953208       -1.06325568287338
H           -1.05476480956324       -1.62854867582548       -0.34460474531079
C            0.95931162408659       -1.52312929099761        0.34917023755251
C            1.07564514783509       -2.73461706225797        0.96843872555547
H            0.32079602933942       -3.47401526522194        1.16066724901154
N            2.37614912617371       -2.95408910070226        1.33399539781877
H            2.72220059001644       -3.78112363639480        1.78916041077564
C            3.12984367717182       -1.87835783192861        0.96262719880551
C            4.48771388496879       -1.63005793082464        1.11681533856642
H            5.13515299973692       -2.35009987857259        1.59552475696075
C            4.97535571236493       -0.43460641102855        0.63596055373448
H            6.02638791584171       -0.20842263813183        0.73783067214392
C            4.13758543271782        0.49414215719178        0.01203354579663
H            4.56296789548993        1.41671263899555       -0.35449423000232
C            2.79146860155307        0.25410543811944       -0.14324077636150
H            2.15463601471003        0.97606913222943       -0.63363331616394
C            2.26733143973119       -0.94564089908311        0.33835742646151
