34
frame_0016
O      -1.048016132800000      2.566504765700000     -0.118118194100000
C      -1.119390747500000      2.311370416300000     -1.405971605900000
O      -0.471785455500000      2.890459295200000     -2.232560778400000
H      -1.583126916400000      1.916766813900000      0.423258026600000
C      -2.159329612600000      1.237407880800000     -1.802249490200000
H      -2.170075280500000      1.156026141000000     -2.888302206200000
H      -3.138289263100000      1.594806538100000     -1.454627101300000
N      -1.892496152300000     -0.070929989900000     -1.237338872000000
H      -1.771027548000000     -0.860148471100000     -1.857855122700000
C      -2.030288228000000     -0.369380901700000      0.057818281200000
O      -2.249381019200000      0.472100537200000      0.923772265800000
C      -1.905849612600000     -1.853188259400000      0.388926514900000
H      -2.874349304300000     -2.148104745500000      0.809490957700000
N      -1.670345680200000     -2.624986428400000     -0.821861476200000
H      -1.932584501700000     -3.593354612900000     -0.677752582800000
H      -0.673045212800000     -2.611864726600000     -1.030221093100000
C      -0.819615123200000     -2.049329745500000      1.480055335700000
H      -0.867834834400000     -3.081675463300000      1.835670155000000
H      -1.045881658600000     -1.379899032200000      2.309534886100000
C       0.538389455200000     -1.756234005200000      0.935937051500000
C       1.354820130500000     -2.622335327300000      0.262794557900000
H       1.230282750500000     -3.673768375700000      0.075940966700000
N       2.484395946200000     -1.974237939300000     -0.160292560300000
H       3.250391144700000     -2.397478043700000     -0.654972775900000
C       2.419219108800000     -0.667635790000000      0.234969654800000
C       3.313343951800000      0.377770936200000      0.042325496400000
H       4.236395964800000      0.228255299300000     -0.498603378600000
C       2.977110655200000      1.606319829400000      0.567194044200000
H       3.645493688900000      2.443147650300000      0.431527804400000
C       1.788296004400000      1.792978713100000      1.277848359300000
H       1.564044053500000      2.770543167400000      1.675164320400000
C       0.899240944200000      0.761476307800000      1.472002257000000
H      -0.013878133400000      0.914352314600000      2.025766084500000
C       1.202496318800000     -0.489046510800000      0.933477388000000
