      -----------------------------------------------------------      
     |                   =====================                   |     
     |                           x T B                           |     
     |                   =====================                   |     
     |                         S. Grimme                         |     
     |          Mulliken Center for Theoretical Chemistry        |     
     |                    University of Bonn                     |     
      -----------------------------------------------------------      

   * xtb version 6.7.1-6.fc44.fc44 compiled by Fedora project on Sun Jan 18 23:32:34 UTC 2026

   xtb is free software: you can redistribute it and/or modify it under
   the terms of the GNU Lesser General Public License as published by
   the Free Software Foundation, either version 3 of the License, or
   (at your option) any later version.
   
   xtb is distributed in the hope that it will be useful,
   but WITHOUT ANY WARRANTY; without even the implied warranty of
   MERCHANTABILITY or FITNESS FOR A PARTICULAR PURPOSE.  See the
   GNU Lesser General Public License for more details.
   
   Cite this work as:
   * C. Bannwarth, E. Caldeweyher, S. Ehlert, A. Hansen, P. Pracht,
     J. Seibert, S. Spicher, S. Grimme, WIREs Comput. Mol. Sci., 2020, 11,
     e01493. DOI: 10.1002/wcms.1493
   
   for GFN2-xTB:
   * C. Bannwarth, S. Ehlert and S. Grimme., J. Chem. Theory Comput., 2019,
     15, 1652-1671. DOI: 10.1021/acs.jctc.8b01176
   for GFN1-xTB:
   * S. Grimme, C. Bannwarth, P. Shushkov, J. Chem. Theory Comput., 2017,
     13, 1989-2009. DOI: 10.1021/acs.jctc.7b00118
   for GFN0-xTB:
   * P. Pracht, E. Caldeweyher, S. Ehlert, S. Grimme, ChemRxiv, 2019, preprint.
     DOI: 10.26434/chemrxiv.8326202.v1
   for GFN-FF:
   * S. Spicher and S. Grimme, Angew. Chem. Int. Ed., 2020, 59, 15665-15673.
     DOI: 10.1002/anie.202004239
   
   for ALPB and GBSA implicit solvation:
   * S. Ehlert, M. Stahn, S. Spicher, S. Grimme, J. Chem. Theory Comput.,
     2021, 17, 4250-4261. DOI: 10.1021/acs.jctc.1c00471
   
   for ddCOSMO and CPCM-X implicit solvation:
   * M. Stahn, S. Ehlert, S. Grimme, J. Phys. Chem. A,
     2023, XX, XXXX-XXXX. DOI: 10.1021/acs.jpca.3c04382
   
   for DFT-D4:
   * E. Caldeweyher, C. Bannwarth and S. Grimme, J. Chem. Phys., 2017,
     147, 034112. DOI: 10.1063/1.4993215
   * E. Caldeweyher, S. Ehlert, A. Hansen, H. Neugebauer, S. Spicher,
     C. Bannwarth and S. Grimme, J. Chem. Phys., 2019, 150, 154122.
     DOI: 10.1063/1.5090222
   * E. Caldeweyher, J.-M. Mewes, S. Ehlert and S. Grimme, Phys. Chem. Chem. Phys.
     2020, 22, 8499-8512. DOI: 10.1039/D0CP00502A
   
   for sTDA-xTB:
   * S. Grimme and C. Bannwarth, J. Chem. Phys., 2016, 145, 054103.
     DOI: 10.1063/1.4959605
   
   in the mass-spec context:
   * V. Asgeirsson, C. Bauer and S. Grimme, Chem. Sci., 2017, 8, 4879.
     DOI: 10.1039/c7sc00601b
   * J. Koopman and S. Grimme, ACS Omega 2019, 4, 12, 15120-15133.
     DOI: 10.1021/acsomega.9b02011
   
   for metadynamics refer to:
   * S. Grimme, J. Chem. Theory Comput., 2019, 155, 2847-2862
     DOI: 10.1021/acs.jctc.9b00143
   
   for SPH calculations refer to:
   * S. Spicher and S. Grimme, J. Chem. Theory Comput., 2021, 17, 1701-1714
     DOI: 10.1021/acs.jctc.0c01306
   
   for ONIOM refer to:
   * C. Plett, A. Katbashev, S. Ehlert, S. Grimme, M. Bursch,
     Phys. Chem. Chem. Phys., 2023, 25, 17860-17868. DOI: 10.1039/D3CP02178E
   
   for DIPRO refer to:
   * J. Kohn, N. Gildemeister, S. Grimme, D. Fazzi, A. Hansen,
     J. Chem. Phys., 2023, just accepted.
   
   for PTB refer to:
   * S. Grimme, M. Mueller, A. Hansen, J. Chem. Phys., 2023, 158, 124111.
     DOI: 10.1063/5.0137838
   
   with help from (in alphabetical order)
   P. Atkinson, C. Bannwarth, F. Bohle, G. Brandenburg, E. Caldeweyher
   M. Checinski, S. Dohm, S. Ehlert, S. Ehrlich, I. Gerasimov, C. Hölzer
   A. Katbashev, J. Kohn, J. Koopman, C. Lavigne, S. Lehtola, F. März, M. Müller,
   F. Musil, H. Neugebauer, J. Pisarek, C. Plett, P. Pracht, F. Pultar,
   J. Seibert, P. Shushkov, S. Spicher, M. Stahn, M. Steiner, T. Strunk,
   J. Stückrath, T. Rose, and J. Unsleber
   
 * started run on 2026/10/01 at 18:03:14.109     
   ID    Z sym.   atoms
    1    8 O      1, 3, 11
    2    6 C      2, 5, 10, 12, 17, 20, 21, 25, 26, 28, 30, 32, 34
    3    1 H      4, 6, 7, 9, 13, 15, 16, 18, 19, 22, 24, 27, 29, 31, 33
    4    7 N      8, 14, 23

           -------------------------------------------------
          |                Calculation Setup                |
           -------------------------------------------------

          program call               : /usr/bin/xtb input.xyz --opt --gfn 2 --chrg 0 --uhf 0
          hostname                   : fedora
          coordinate file            : input.xyz
          omp threads                :                    16


           -------------------------------------------------
          |                 G F N 2 - x T B                 |
           -------------------------------------------------

        Reference                      10.1021/acs.jctc.8b01176
      * Hamiltonian:
        H0-scaling (s, p, d)           1.850000    2.230000    2.230000
        zeta-weighting                 0.500000
      * Dispersion:
        s8                             2.700000
        a1                             0.520000
        a2                             5.000000
        s9                             5.000000
      * Repulsion:
        kExp                           1.500000    1.000000
        rExp                           1.000000
      * Coulomb:
        alpha                          2.000000
        third order                    shell-resolved
        anisotropic                    true
        a3                             3.000000
        a5                             4.000000
        cn-shift                       1.200000
        cn-exp                         4.000000
        max-rad                        5.000000


          ...................................................
          :                      SETUP                      :
          :.................................................:
          :  # basis functions                  91          :
          :  # atomic orbitals                  91          :
          :  # shells                           53          :
          :  # electrons                       100          :
          :  max. iterations                   250          :
          :  Hamiltonian                  GFN2-xTB          :
          :  restarted?                      false          :
          :  GBSA solvation                  false          :
          :  PC potential                    false          :
          :  electronic temp.          300.0000000     K    :
          :  accuracy                    1.0000000          :
          :  -> integral cutoff          0.2500000E+02      :
          :  -> integral neglect         0.1000000E-07      :
          :  -> SCF convergence          0.1000000E-05 Eh   :
          :  -> wf. convergence          0.1000000E-03 e    :
          :  Broyden damping             0.4000000          :
          :  net charge                          0          :
          :  unpaired electrons                  0          :
          ...................................................

 iter      E             dE          RMSdq      gap      omega  full diag
   1    -57.0840569 -0.570841E+02  0.417E+00    3.13       0.0  T
   2    -57.2189863 -0.134929E+00  0.247E+00    3.66       1.0  T
   3    -57.2273874 -0.840111E-02  0.137E+00    3.70       1.0  T
   4    -57.2278985 -0.511101E-03  0.585E-01    3.61       1.0  T
   5    -57.2377187 -0.982016E-02  0.115E-01    3.62       1.0  T
   6    -57.2378606 -0.141932E-03  0.600E-02    3.63       1.0  T
   7    -57.2378939 -0.332685E-04  0.262E-02    3.63       1.0  T
   8    -57.2378942 -0.358850E-06  0.113E-02    3.63       1.5  T
   9    -57.2378963 -0.210164E-05  0.362E-03    3.63       4.7  T
  10    -57.2378964 -0.628890E-07  0.158E-03    3.63      10.8  T
  11    -57.2378964 -0.129622E-07  0.690E-04    3.63      24.9  T
  12    -57.2378964 -0.510180E-08  0.243E-04    3.63      70.6  T

   *** convergence criteria satisfied after 12 iterations ***

         #    Occupation            Energy/Eh            Energy/eV
      -------------------------------------------------------------
         1        2.0000           -0.7299368             -19.8626
       ...           ...                  ...                  ...
        44        2.0000           -0.4204674             -11.4415
        45        2.0000           -0.4164907             -11.3333
        46        2.0000           -0.4116958             -11.2028
        47        2.0000           -0.3990560             -10.8589
        48        2.0000           -0.3954527             -10.7608
        49        2.0000           -0.3803114             -10.3488
        50        2.0000           -0.3647138              -9.9244 (HOMO)
        51                         -0.2313413              -6.2951 (LUMO)
        52                         -0.2295204              -6.2456
        53                         -0.2260011              -6.1498
        54                         -0.1939249              -5.2770
        55                         -0.1624075              -4.4193
       ...                                ...                  ...
        91                          0.7195768              19.5807
      -------------------------------------------------------------
                  HL-Gap            0.1333725 Eh            3.6292 eV
             Fermi-level           -0.2980276 Eh           -8.1097 eV

 SCC (total)                   0 d,  0 h,  0 min,  0.716 sec
 SCC setup                      ...        0 min,  0.005 sec (  0.716%)
 Dispersion                     ...        0 min,  0.004 sec (  0.569%)
 classical contributions        ...        0 min,  0.004 sec (  0.522%)
 integral evaluation            ...        0 min,  0.011 sec (  1.540%)
 iterations                     ...        0 min,  0.678 sec ( 94.679%)
 molecular gradient             ...        0 min,  0.014 sec (  1.923%)
 printout                       ...        0 min,  0.000 sec (  0.049%)

         :::::::::::::::::::::::::::::::::::::::::::::::::::::
         ::                     SUMMARY                     ::
         :::::::::::::::::::::::::::::::::::::::::::::::::::::
         :: total energy             -56.480685789708 Eh    ::
         :: gradient norm              0.000130656379 Eh/a0 ::
         :: HOMO-LUMO gap              3.629249203706 eV    ::
         ::.................................................::
         :: SCC energy               -57.236840093566 Eh    ::
         :: -> isotropic ES            0.098492817656 Eh    ::
         :: -> anisotropic ES          0.003563835905 Eh    ::
         :: -> anisotropic XC          0.019058911247 Eh    ::
         :: -> dispersion             -0.037759029139 Eh    ::
         :: repulsion energy           0.756154303859 Eh    ::
         :: add. restraining           0.000000000000 Eh    ::
         :: total charge              -0.000000000000 e     ::
         :::::::::::::::::::::::::::::::::::::::::::::::::::::

      ----------------------------------------------------------- 
     |                   =====================                   |
     |                        A N C O P T                        |
     |                   =====================                   |
     |               Approximate Normal Coordinate               |
     |                Rational Function Optimizer                |
      ----------------------------------------------------------- 
      ----------------------------------------------------------- 
     |                   =====================                   |
     |                        A N C O P T                        |
     |                   =====================                   |
     |               Approximate Normal Coordinate               |
     |                Rational Function Optimizer                |
      ----------------------------------------------------------- 

          ...................................................
          :                      SETUP                      :
          :.................................................:
          :   optimization level            normal          :
          :   max. optcycles                   200          :
          :   ANC micro-cycles                  20          :
          :   degrees of freedom                96          :
          :.................................................:
          :   RF solver                   davidson          :
          :   write xtbopt.log                true          :
          :   linear?                        false          :
          :   energy convergence         0.5000000E-05 Eh   :
          :   grad. convergence          0.1000000E-02 Eh/α :
          :   maxmium RF displ.          1.0000000          :
          :   Hlow (freq-cutoff)         0.1000000E-01      :
          :   Hmax (freq-cutoff)         5.0000000          :
          :   S6 in model hess.         20.0000000          :
          ...................................................

generating ANC from exact Hessian ...
Using Lindh-Hessian (1995)
 Shifting diagonal of input Hessian by    9.5555966034635981E-003
 Lowest  eigenvalues of input Hessian
    0.000000    0.000000    0.000000    0.000000    0.000000    0.000000
    0.010000    0.010228    0.011264    0.011836    0.012556    0.014787
    0.015788    0.019272    0.020137    0.021793    0.025315    0.026239
 Highest eigenvalues
    1.999516    2.008125    2.094140    2.201016    2.308161    2.369248


........................................................................
.............................. CYCLE    1 ..............................
........................................................................

 iter      E             dE          RMSdq      gap      omega  full diag
   1    -57.2378964 -0.572379E+02  0.101E-04    3.63       0.0  T
   2    -57.2378964 -0.511662E-10  0.572E-05    3.63     299.8  T
   3    -57.2378964 -0.486722E-11  0.363E-05    3.63     472.0  T
     SCC iter.                  ...        0 min,  0.389 sec
     gradient                   ...        0 min,  0.006 sec
 * total energy  :   -56.4806858 Eh     change       -0.8241869E-09 Eh
   gradient norm :     0.0001303 Eh/α   predicted     0.0000000E+00 (-100.00%)
   displ. norm   :     0.0017335 α      lambda       -0.1863411E-07
   maximum displ.:     0.0006669 α      in ANC's #4, #21, #25, ...

   *** GEOMETRY OPTIMIZATION CONVERGED AFTER 1 ITERATIONS ***

------------------------------------------------------------------------
 total energy gain   :        -0.0000000 Eh       -0.0000 kcal/mol
 total RMSD          :         0.0000000 a0        0.0000 Å
 total power (kW/mol):        -0.0000022 (step)   -0.0000 (real)
------------------------------------------------------------------------

 ANCopt (total)                0 d,  0 h,  0 min,  0.497 sec
 optimizer setup                ...        0 min,  0.000 sec (  0.028%)
 model hessian                  ...        0 min,  0.007 sec (  1.427%)
 ANC generation                 ...        0 min,  0.053 sec ( 10.556%)
 coordinate transformation      ...        0 min,  0.000 sec (  0.003%)
 single point calculation       ...        0 min,  0.437 sec ( 87.877%)
 optimization log               ...        0 min,  0.000 sec (  0.017%)
 hessian update                 ...        0 min,  0.000 sec (  0.000%)
 rational function              ...        0 min,  0.000 sec (  0.024%)

================
 final structure:
================
34
 xtb: 6.7.1-6.fc44.fc44
O           -1.04801613280000        2.56650476570000       -0.11811819410000
C           -1.11939074750000        2.31137041630000       -1.40597160590000
O           -0.47178545550000        2.89045929520000       -2.23256077840000
H           -1.58312691640000        1.91676681390000        0.42325802660000
C           -2.15932961260000        1.23740788080000       -1.80224949020000
H           -2.17007528050000        1.15602614100000       -2.88830220620000
H           -3.13828926310000        1.59480653810000       -1.45462710130000
N           -1.89249615230000       -0.07092998990000       -1.23733887200000
H           -1.77102754800000       -0.86014847110000       -1.85785512270000
C           -2.03028822800000       -0.36938090170000        0.05781828120000
O           -2.24938101920000        0.47210053720000        0.92377226580000
C           -1.90584961260000       -1.85318825940000        0.38892651490000
H           -2.87434930430000       -2.14810474550000        0.80949095770000
N           -1.67034568020000       -2.62498642840000       -0.82186147620000
H           -1.93258450170000       -3.59335461290000       -0.67775258280000
H           -0.67304521280000       -2.61186472660000       -1.03022109310000
C           -0.81961512320000       -2.04932974550000        1.48005533570000
H           -0.86783483440000       -3.08167546330000        1.83567015500000
H           -1.04588165860000       -1.37989903220000        2.30953488610000
C            0.53838945520000       -1.75623400520000        0.93593705150000
C            1.35482013050000       -2.62233532730000        0.26279455790000
H            1.23028275050000       -3.67376837570000        0.07594096670000
N            2.48439594620000       -1.97423793930000       -0.16029256030000
H            3.25039114470000       -2.39747804370000       -0.65497277590000
C            2.41921910880000       -0.66763579000000        0.23496965480000
C            3.31334395180000        0.37777093620000        0.04232549640000
H            4.23639596480000        0.22825529930000       -0.49860337860000
C            2.97711065520000        1.60631982940000        0.56719404420000
H            3.64549368890000        2.44314765030000        0.43152780440000
C            1.78829600440000        1.79297871310000        1.27784835930000
H            1.56404405350000        2.77054316740000        1.67516432040000
C            0.89924094420000        0.76147630780000        1.47200225700000
H           -0.01387813340000        0.91435231460000        2.02576608450000
C            1.20249631880000       -0.48904651080000        0.93347738800000

 Bond Distances (Angstroems)
 ---------------------------
O1-C2=1.3148         O1-H4=1.0008         C2-O1=1.3148         C2-O3=1.1992         C2-C5=1.5466         O3-C2=1.1992         
H4-O1=1.0008         C5-C2=1.5466         C5-H6=1.0892         C5-H7=1.0986         C5-N8=1.4499         H6-C5=1.0892         
H7-C5=1.0986         N8-C5=1.4499         N8-H9=1.0113         N8-C10=1.3362        H9-N8=1.0113         C10-N8=1.3362        
C10-O11=1.2272       C10-C12=1.5254       O11-C10=1.2272       C12-C10=1.5254       C12-H13=1.0963       C12-N14=1.4550       
C12-C17=1.5521       H13-C12=1.0963       N14-C12=1.4550       N14-H15=1.0135       N14-H16=1.0189       H15-N14=1.0135       
H16-N14=1.0189       C17-C12=1.5521       C17-H18=1.0929       C17-H19=1.0897       C17-C20=1.4920       H18-C17=1.0929       
H19-C17=1.0897       C20-C17=1.4920       C20-C21=1.3674       C20-C34=1.4307       C21-C20=1.3674       C21-H22=1.0751       
C21-N23=1.3693       H22-C21=1.0751       N23-C21=1.3693       N23-H24=1.0053       N23-C25=1.3666       H24-N23=1.0053       
C25-N23=1.3666       C25-C26=1.3890       C25-C34=1.4143       C26-C25=1.3890       C26-H27=1.0803       C26-C28=1.3776       
H27-C26=1.0803       C28-C26=1.3776       C28-H29=1.0795       C28-C30=1.3976       H29-C28=1.0795       C30-C28=1.3976       
C30-H31=1.0788       C30-C32=1.3755       H31-C30=1.0788       C32-C30=1.3755       C32-H33=1.0788       C32-C34=1.3949       
H33-C32=1.0788       C34-C20=1.4307       C34-C25=1.4143       C34-C32=1.3949       
 C  H  Rav=1.0859 sigma=0.0080  Rmin=1.0751  Rmax=1.0986    10
 C  C  Rav=1.4386 sigma=0.0673  Rmin=1.3674  Rmax=1.5521    12
 N  H  Rav=1.0123 sigma=0.0049  Rmin=1.0053  Rmax=1.0189     4
 N  C  Rav=1.3954 sigma=0.0480  Rmin=1.3362  Rmax=1.4550     5
 O  H  Rav=1.0008 sigma=0.0000  Rmin=1.0008  Rmax=1.0008     1
 O  C  Rav=1.2471 sigma=0.0493  Rmin=1.1992  Rmax=1.3148     3

 selected bond angles (degree)
 --------------------
H4-O1-C2=112.01                O3-C2-O1=123.51                C5-C2-O1=114.97                C5-C2-O3=121.46                
H6-C5-C2=108.30                H7-C5-C2=106.99                H7-C5-H6=109.33                N8-C5-C2=113.77                
N8-C5-H6=108.84                N8-C5-H7=109.53                H9-N8-C5=119.16                C10-N8-C5=124.07               
C10-N8-H9=115.65               O11-C10-N8=123.31              C12-C10-N8=114.79              C12-C10-O11=121.90             

 selected dihedral angles (degree)
 ---------------------------------
O3-C2-O1-H4=186.37            C5-C2-O1-H4=  9.01            H6-C5-C2-O1=176.63            H6-C5-C2-O3=359.21            
H7-C5-C2-O1= 58.88            H7-C5-C2-O3=241.46            N8-C5-C2-O1=297.78            N8-C5-C2-O3=120.36            
H9-N8-C5-C2=238.13            H9-N8-C5-H6=358.98            H9-N8-C5-H7=118.46            C10-N8-C5-C2= 70.77           
C10-N8-C5-H6=191.62           C10-N8-C5-H7=311.10           O11-C10-N8-C5=351.37          O11-C10-N8-H9=183.60          
C12-C10-N8-C5=170.88          C12-C10-N8-H9=  3.12          
           -------------------------------------------------
          |                Final Singlepoint                |
           -------------------------------------------------

          ...................................................
          :                      SETUP                      :
          :.................................................:
          :  # basis functions                  91          :
          :  # atomic orbitals                  91          :
          :  # shells                           53          :
          :  # electrons                       100          :
          :  max. iterations                   250          :
          :  Hamiltonian                  GFN2-xTB          :
          :  restarted?                      false          :
          :  GBSA solvation                  false          :
          :  PC potential                    false          :
          :  electronic temp.          300.0000000     K    :
          :  accuracy                    1.0000000          :
          :  -> integral cutoff          0.2500000E+02      :
          :  -> integral neglect         0.1000000E-07      :
          :  -> SCF convergence          0.1000000E-05 Eh   :
          :  -> wf. convergence          0.1000000E-03 e    :
          :  Broyden damping             0.4000000          :
          :  net charge                          0          :
          :  unpaired electrons                  0          :
          ...................................................

 iter      E             dE          RMSdq      gap      omega  full diag
   1    -57.2378964 -0.572379E+02  0.123E-05    3.63       0.0  T
   2    -57.2378964 -0.112266E-11  0.898E-06    3.63    1910.1  T
   3    -57.2378964 -0.149925E-11  0.507E-06    3.63    3380.2  T

   *** convergence criteria satisfied after 3 iterations ***

         #    Occupation            Energy/Eh            Energy/eV
      -------------------------------------------------------------
         1        2.0000           -0.7299403             -19.8627
       ...           ...                  ...                  ...
        44        2.0000           -0.4204678             -11.4415
        45        2.0000           -0.4164902             -11.3333
        46        2.0000           -0.4116954             -11.2028
        47        2.0000           -0.3990568             -10.8589
        48        2.0000           -0.3954527             -10.7608
        49        2.0000           -0.3803105             -10.3488
        50        2.0000           -0.3647130              -9.9243 (HOMO)
        51                         -0.2313413              -6.2951 (LUMO)
        52                         -0.2295204              -6.2456
        53                         -0.2260036              -6.1499
        54                         -0.1939239              -5.2769
        55                         -0.1624067              -4.4193
       ...                                ...                  ...
        91                          0.7195772              19.5807
      -------------------------------------------------------------
                  HL-Gap            0.1333718 Eh            3.6292 eV
             Fermi-level           -0.2980271 Eh           -8.1097 eV

 SCC (total)                   0 d,  0 h,  0 min,  0.095 sec
 SCC setup                      ...        0 min,  0.005 sec (  5.102%)
 Dispersion                     ...        0 min,  0.002 sec (  1.878%)
 classical contributions        ...        0 min,  0.005 sec (  5.509%)
 integral evaluation            ...        0 min,  0.015 sec ( 15.931%)
 iterations                     ...        0 min,  0.047 sec ( 49.963%)
 molecular gradient             ...        0 min,  0.020 sec ( 21.243%)
 printout                       ...        0 min,  0.000 sec (  0.348%)

         :::::::::::::::::::::::::::::::::::::::::::::::::::::
         ::                     SUMMARY                     ::
         :::::::::::::::::::::::::::::::::::::::::::::::::::::
         :: total energy             -56.480685790552 Eh    ::
         :: gradient norm              0.000130249631 Eh/a0 ::
         :: HOMO-LUMO gap              3.629230506171 eV    ::
         ::.................................................::
         :: SCC energy               -57.236840094410 Eh    ::
         :: -> isotropic ES            0.098490874000 Eh    ::
         :: -> anisotropic ES          0.003563930523 Eh    ::
         :: -> anisotropic XC          0.019058701492 Eh    ::
         :: -> dispersion             -0.037759053752 Eh    ::
         :: repulsion energy           0.756154303859 Eh    ::
         :: add. restraining           0.000000000000 Eh    ::
         :: total charge               0.000000000000 e     ::
         :::::::::::::::::::::::::::::::::::::::::::::::::::::

           -------------------------------------------------
          |                Property Printout                |
           -------------------------------------------------

    * Orbital Energies and Occupations

         #    Occupation            Energy/Eh            Energy/eV
      -------------------------------------------------------------
         1        2.0000           -0.7299403             -19.8627
       ...           ...                  ...                  ...
        38        2.0000           -0.4595180             -12.5041
        39        2.0000           -0.4572098             -12.4413
        40        2.0000           -0.4517944             -12.2940
        41        2.0000           -0.4508030             -12.2670
        42        2.0000           -0.4411726             -12.0049
        43        2.0000           -0.4239858             -11.5372
        44        2.0000           -0.4204678             -11.4415
        45        2.0000           -0.4164902             -11.3333
        46        2.0000           -0.4116954             -11.2028
        47        2.0000           -0.3990568             -10.8589
        48        2.0000           -0.3954527             -10.7608
        49        2.0000           -0.3803105             -10.3488
        50        2.0000           -0.3647130              -9.9243 (HOMO)
        51                         -0.2313413              -6.2951 (LUMO)
        52                         -0.2295204              -6.2456
        53                         -0.2260036              -6.1499
        54                         -0.1939239              -5.2769
        55                         -0.1624067              -4.4193
        56                         -0.0685736              -1.8660
        57                         -0.0182799              -0.4974
        58                          0.0163919               0.4460
        59                          0.0217278               0.5912
        60                          0.0649998               1.7687
        61                          0.0834569               2.2710
       ...                                ...                  ...
        91                          0.7195772              19.5807
      -------------------------------------------------------------
                  HL-Gap            0.1333718 Eh            3.6292 eV
             Fermi-level           -0.2980271 Eh           -8.1097 eV

     #   Z          covCN         q      C6AA      α(0)
     1   8 O        1.654    -0.375    20.364     6.092
     2   6 C        2.684     0.359    20.908     7.483
     3   8 O        0.856    -0.381    21.313     6.190
     4   1 H        0.799     0.367     0.550     1.165
     5   6 C        3.736    -0.039    21.356     6.595
     6   1 H        0.925     0.076     2.018     2.222
     7   1 H        0.923     0.072     2.066     2.248
     8   7 N        2.686    -0.164    24.558     7.360
     9   1 H        0.860     0.204     1.086     1.632
    10   6 C        2.754     0.266    22.513     7.770
    11   8 O        0.859    -0.458    22.874     6.412
    12   6 C        3.787     0.028    20.121     6.389
    13   1 H        0.924     0.055     2.258     2.350
    14   7 N        2.631    -0.360    29.289     8.038
    15   1 H        0.860     0.149     1.409     1.859
    16   1 H        0.860     0.153     1.378     1.839
    17   6 C        3.805    -0.065    21.742     6.638
    18   1 H        0.924     0.035     2.522     2.483
    19   1 H        0.925     0.062     2.180     2.309
    20   6 C        3.055    -0.036    28.836     8.807
    21   6 C        3.029    -0.014    28.327     8.730
    22   1 H        0.926     0.022     2.702     2.571
    23   7 N        2.776    -0.111    23.431     7.189
    24   1 H        0.860     0.156     1.362     1.828
    25   6 C        3.086     0.044    26.924     8.506
    26   6 C        2.909    -0.053    29.326     8.880
    27   1 H        0.926     0.023     2.694     2.567
    28   6 C        2.925    -0.031    28.784     8.798
    29   1 H        0.926     0.033     2.550     2.497
    30   6 C        2.920    -0.035    28.874     8.812
    31   1 H        0.926     0.038     2.469     2.457
    32   6 C        2.912    -0.037    28.925     8.819
    33   1 H        0.926     0.042     2.419     2.432
    34   6 C        3.115    -0.022    28.397     8.729

 Mol. C6AA /au·bohr⁶  :      13324.676533
 Mol. C8AA /au·bohr⁸  :     312345.017665
 Mol. α(0) /au        :        178.695135


Wiberg/Mayer (AO) data.
largest (>0.10) Wiberg bond orders for each atom

 ---------------------------------------------------------------------------
     #   Z sym  total        # sym  WBO       # sym  WBO       # sym  WBO
 ---------------------------------------------------------------------------
     1   8 O    2.234 --     2 C    1.208     4 H    0.761     3 O    0.183
     2   6 C    3.933 --     3 O    1.769     1 O    1.208     5 C    0.924
     3   8 O    2.061 --     2 C    1.769     1 O    0.183
     4   1 H    0.865 --     1 O    0.761
     5   6 C    3.964 --     8 N    0.990     6 H    0.975     7 H    0.953
                             2 C    0.924
     6   1 H    0.994 --     5 C    0.975
     7   1 H    0.995 --     5 C    0.953
     8   7 N    3.477 --    10 C    1.310     5 C    0.990     9 H    0.913
                            11 O    0.191
     9   1 H    0.958 --     8 N    0.913
    10   6 C    3.948 --    11 O    1.603     8 N    1.310    12 C    0.952
    11   8 O    2.013 --    10 C    1.603     8 N    0.191
    12   6 C    3.983 --    14 N    1.023    10 C    0.952    13 H    0.949
                            17 C    0.948
    13   1 H    0.996 --    12 C    0.949
    14   7 N    3.029 --    12 C    1.023    15 H    0.963    16 H    0.946
    15   1 H    0.978 --    14 N    0.963
    16   1 H    0.976 --    14 N    0.946
    17   6 C    3.994 --    20 C    1.022    18 H    0.972    19 H    0.968
                            12 C    0.948
    18   1 H    0.998 --    17 C    0.972
    19   1 H    0.996 --    17 C    0.968
    20   6 C    3.976 --    21 C    1.571    34 C    1.200    17 C    1.022
    21   6 C    3.947 --    20 C    1.571    23 N    1.190    22 H    0.969
    22   1 H    0.999 --    21 C    0.969
    23   7 N    3.535 --    21 C    1.190    25 C    1.170    24 H    0.948
    24   1 H    0.975 --    23 N    0.948
    25   6 C    3.958 --    26 C    1.336    34 C    1.256    23 N    1.170
    26   6 C    3.989 --    28 C    1.495    25 C    1.336    27 H    0.969
                            32 C    0.116
    27   1 H    0.999 --    26 C    0.969
    28   6 C    3.991 --    26 C    1.495    30 C    1.372    29 H    0.972
    29   1 H    0.999 --    28 C    0.972
    30   6 C    3.991 --    32 C    1.507    28 C    1.372    31 H    0.971
    31   1 H    0.998 --    30 C    0.971
    32   6 C    3.992 --    30 C    1.507    34 C    1.329    33 H    0.965
                            26 C    0.116
    33   1 H    0.998 --    32 C    0.965
    34   6 C    3.984 --    32 C    1.329    25 C    1.256    20 C    1.200
 ---------------------------------------------------------------------------

Topologies differ in total number of bonds
Writing topology from bond orders to xtbtopo.mol

molecular dipole:
                 x           y           z       tot (Debye)
 q only:       -0.215      -2.188      -0.351
   full:       -0.114      -3.025      -0.348       7.745
molecular quadrupole (traceless):
                xx          xy          yy          xz          yz          zz
 q only:        7.055      -1.992      -4.278       4.653       8.450      -2.778
  q+dip:       10.633      -3.345      -1.450       0.789      10.922      -9.183
   full:       10.622      -4.017      -2.721       2.736       9.947      -7.901

           -------------------------------------------------
          |                Geometry Summary                 |
           -------------------------------------------------

      molecular mass/u    :      261.2770023
   center of mass at/Å    :       -0.0000000       0.0000000       0.0000000
  moments of inertia/u·Å² :        0.1090884E+04   0.1252168E+04   0.1868252E+04
rotational constants/cm⁻¹ :        0.1545319E-01   0.1346276E-01   0.9023211E-02

 * 32 selected distances

     #   Z          #   Z                                           value/Å
     1   8 O        2   6 C                                       1.3148211
     2   6 C        3   8 O                                       1.1991607
     1   8 O        4   1 H                                       1.0007954 (min)
     5   6 C        6   1 H                                       1.0891507
     5   6 C        7   1 H                                       1.0986070
     5   6 C        8   7 N                                       1.4498526
     8   7 N        9   1 H                                       1.0112670
     8   7 N       10   6 C                                       1.3362230
    10   6 C       11   8 O                                       1.2271794
    12   6 C       13   1 H                                       1.0962856
    12   6 C       14   7 N                                       1.4550404
    14   7 N       15   1 H                                       1.0135451
    14   7 N       16   1 H                                       1.0189182
    17   6 C       18   1 H                                       1.0929432
    17   6 C       19   1 H                                       1.0896653
    17   6 C       20   6 C                                       1.4920277 (max)
    20   6 C       21   6 C                                       1.3674106
    21   6 C       22   1 H                                       1.0751444
    21   6 C       23   7 N                                       1.3692972
    23   7 N       24   1 H                                       1.0052808
    23   7 N       25   6 C                                       1.3666345
    25   6 C       26   6 C                                       1.3890452
    26   6 C       27   1 H                                       1.0802704
    26   6 C       28   6 C                                       1.3776330
    28   6 C       29   1 H                                       1.0795472
    28   6 C       30   6 C                                       1.3975520
    30   6 C       31   1 H                                       1.0787870
    30   6 C       32   6 C                                       1.3755407
    32   6 C       33   1 H                                       1.0788012
    20   6 C       34   6 C                                       1.4306672
    25   6 C       34   6 C                                       1.4142920
    32   6 C       34   6 C                                       1.3949124

 * 6 distinct bonds (by element types)

   Z      Z             #   av. dist./Å        max./Å        min./Å
   1 H    6 C          10     1.0859202     1.0986070     1.0751444
   6 C    6 C           9     1.4043423     1.4920277     1.3674106
   1 H    7 N           4     1.0122528     1.0189182     1.0052808
   6 C    7 N           5     1.3954095     1.4550404     1.3362230
   1 H    8 O           1     1.0007954     1.0007954     1.0007954
   6 C    8 O           3     1.2470538     1.3148211     1.1991607


optimized geometry written to: xtbopt.xyz


           -------------------------------------------------
          | TOTAL ENERGY              -56.480685790552 Eh   |
          | GRADIENT NORM               0.000130249631 Eh/α |
          | HOMO-LUMO GAP               3.629230506171 eV   |
           -------------------------------------------------

------------------------------------------------------------------------
 * finished run on 2026/10/01 at 18:03:15.451     
------------------------------------------------------------------------
 total:
 * wall-time:     0 d,  0 h,  0 min,  1.342 sec
 *  cpu-time:     0 d,  0 h,  0 min, 18.309 sec
 * ratio c/w:    13.643 speedup
 SCF:
 * wall-time:     0 d,  0 h,  0 min,  0.716 sec
 *  cpu-time:     0 d,  0 h,  0 min,  9.803 sec
 * ratio c/w:    13.684 speedup
 ANC optimizer:
 * wall-time:     0 d,  0 h,  0 min,  0.594 sec
 *  cpu-time:     0 d,  0 h,  0 min,  8.084 sec
 * ratio c/w:    13.621 speedup


--- STDERR ---
normal termination of xtb
Note: The following floating-point exceptions are signalling: IEEE_UNDERFLOW_FLAG IEEE_DENORMAL
