34
 energy: -56.480685790552 gnorm: 0.000130249631 xtb: 6.7.1-6.fc44.fc44
O           -1.04801613280000        2.56650476570000       -0.11811819410000
C           -1.11939074750000        2.31137041630000       -1.40597160590000
O           -0.47178545550000        2.89045929520000       -2.23256077840000
H           -1.58312691640000        1.91676681390000        0.42325802660000
C           -2.15932961260000        1.23740788080000       -1.80224949020000
H           -2.17007528050000        1.15602614100000       -2.88830220620000
H           -3.13828926310000        1.59480653810000       -1.45462710130000
N           -1.89249615230000       -0.07092998990000       -1.23733887200000
H           -1.77102754800000       -0.86014847110000       -1.85785512270000
C           -2.03028822800000       -0.36938090170000        0.05781828120000
O           -2.24938101920000        0.47210053720000        0.92377226580000
C           -1.90584961260000       -1.85318825940000        0.38892651490000
H           -2.87434930430000       -2.14810474550000        0.80949095770000
N           -1.67034568020000       -2.62498642840000       -0.82186147620000
H           -1.93258450170000       -3.59335461290000       -0.67775258280000
H           -0.67304521280000       -2.61186472660000       -1.03022109310000
C           -0.81961512320000       -2.04932974550000        1.48005533570000
H           -0.86783483440000       -3.08167546330000        1.83567015500000
H           -1.04588165860000       -1.37989903220000        2.30953488610000
C            0.53838945520000       -1.75623400520000        0.93593705150000
C            1.35482013050000       -2.62233532730000        0.26279455790000
H            1.23028275050000       -3.67376837570000        0.07594096670000
N            2.48439594620000       -1.97423793930000       -0.16029256030000
H            3.25039114470000       -2.39747804370000       -0.65497277590000
C            2.41921910880000       -0.66763579000000        0.23496965480000
C            3.31334395180000        0.37777093620000        0.04232549640000
H            4.23639596480000        0.22825529930000       -0.49860337860000
C            2.97711065520000        1.60631982940000        0.56719404420000
H            3.64549368890000        2.44314765030000        0.43152780440000
C            1.78829600440000        1.79297871310000        1.27784835930000
H            1.56404405350000        2.77054316740000        1.67516432040000
C            0.89924094420000        0.76147630780000        1.47200225700000
H           -0.01387813340000        0.91435231460000        2.02576608450000
C            1.20249631880000       -0.48904651080000        0.93347738800000
