34
frame_0043
O      -2.020659664212792      2.826722855691702      0.028001294587416
C      -3.392099423409529      2.404668428497313     -0.328350685667642
O      -3.846658746827928      2.890336905755874     -0.961321867245554
H      -1.568185495458548      2.015061639367845      0.412765791682624
C      -3.708680635043920      0.938381835174151      0.039873048677225
H      -4.639633902120877      0.789376390071895     -0.270841039193281
H      -3.556145731775120      0.998891875013393      1.278077365095934
N      -2.888770835190940     -0.055652502357711     -0.538720375804408
H      -3.383875221861642     -1.030996577729078     -0.923806631274550
C      -1.617358594393481     -0.445691614256820     -0.005070746845729
O      -0.972573080502605      0.325069526060930      0.955690469871511
C      -1.204032878011053     -1.463024635490524     -0.654350417427465
H      -0.655823868820069     -2.159203455949402      0.228091734546897
N      -2.051089128722758     -2.116214797220883     -1.298920274041470
H      -1.747873061963587     -3.449524913018641     -1.159316201223456
H      -2.112819972657316     -2.147220335850563     -2.400583850399812
C       0.132746554171152     -1.119159971087445     -1.557971001154060
H      -0.200603458325544     -0.500047006749080     -2.279909358543565
H       0.751920124742680     -2.048807458447901     -2.021034871411416
C       1.252400052692407     -0.445240476758864     -0.761713090993684
C       1.319698020629392      0.861562133954103     -0.731859616333864
H       0.705176908442730      1.792061538474806     -1.306058453118557
N       2.394588988684247      1.124015006302209      0.211510523814876
H       2.605713113738074      2.162271832612161      0.375111675305496
C       3.028989455966196      0.118300443092301      0.658851422352764
C       3.869205628596011     -0.070432865766655      1.535905710952206
H       4.523842427311491      0.870102806101446      1.847489630376046
C       4.281673455303077     -1.172429376626701      1.875078083931548
H       5.111511585629528     -1.664784369312102      2.499743868162394
C       3.539175474423977     -2.433212058687447      1.249556420457032
H       3.786723626870749     -3.481323291038184      1.568793300771329
C       2.513665019285654     -2.283056803741212      0.586578502642283
H       2.092005427324031     -2.980374495066592      0.076710688729964
C       2.122411935147197     -0.897524648077629      0.079779099484644
