      -----------------------------------------------------------      
     |                   =====================                   |     
     |                           x T B                           |     
     |                   =====================                   |     
     |                         S. Grimme                         |     
     |          Mulliken Center for Theoretical Chemistry        |     
     |                    University of Bonn                     |     
      -----------------------------------------------------------      

   * xtb version 6.7.1-6.fc44.fc44 compiled by Fedora project on Sun Jan 18 23:32:34 UTC 2026

   xtb is free software: you can redistribute it and/or modify it under
   the terms of the GNU Lesser General Public License as published by
   the Free Software Foundation, either version 3 of the License, or
   (at your option) any later version.
   
   xtb is distributed in the hope that it will be useful,
   but WITHOUT ANY WARRANTY; without even the implied warranty of
   MERCHANTABILITY or FITNESS FOR A PARTICULAR PURPOSE.  See the
   GNU Lesser General Public License for more details.
   
   Cite this work as:
   * C. Bannwarth, E. Caldeweyher, S. Ehlert, A. Hansen, P. Pracht,
     J. Seibert, S. Spicher, S. Grimme, WIREs Comput. Mol. Sci., 2020, 11,
     e01493. DOI: 10.1002/wcms.1493
   
   for GFN2-xTB:
   * C. Bannwarth, S. Ehlert and S. Grimme., J. Chem. Theory Comput., 2019,
     15, 1652-1671. DOI: 10.1021/acs.jctc.8b01176
   for GFN1-xTB:
   * S. Grimme, C. Bannwarth, P. Shushkov, J. Chem. Theory Comput., 2017,
     13, 1989-2009. DOI: 10.1021/acs.jctc.7b00118
   for GFN0-xTB:
   * P. Pracht, E. Caldeweyher, S. Ehlert, S. Grimme, ChemRxiv, 2019, preprint.
     DOI: 10.26434/chemrxiv.8326202.v1
   for GFN-FF:
   * S. Spicher and S. Grimme, Angew. Chem. Int. Ed., 2020, 59, 15665-15673.
     DOI: 10.1002/anie.202004239
   
   for ALPB and GBSA implicit solvation:
   * S. Ehlert, M. Stahn, S. Spicher, S. Grimme, J. Chem. Theory Comput.,
     2021, 17, 4250-4261. DOI: 10.1021/acs.jctc.1c00471
   
   for ddCOSMO and CPCM-X implicit solvation:
   * M. Stahn, S. Ehlert, S. Grimme, J. Phys. Chem. A,
     2023, XX, XXXX-XXXX. DOI: 10.1021/acs.jpca.3c04382
   
   for DFT-D4:
   * E. Caldeweyher, C. Bannwarth and S. Grimme, J. Chem. Phys., 2017,
     147, 034112. DOI: 10.1063/1.4993215
   * E. Caldeweyher, S. Ehlert, A. Hansen, H. Neugebauer, S. Spicher,
     C. Bannwarth and S. Grimme, J. Chem. Phys., 2019, 150, 154122.
     DOI: 10.1063/1.5090222
   * E. Caldeweyher, J.-M. Mewes, S. Ehlert and S. Grimme, Phys. Chem. Chem. Phys.
     2020, 22, 8499-8512. DOI: 10.1039/D0CP00502A
   
   for sTDA-xTB:
   * S. Grimme and C. Bannwarth, J. Chem. Phys., 2016, 145, 054103.
     DOI: 10.1063/1.4959605
   
   in the mass-spec context:
   * V. Asgeirsson, C. Bauer and S. Grimme, Chem. Sci., 2017, 8, 4879.
     DOI: 10.1039/c7sc00601b
   * J. Koopman and S. Grimme, ACS Omega 2019, 4, 12, 15120-15133.
     DOI: 10.1021/acsomega.9b02011
   
   for metadynamics refer to:
   * S. Grimme, J. Chem. Theory Comput., 2019, 155, 2847-2862
     DOI: 10.1021/acs.jctc.9b00143
   
   for SPH calculations refer to:
   * S. Spicher and S. Grimme, J. Chem. Theory Comput., 2021, 17, 1701-1714
     DOI: 10.1021/acs.jctc.0c01306
   
   for ONIOM refer to:
   * C. Plett, A. Katbashev, S. Ehlert, S. Grimme, M. Bursch,
     Phys. Chem. Chem. Phys., 2023, 25, 17860-17868. DOI: 10.1039/D3CP02178E
   
   for DIPRO refer to:
   * J. Kohn, N. Gildemeister, S. Grimme, D. Fazzi, A. Hansen,
     J. Chem. Phys., 2023, just accepted.
   
   for PTB refer to:
   * S. Grimme, M. Mueller, A. Hansen, J. Chem. Phys., 2023, 158, 124111.
     DOI: 10.1063/5.0137838
   
   with help from (in alphabetical order)
   P. Atkinson, C. Bannwarth, F. Bohle, G. Brandenburg, E. Caldeweyher
   M. Checinski, S. Dohm, S. Ehlert, S. Ehrlich, I. Gerasimov, C. Hölzer
   A. Katbashev, J. Kohn, J. Koopman, C. Lavigne, S. Lehtola, F. März, M. Müller,
   F. Musil, H. Neugebauer, J. Pisarek, C. Plett, P. Pracht, F. Pultar,
   J. Seibert, P. Shushkov, S. Spicher, M. Stahn, M. Steiner, T. Strunk,
   J. Stückrath, T. Rose, and J. Unsleber
   
 * started run on 2026/10/01 at 18:04:11.562     
   ID    Z sym.   atoms
    1    8 O      1, 3, 11
    2    6 C      2, 5, 10, 12, 17, 20, 21, 25, 26, 28, 30, 32, 34
    3    1 H      4, 6, 7, 9, 13, 15, 16, 18, 19, 22, 24, 27, 29, 31, 33
    4    7 N      8, 14, 23

           -------------------------------------------------
          |                Calculation Setup                |
           -------------------------------------------------

          program call               : /usr/bin/xtb input.xyz --opt --gfn 2 --chrg 0 --uhf 0
          hostname                   : fedora
          coordinate file            : input.xyz
          omp threads                :                    16


molecular fragmentation (1/2 indicates fragments):
1111111111111121111111111111111111
# atoms in fragment 1/2:    33     1
 fragment masses (1/2) :      260.27        1.01
CMA distance (Bohr)    :   7.658
constraining FC (au)   :  0.0500

           -------------------------------------------------
          |                 G F N 2 - x T B                 |
           -------------------------------------------------

        Reference                      10.1021/acs.jctc.8b01176
      * Hamiltonian:
        H0-scaling (s, p, d)           1.850000    2.230000    2.230000
        zeta-weighting                 0.500000
      * Dispersion:
        s8                             2.700000
        a1                             0.520000
        a2                             5.000000
        s9                             5.000000
      * Repulsion:
        kExp                           1.500000    1.000000
        rExp                           1.000000
      * Coulomb:
        alpha                          2.000000
        third order                    shell-resolved
        anisotropic                    true
        a3                             3.000000
        a5                             4.000000
        cn-shift                       1.200000
        cn-exp                         4.000000
        max-rad                        5.000000


          ...................................................
          :                      SETUP                      :
          :.................................................:
          :  # basis functions                  91          :
          :  # atomic orbitals                  91          :
          :  # shells                           53          :
          :  # electrons                       100          :
          :  max. iterations                   250          :
          :  Hamiltonian                  GFN2-xTB          :
          :  restarted?                      false          :
          :  GBSA solvation                  false          :
          :  PC potential                    false          :
          :  electronic temp.          300.0000000     K    :
          :  accuracy                    1.0000000          :
          :  -> integral cutoff          0.2500000E+02      :
          :  -> integral neglect         0.1000000E-07      :
          :  -> SCF convergence          0.1000000E-05 Eh   :
          :  -> wf. convergence          0.1000000E-03 e    :
          :  Broyden damping             0.4000000          :
          :  net charge                          0          :
          :  unpaired electrons                  0          :
          ...................................................

 iter      E             dE          RMSdq      gap      omega  full diag
   1    -56.7996292 -0.567996E+02  0.425E+00    2.69       0.0  T
   2    -56.9698793 -0.170250E+00  0.256E+00    2.15       1.0  T
   3    -56.9920911 -0.222119E-01  0.153E+00    2.52       1.0  T
   4    -56.9913748  0.716295E-03  0.773E-01    2.18       1.0  T
   5    -57.0101737 -0.187989E-01  0.199E-01    2.17       1.0  T
   6    -57.0109806 -0.806834E-03  0.820E-02    2.19       1.0  T
   7    -57.0110865 -0.105896E-03  0.358E-02    2.17       1.0  T
   8    -57.0110914 -0.495395E-05  0.157E-02    2.18       1.1  T
   9    -57.0110939 -0.248976E-05  0.492E-03    2.18       3.5  T
  10    -57.0110941 -0.157066E-06  0.251E-03    2.18       6.8  T
  11    -57.0110941 -0.810884E-07  0.873E-04    2.18      19.7  T
  12    -57.0110942 -0.810369E-08  0.373E-04    2.18      46.0  T

   *** convergence criteria satisfied after 12 iterations ***

         #    Occupation            Energy/Eh            Energy/eV
      -------------------------------------------------------------
         1        2.0000           -0.8122845             -22.1034
       ...           ...                  ...                  ...
        44        2.0000           -0.4206179             -11.4456
        45        2.0000           -0.4102087             -11.1623
        46        2.0000           -0.3939843             -10.7209
        47        2.0000           -0.3829109             -10.4195
        48        2.0000           -0.3817364             -10.3876
        49        2.0000           -0.3766168             -10.2483
        50        2.0000           -0.3484946              -9.4830 (HOMO)
        51                         -0.2684092              -7.3038 (LUMO)
        52                         -0.2372175              -6.4550
        53                         -0.2240616              -6.0970
        54                         -0.1693649              -4.6087
        55                         -0.1497854              -4.0759
       ...                                ...                  ...
        91                          2.7793791              75.6308
      -------------------------------------------------------------
                  HL-Gap            0.0800853 Eh            2.1792 eV
             Fermi-level           -0.3084519 Eh           -8.3934 eV

 SCC (total)                   0 d,  0 h,  0 min,  0.497 sec
 SCC setup                      ...        0 min,  0.002 sec (  0.338%)
 Dispersion                     ...        0 min,  0.006 sec (  1.180%)
 classical contributions        ...        0 min,  0.005 sec (  1.039%)
 integral evaluation            ...        0 min,  0.008 sec (  1.583%)
 iterations                     ...        0 min,  0.453 sec ( 91.217%)
 molecular gradient             ...        0 min,  0.022 sec (  4.498%)
 printout                       ...        0 min,  0.001 sec (  0.134%)

         :::::::::::::::::::::::::::::::::::::::::::::::::::::
         ::                     SUMMARY                     ::
         :::::::::::::::::::::::::::::::::::::::::::::::::::::
         :: total energy             -55.796496203979 Eh    ::
         :: gradient norm              1.943446868080 Eh/a0 ::
         :: HOMO-LUMO gap              2.179233168936 eV    ::
         ::.................................................::
         :: SCC energy               -57.010741923962 Eh    ::
         :: -> isotropic ES            0.109422306780 Eh    ::
         :: -> anisotropic ES          0.004408237386 Eh    ::
         :: -> anisotropic XC          0.023566583248 Eh    ::
         :: -> dispersion             -0.035555842442 Eh    ::
         :: repulsion energy           1.214245719983 Eh    ::
         :: add. restraining           0.000000000000 Eh    ::
         :: total charge              -0.000000000000 e     ::
         :::::::::::::::::::::::::::::::::::::::::::::::::::::

      ----------------------------------------------------------- 
     |                   =====================                   |
     |                        A N C O P T                        |
     |                   =====================                   |
     |               Approximate Normal Coordinate               |
     |                Rational Function Optimizer                |
      ----------------------------------------------------------- 
      ----------------------------------------------------------- 
     |                   =====================                   |
     |                        A N C O P T                        |
     |                   =====================                   |
     |               Approximate Normal Coordinate               |
     |                Rational Function Optimizer                |
      ----------------------------------------------------------- 

          ...................................................
          :                      SETUP                      :
          :.................................................:
          :   optimization level            normal          :
          :   max. optcycles                   200          :
          :   ANC micro-cycles                  20          :
          :   degrees of freedom                96          :
          :.................................................:
          :   RF solver                   davidson          :
          :   write xtbopt.log                true          :
          :   linear?                        false          :
          :   energy convergence         0.5000000E-05 Eh   :
          :   grad. convergence          0.1000000E-02 Eh/α :
          :   maxmium RF displ.          1.0000000          :
          :   Hlow (freq-cutoff)         0.1000000E-01      :
          :   Hmax (freq-cutoff)         5.0000000          :
          :   S6 in model hess.         20.0000000          :
          ...................................................

generating ANC from exact Hessian ...
Using Lindh-Hessian (1995)
 Shifting diagonal of input Hessian by    9.6792163558064876E-003
 Lowest  eigenvalues of input Hessian
    0.000000    0.000000    0.000000    0.000000    0.000000    0.000000
    0.010000    0.010321    0.010616    0.011675    0.012209    0.014680
    0.016464    0.018382    0.020292    0.022470    0.023499    0.024789
 Highest eigenvalues
    2.164331    2.348635    2.410018    2.474166    2.928467    3.735196


........................................................................
.............................. CYCLE    1 ..............................
........................................................................

 iter      E             dE          RMSdq      gap      omega  full diag
   1    -57.0110942 -0.570111E+02  0.164E-04    2.18       0.0  T
   2    -57.0110942 -0.232589E-09  0.111E-04    2.18     154.2  T
   3    -57.0110942 -0.165883E-09  0.637E-05    2.18     269.2  T
     SCC iter.                  ...        0 min,  0.192 sec
     gradient                   ...        0 min,  0.020 sec
 * total energy  :   -55.7964962 Eh     change       -0.7682317E-09 Eh
   gradient norm :     1.9434441 Eh/α   predicted     0.0000000E+00 (-100.00%)
   displ. norm   :     0.5289162 α      lambda       -0.9576505E+00
   maximum displ.:     0.3663202 α      in ANC's #96, #88, #94, ...

........................................................................
.............................. CYCLE    2 ..............................
........................................................................

 iter      E             dE          RMSdq      gap      omega  full diag
   1    -56.9850011 -0.569850E+02  0.127E+00    2.04       0.0  T
   2    -57.0435973 -0.585962E-01  0.684E-01    2.66       1.0  T
   3    -57.0467954 -0.319810E-02  0.394E-01    2.62       1.0  T
   4    -57.0463454  0.450030E-03  0.222E-01    2.64       1.0  T
   5    -57.0469877 -0.642365E-03  0.534E-02    2.62       1.0  T
   6    -57.0470593 -0.715234E-04  0.211E-02    2.62       1.0  T
   7    -57.0470649 -0.559546E-05  0.595E-03    2.62       2.9  T
   8    -57.0470655 -0.686409E-06  0.258E-03    2.62       6.6  T
   9    -57.0470656 -0.340287E-07  0.136E-03    2.62      12.6  T
  10    -57.0470656 -0.215120E-07  0.490E-04    2.62      35.0  T
  11    -57.0470656 -0.318846E-08  0.140E-04    2.62     122.4  T
     SCC iter.                  ...        0 min,  0.302 sec
     gradient                   ...        0 min,  0.039 sec
 * total energy  :   -56.2646156 Eh     change       -0.4681194E+00 Eh
   gradient norm :     0.5160643 Eh/α   predicted    -0.6127789E+00 (  30.90%)
   displ. norm   :     0.5071479 α      lambda       -0.2153738E+00
   maximum displ.:     0.1778368 α      in ANC's #57, #55, #88, ...

........................................................................
.............................. CYCLE    3 ..............................
........................................................................

 iter      E             dE          RMSdq      gap      omega  full diag
   1    -57.1642749 -0.571643E+02  0.601E-01    3.28       0.0  T
   2    -57.1679576 -0.368276E-02  0.368E-01    3.24       1.0  T
   3    -57.1684168 -0.459194E-03  0.204E-01    3.22       1.0  T
   4    -57.1684967 -0.798845E-04  0.717E-02    3.18       1.0  T
   5    -57.1686070 -0.110316E-03  0.166E-02    3.18       1.0  T
   6    -57.1686117 -0.470197E-05  0.826E-03    3.19       2.1  T
   7    -57.1686126 -0.886114E-06  0.385E-03    3.19       4.5  T
   8    -57.1686128 -0.128884E-06  0.129E-03    3.19      13.3  T
   9    -57.1686128 -0.156179E-07  0.500E-04    3.19      34.3  T
  10    -57.1686128 -0.194382E-08  0.222E-04    3.19      77.1  T
     SCC iter.                  ...        0 min,  1.638 sec
     gradient                   ...        0 min,  0.041 sec
 * total energy  :   -56.4234031 Eh     change       -0.1587875E+00 Eh
   gradient norm :     0.2302280 Eh/α   predicted    -0.1353839E+00 ( -14.74%)
   displ. norm   :     0.4700893 α      lambda       -0.8548652E-01
   maximum displ.:     0.1655355 α      in ANC's #57, #55, #63, ...

........................................................................
.............................. CYCLE    4 ..............................
........................................................................

 iter      E             dE          RMSdq      gap      omega  full diag
   1    -57.2468045 -0.572468E+02  0.518E-01    3.31       0.0  T
   2    -57.2479479 -0.114338E-02  0.309E-01    3.23       1.0  T
   3    -57.2479191  0.288156E-04  0.162E-01    3.25       1.0  T
   4    -57.2482077 -0.288597E-03  0.414E-02    3.20       1.0  T
   5    -57.2482400 -0.322799E-04  0.129E-02    3.21       1.3  T
   6    -57.2482431 -0.318207E-05  0.628E-03    3.21       2.7  T
   7    -57.2482435 -0.396536E-06  0.304E-03    3.21       5.6  T
   8    -57.2482437 -0.113029E-06  0.965E-04    3.21      17.8  T
   9    -57.2482437 -0.118245E-07  0.345E-04    3.21      49.7  T
     SCC iter.                  ...        0 min,  0.323 sec
     gradient                   ...        0 min,  0.007 sec
 * total energy  :   -56.4610523 Eh     change       -0.3764920E-01 Eh
   gradient norm :     0.1532173 Eh/α   predicted    -0.5218906E-01 (  38.62%)
   displ. norm   :     0.3965147 α      lambda       -0.3640183E-01
   maximum displ.:     0.1536127 α      in ANC's #40, #31, #35, ...

........................................................................
.............................. CYCLE    5 ..............................
........................................................................

 iter      E             dE          RMSdq      gap      omega  full diag
   1    -57.2273721 -0.572274E+02  0.335E-01    3.33       0.0  T
   2    -57.2275104 -0.138273E-03  0.196E-01    3.28       1.0  T
   3    -57.2274534  0.569951E-04  0.656E-02    3.29       1.0  T
   4    -57.2275281 -0.747666E-04  0.178E-02    3.28       1.0  T
   5    -57.2275369 -0.872575E-05  0.503E-03    3.28       3.4  T
   6    -57.2275370 -0.106155E-06  0.286E-03    3.28       6.0  T
   7    -57.2275371 -0.126951E-06  0.867E-04    3.28      19.8  T
   8    -57.2275371 -0.107953E-07  0.382E-04    3.28      44.9  T
     SCC iter.                  ...        0 min,  0.835 sec
     gradient                   ...        0 min,  0.047 sec
 * total energy  :   -56.4709869 Eh     change       -0.9934628E-02 Eh
   gradient norm :     0.0798678 Eh/α   predicted    -0.2106256E-01 ( 112.01%)
   displ. norm   :     0.2776586 α      lambda       -0.8645521E-02
   maximum displ.:     0.0923771 α      in ANC's #19, #16, #8, ...

........................................................................
.............................. CYCLE    6 ..............................
........................................................................

 iter      E             dE          RMSdq      gap      omega  full diag
   1    -57.2170696 -0.572171E+02  0.180E-01    3.34       0.0  T
   2    -57.2172280 -0.158416E-03  0.101E-01    3.34       1.0  T
   3    -57.2172305 -0.252818E-05  0.474E-02    3.34       1.0  T
   4    -57.2172401 -0.954700E-05  0.128E-02    3.35       1.3  T
   5    -57.2172451 -0.504540E-05  0.398E-03    3.35       4.3  T
   6    -57.2172453 -0.136517E-06  0.191E-03    3.35       9.0  T
   7    -57.2172453 -0.282894E-07  0.828E-04    3.35      20.7  T
   8    -57.2172453 -0.118951E-07  0.206E-04    3.35      83.3  T
     SCC iter.                  ...        0 min,  0.861 sec
     gradient                   ...        0 min,  0.048 sec
 * total energy  :   -56.4753886 Eh     change       -0.4401616E-02 Eh
   gradient norm :     0.0423816 Eh/α   predicted    -0.4656079E-02 (   5.78%)
   displ. norm   :     0.2233649 α      lambda       -0.4081278E-02
   maximum displ.:     0.0863847 α      in ANC's #26, #15, #25, ...

........................................................................
.............................. CYCLE    7 ..............................
........................................................................

 iter      E             dE          RMSdq      gap      omega  full diag
   1    -57.2236300 -0.572236E+02  0.149E-01    3.40       0.0  T
   2    -57.2236595 -0.295605E-04  0.826E-02    3.39       1.0  T
   3    -57.2236617 -0.219019E-05  0.163E-02    3.39       1.1  T
   4    -57.2236635 -0.172086E-05  0.440E-03    3.39       3.9  T
   5    -57.2236636 -0.106574E-06  0.244E-03    3.39       7.0  T
   6    -57.2236636 -0.646036E-07  0.113E-03    3.39      15.1  T
   7    -57.2236636 -0.150298E-07  0.391E-04    3.39      43.9  T
   8    -57.2236636 -0.351501E-08  0.940E-05    3.39     182.4  T
     SCC iter.                  ...        0 min,  1.177 sec
     gradient                   ...        0 min,  0.005 sec
 * total energy  :   -56.4764723 Eh     change       -0.1083750E-02 Eh
   gradient norm :     0.0313380 Eh/α   predicted    -0.2142446E-02 (  97.69%)
   displ. norm   :     0.1122676 α      lambda       -0.1685104E-02
   maximum displ.:     0.0516366 α      in ANC's #8, #22, #19, ...

........................................................................
.............................. CYCLE    8 ..............................
........................................................................

 iter      E             dE          RMSdq      gap      omega  full diag
   1    -57.2343000 -0.572343E+02  0.714E-02    3.42       0.0  T
   2    -57.2343098 -0.982328E-05  0.414E-02    3.41       1.0  T
   3    -57.2343083  0.156786E-05  0.138E-02    3.41       1.2  T
   4    -57.2343118 -0.348565E-05  0.309E-03    3.41       5.5  T
   5    -57.2343119 -0.129539E-06  0.157E-03    3.41      10.9  T
   6    -57.2343119 -0.243051E-07  0.618E-04    3.41      27.8  T
   7    -57.2343119 -0.365427E-08  0.244E-04    3.41      70.3  T
     SCC iter.                  ...        0 min,  0.224 sec
     gradient                   ...        0 min,  0.058 sec
 * total energy  :   -56.4773498 Eh     change       -0.8775415E-03 Eh
   gradient norm :     0.0142261 Eh/α   predicted    -0.8531796E-03 (  -2.78%)
   displ. norm   :     0.0742946 α      lambda       -0.3422529E-03
   maximum displ.:     0.0385797 α      in ANC's #8, #4, #6, ...

........................................................................
.............................. CYCLE    9 ..............................
........................................................................

 iter      E             dE          RMSdq      gap      omega  full diag
   1    -57.2334300 -0.572334E+02  0.388E-02    3.42       0.0  T
   2    -57.2334363 -0.627021E-05  0.211E-02    3.41       1.0  T
   3    -57.2334364 -0.116696E-06  0.959E-03    3.41       1.8  T
   4    -57.2334367 -0.345459E-06  0.274E-03    3.41       6.3  T
   5    -57.2334369 -0.183339E-06  0.912E-04    3.41      18.8  T
   6    -57.2334369 -0.383639E-08  0.388E-04    3.41      44.1  T
     SCC iter.                  ...        0 min,  0.475 sec
     gradient                   ...        0 min,  0.002 sec
 * total energy  :   -56.4775630 Eh     change       -0.2131821E-03 Eh
   gradient norm :     0.0088997 Eh/α   predicted    -0.1720728E-03 ( -19.28%)
   displ. norm   :     0.0863950 α      lambda       -0.2122742E-03
   maximum displ.:     0.0453428 α      in ANC's #8, #4, #7, ...

........................................................................
.............................. CYCLE   10 ..............................
........................................................................

 iter      E             dE          RMSdq      gap      omega  full diag
   1    -57.2345807 -0.572346E+02  0.426E-02    3.42       0.0  T
   2    -57.2345883 -0.765702E-05  0.238E-02    3.42       1.0  T
   3    -57.2345884 -0.111036E-06  0.107E-02    3.42       1.6  T
   4    -57.2345888 -0.418235E-06  0.328E-03    3.42       5.2  T
   5    -57.2345891 -0.282078E-06  0.970E-04    3.42      17.7  T
   6    -57.2345891 -0.694904E-09  0.476E-04    3.42      36.0  T
     SCC iter.                  ...        0 min,  0.168 sec
     gradient                   ...        0 min,  0.006 sec
 * total energy  :   -56.4777040 Eh     change       -0.1410016E-03 Eh
   gradient norm :     0.0055141 Eh/α   predicted    -0.1069314E-03 ( -24.16%)
   displ. norm   :     0.0749968 α      lambda       -0.9844403E-04
   maximum displ.:     0.0355509 α      in ANC's #8, #4, #7, ...

........................................................................
.............................. CYCLE   11 ..............................
........................................................................

 iter      E             dE          RMSdq      gap      omega  full diag
   1    -57.2353109 -0.572353E+02  0.342E-02    3.42       0.0  T
   2    -57.2353132 -0.234344E-05  0.192E-02    3.42       1.0  T
   3    -57.2353126  0.640067E-06  0.818E-03    3.42       2.1  T
   4    -57.2353136 -0.962980E-06  0.254E-03    3.42       6.8  T
   5    -57.2353137 -0.174831E-06  0.794E-04    3.42      21.6  T
   6    -57.2353137 -0.410964E-09  0.343E-04    3.42      50.0  T
     SCC iter.                  ...        0 min,  0.652 sec
     gradient                   ...        0 min,  0.039 sec
 * total energy  :   -56.4777700 Eh     change       -0.6593959E-04 Eh
   gradient norm :     0.0044699 Eh/α   predicted    -0.4950058E-04 ( -24.93%)
   displ. norm   :     0.0716569 α      lambda       -0.6897346E-04
   maximum displ.:     0.0382283 α      in ANC's #4, #8, #7, ...

........................................................................
.............................. CYCLE   12 ..............................
........................................................................

 iter      E             dE          RMSdq      gap      omega  full diag
   1    -57.2353216 -0.572353E+02  0.322E-02    3.42       0.0  T
   2    -57.2353225 -0.933080E-06  0.188E-02    3.42       1.0  T
   3    -57.2353218  0.767749E-06  0.611E-03    3.42       2.8  T
   4    -57.2353227 -0.950618E-06  0.175E-03    3.42       9.8  T
   5    -57.2353228 -0.819595E-07  0.630E-04    3.42      27.2  T
   6    -57.2353228 -0.225256E-09  0.249E-04    3.42      68.8  T
     SCC iter.                  ...        0 min,  0.354 sec
     gradient                   ...        0 min,  0.018 sec
 * total energy  :   -56.4778144 Eh     change       -0.4447324E-04 Eh
   gradient norm :     0.0040161 Eh/α   predicted    -0.3466551E-04 ( -22.05%)
   displ. norm   :     0.0686736 α      lambda       -0.4660965E-04
   maximum displ.:     0.0354770 α      in ANC's #4, #8, #7, ...

........................................................................
.............................. CYCLE   13 ..............................
........................................................................

 iter      E             dE          RMSdq      gap      omega  full diag
   1    -57.2349801 -0.572350E+02  0.305E-02    3.41       0.0  T
   2    -57.2349807 -0.641436E-06  0.177E-02    3.41       1.0  T
   3    -57.2349802  0.474348E-06  0.459E-03    3.41       3.7  T
   4    -57.2349808 -0.602375E-06  0.137E-03    3.41      12.5  T
   5    -57.2349809 -0.471489E-07  0.597E-04    3.41      28.7  T
   6    -57.2349809 -0.159314E-08  0.272E-04    3.41      63.1  T
     SCC iter.                  ...        0 min,  0.376 sec
     gradient                   ...        0 min,  0.001 sec
 * total energy  :   -56.4778440 Eh     change       -0.2953908E-04 Eh
   gradient norm :     0.0036805 Eh/α   predicted    -0.2341899E-04 ( -20.72%)
   displ. norm   :     0.0690016 α      lambda        0.1017415E-04
   maximum displ.:     0.0356573 α      in ANC's #4, #8, #7, ...

........................................................................
.............................. CYCLE   14 ..............................
........................................................................

 iter      E             dE          RMSdq      gap      omega  full diag
   1    -57.2344609 -0.572345E+02  0.305E-02    3.41       0.0  T
   2    -57.2344616 -0.652334E-06  0.178E-02    3.41       1.0  T
   3    -57.2344611  0.486346E-06  0.464E-03    3.41       3.7  T
   4    -57.2344617 -0.617992E-06  0.137E-03    3.41      12.5  T
   5    -57.2344617 -0.465697E-07  0.602E-04    3.41      28.5  T
   6    -57.2344617 -0.165093E-08  0.272E-04    3.41      63.1  T
     SCC iter.                  ...        0 min,  0.070 sec
     gradient                   ...        0 min,  0.041 sec
 * total energy  :   -56.4778385 Eh     change        0.5508768E-05 Eh
   gradient norm :     0.0057681 Eh/α   predicted     0.5110961E-05 (  -7.22%)
   displ. norm   :     0.0336147 α      lambda       -0.4021138E-04
   maximum displ.:     0.0151600 α      in ANC's #7, #8, #4, ...

........................................................................
.............................. CYCLE   15 ..............................
........................................................................

 iter      E             dE          RMSdq      gap      omega  full diag
   1    -57.2347760 -0.572348E+02  0.165E-02    3.41       0.0  T
   2    -57.2347765 -0.472219E-06  0.929E-03    3.41       1.8  T
   3    -57.2347763  0.154846E-06  0.363E-03    3.41       4.7  T
   4    -57.2347766 -0.230940E-06  0.113E-03    3.41      15.1  T
   5    -57.2347766 -0.313969E-07  0.426E-04    3.41      40.3  T
   6    -57.2347766 -0.331724E-09  0.164E-04    3.41     104.3  T
     SCC iter.                  ...        0 min,  0.033 sec
     gradient                   ...        0 min,  0.001 sec
 * total energy  :   -56.4778643 Eh     change       -0.2587457E-04 Eh
   gradient norm :     0.0040126 Eh/α   predicted    -0.2013345E-04 ( -22.19%)
   displ. norm   :     0.0181089 α      lambda       -0.2044581E-04
   maximum displ.:     0.0056478 α      in ANC's #21, #24, #7, ...

........................................................................
.............................. CYCLE   16 ..............................
........................................................................

 iter      E             dE          RMSdq      gap      omega  full diag
   1    -57.2350878 -0.572351E+02  0.106E-02    3.41       0.0  T
   2    -57.2350882 -0.358245E-06  0.591E-03    3.41       2.9  T
   3    -57.2350882  0.286209E-07  0.261E-03    3.41       6.6  T
   4    -57.2350882 -0.520180E-07  0.936E-04    3.41      18.3  T
   5    -57.2350882 -0.262856E-07  0.276E-04    3.41      62.2  T
     SCC iter.                  ...        0 min,  0.033 sec
     gradient                   ...        0 min,  0.001 sec
 * total energy  :   -56.4778798 Eh     change       -0.1544484E-04 Eh
   gradient norm :     0.0028237 Eh/α   predicted    -0.1022895E-04 ( -33.77%)
   displ. norm   :     0.0509956 α      lambda       -0.2487464E-04
   maximum displ.:     0.0275675 α      in ANC's #8, #4, #1, ...

........................................................................
.............................. CYCLE   17 ..............................
........................................................................

 iter      E             dE          RMSdq      gap      omega  full diag
   1    -57.2353340 -0.572353E+02  0.246E-02    3.41       0.0  T
   2    -57.2353345 -0.564455E-06  0.142E-02    3.41       1.2  T
   3    -57.2353345 -0.113944E-07  0.263E-03    3.41       6.5  T
   4    -57.2353346 -0.566158E-07  0.642E-04    3.41      26.7  T
   5    -57.2353346 -0.108813E-08  0.374E-04    3.41      45.8  T
     SCC iter.                  ...        0 min,  0.308 sec
     gradient                   ...        0 min,  0.007 sec
 * total energy  :   -56.4778962 Eh     change       -0.1645441E-04 Eh
   gradient norm :     0.0022255 Eh/α   predicted    -0.1247283E-04 ( -24.20%)
   displ. norm   :     0.0452875 α      lambda       -0.1159631E-04
   maximum displ.:     0.0271137 α      in ANC's #8, #4, #1, ...

........................................................................
.............................. CYCLE   18 ..............................
........................................................................

 iter      E             dE          RMSdq      gap      omega  full diag
   1    -57.2355192 -0.572355E+02  0.210E-02    3.41       0.0  T
   2    -57.2355193 -0.183399E-06  0.123E-02    3.41       1.4  T
   3    -57.2355193  0.300066E-07  0.180E-03    3.41       9.5  T
   4    -57.2355194 -0.643653E-07  0.743E-04    3.41      23.1  T
   5    -57.2355194 -0.105656E-07  0.373E-04    3.41      45.9  T
     SCC iter.                  ...        0 min,  0.030 sec
     gradient                   ...        0 min,  0.002 sec
 * total energy  :   -56.4779043 Eh     change       -0.8046707E-05 Eh
   gradient norm :     0.0017274 Eh/α   predicted    -0.5814827E-05 ( -27.74%)
   displ. norm   :     0.0547161 α      lambda       -0.7003020E-05
   maximum displ.:     0.0316160 α      in ANC's #8, #4, #7, ...

........................................................................
.............................. CYCLE   19 ..............................
........................................................................

 iter      E             dE          RMSdq      gap      omega  full diag
   1    -57.2354997 -0.572355E+02  0.257E-02    3.41       0.0  T
   2    -57.2354999 -0.154003E-06  0.150E-02    3.40       1.1  T
   3    -57.2354997  0.183758E-06  0.285E-03    3.40       6.0  T
   4    -57.2354999 -0.251540E-06  0.785E-04    3.40      21.8  T
   5    -57.2354999 -0.708694E-08  0.422E-04    3.40      40.6  T
     SCC iter.                  ...        0 min,  0.292 sec
     gradient                   ...        0 min,  0.006 sec
 * total energy  :   -56.4779094 Eh     change       -0.5140207E-05 Eh
   gradient norm :     0.0013164 Eh/α   predicted    -0.3509862E-05 ( -31.72%)
   displ. norm   :     0.0123190 α      lambda       -0.2476361E-05
   maximum displ.:     0.0083840 α      in ANC's #4, #5, #12, ...

........................................................................
.............................. CYCLE   20 ..............................
........................................................................

 iter      E             dE          RMSdq      gap      omega  full diag
   1    -57.2356023 -0.572356E+02  0.477E-03    3.41       0.0  T
   2    -57.2356023 -0.147866E-07  0.278E-03    3.41       6.2  T
   3    -57.2356023  0.109010E-07  0.769E-04    3.41      22.3  T
   4    -57.2356023 -0.138050E-07  0.202E-04    3.41      84.9  T
     SCC iter.                  ...        0 min,  0.352 sec
     gradient                   ...        0 min,  0.001 sec
 * total energy  :   -56.4779118 Eh     change       -0.2349277E-05 Eh
   gradient norm :     0.0008870 Eh/α   predicted    -0.1239927E-05 ( -47.22%)
   displ. norm   :     0.0210724 α      lambda       -0.2387319E-05
   maximum displ.:     0.0136149 α      in ANC's #4, #5, #15, ...

   *** GEOMETRY OPTIMIZATION CONVERGED AFTER 20 ITERATIONS ***

------------------------------------------------------------------------
 total energy gain   :        -0.6814156 Eh     -427.5947 kcal/mol
 total RMSD          :         0.2869334 a0        0.1518 Å
 total power (kW/mol):       -89.4528182 (step) -186.1766 (real)
------------------------------------------------------------------------

 ANCopt (total)                0 d,  0 h,  0 min,  9.609 sec
 optimizer setup                ...        0 min,  0.000 sec (  0.003%)
 model hessian                  ...        0 min,  0.008 sec (  0.082%)
 ANC generation                 ...        0 min,  0.053 sec (  0.550%)
 coordinate transformation      ...        0 min,  0.000 sec (  0.003%)
 single point calculation       ...        0 min,  9.482 sec ( 98.678%)
 optimization log               ...        0 min,  0.002 sec (  0.021%)
 hessian update                 ...        0 min,  0.051 sec (  0.534%)
 rational function              ...        0 min,  0.006 sec (  0.068%)

================
 final structure:
================
34
 xtb: 6.7.1-6.fc44.fc44
O           -1.98421572026436        2.65410504042513       -0.02882103780900
C           -3.21783324483488        2.35581780635747       -0.38769259173043
O           -3.91218458896299        3.09432243249635       -1.02812916531492
H           -1.54590281622788        1.89849371616994        0.46141024793668
C           -3.71907846323590        0.97764883483717        0.09727493373545
H           -4.75150698066077        0.84911364869800       -0.22400951483419
H           -3.67218734607493        0.97645379915618        1.19433321675972
N           -2.91613364559467       -0.11274935730937       -0.42342314970743
H           -3.35224560655110       -0.81615668248957       -1.00183030601649
C           -1.68062052860107       -0.37899406956327        0.02118920667716
O           -1.09580930659435        0.34742062178331        0.81902713676922
C           -1.02363563171965       -1.60779041638328       -0.58686999435477
H           -0.59863824430472       -2.18180282610630        0.24168358080195
N           -2.00341565307542       -2.42165734723517       -1.29720869226413
H           -1.72841929183162       -3.39606969574391       -1.29446178038280
H           -2.05903585896822       -2.12999205128865       -2.26864710871558
C            0.13509112473398       -1.12987174903373       -1.50327183909452
H           -0.28540682300717       -0.49615707493484       -2.28947115584341
H            0.57840814800790       -2.01466012542674       -1.96949846293772
C            1.17915052625020       -0.37779390490373       -0.75423994752428
C            1.33505101286777        0.97677075998114       -0.69280317068152
H            0.77121839859573        1.74700093361914       -1.18365247913806
N            2.37772209546705        1.29211150141465        0.13054194466165
H            2.66895432394884        2.22545672061813        0.36480656741208
C            2.91113032353442        0.14307941537374        0.63521699250007
C            3.97214447243308       -0.05490820826224        1.50901284196787
H            4.52285420203143        0.78084130934900        1.91545079857668
C            4.29405379161070       -1.35344372015731        1.84001034287587
H            5.11219158694666       -1.54364640080153        2.51889925611760
C            3.58221959176629       -2.43467292698714        1.31335156025751
H            3.86860147210995       -3.43681198810636        1.59787422561573
C            2.53122036240678       -2.24561314924349        0.44503162292904
H            1.99108488185684       -3.09052575518607        0.04247572606943
C            2.17973753560332       -0.94241752817969        0.09422034544867

 Bond Distances (Angstroems)
 ---------------------------
O1-C2=1.3189         O1-H4=1.0017         C2-O1=1.3189         C2-O3=1.1990         C2-C5=1.5446         O3-C2=1.1990         
H4-O1=1.0017         C5-C2=1.5446         C5-H6=1.0889         C5-H7=1.0981         C5-N8=1.4508         H6-C5=1.0889         
H7-C5=1.0981         N8-C5=1.4508         N8-H9=1.0097         N8-C10=1.3398        H9-N8=1.0097         C10-N8=1.3398        
C10-O11=1.2273       C10-C12=1.5203       O11-C10=1.2273       C12-C10=1.5203       C12-H13=1.0939       C12-N14=1.4584       
C12-C17=1.5527       H13-C12=1.0939       N14-C12=1.4584       N14-H15=1.0125       N14-H16=1.0158       H15-N14=1.0125       
H16-N14=1.0158       C17-C12=1.5527       C17-H18=1.0939       C17-H19=1.0940       C17-C20=1.4889       H18-C17=1.0939       
H19-C17=1.0940       C20-C17=1.4889       C20-C21=1.3649       C20-C34=1.4282       C21-C20=1.3649       C21-H22=1.0734       
C21-N23=1.3655       H22-C21=1.0734       N23-C21=1.3655       N23-H24=1.0054       N23-C25=1.3636       H24-N23=1.0054       
C25-N23=1.3636       C25-C26=1.3887       C25-C34=1.4163       C26-C25=1.3887       C26-H27=1.0803       C26-C28=1.3782       
H27-C26=1.0803       C28-C26=1.3782       C28-H29=1.0800       C28-C30=1.3975       H29-C28=1.0800       C30-C28=1.3975       
C30-H31=1.0804       C30-C32=1.3763       H31-C30=1.0804       C32-C30=1.3763       C32-H33=1.0806       C32-C34=1.3946       
H33-C32=1.0806       C34-C20=1.4282       C34-C25=1.4163       C34-C32=1.3946       
 C  H  Rav=1.0863 sigma=0.0079  Rmin=1.0734  Rmax=1.0981    10
 C  C  Rav=1.4376 sigma=0.0665  Rmin=1.3649  Rmax=1.5527    12
 N  H  Rav=1.0108 sigma=0.0038  Rmin=1.0054  Rmax=1.0158     4
 N  C  Rav=1.3956 sigma=0.0491  Rmin=1.3398  Rmax=1.4584     5
 O  H  Rav=1.0017 sigma=0.0000  Rmin=1.0017  Rmax=1.0017     1
 O  C  Rav=1.2484 sigma=0.0512  Rmin=1.1990  Rmax=1.3189     3

 selected bond angles (degree)
 --------------------
H4-O1-C2=111.83                O3-C2-O1=123.21                C5-C2-O1=114.83                C5-C2-O3=121.96                
H6-C5-C2=108.69                H7-C5-C2=107.51                H7-C5-H6=109.58                N8-C5-C2=112.23                
N8-C5-H6=109.28                N8-C5-H7=109.52                H9-N8-C5=119.35                C10-N8-C5=122.73               
C10-N8-H9=116.74               O11-C10-N8=122.52              C12-C10-N8=115.24              C12-C10-O11=122.17             

 selected dihedral angles (degree)
 ---------------------------------
O3-C2-O1-H4=182.82            C5-C2-O1-H4=  3.60            H6-C5-C2-O1=178.14            H6-C5-C2-O3=358.92            
H7-C5-C2-O1= 59.61            H7-C5-C2-O3=240.39            N8-C5-C2-O1=299.12            N8-C5-C2-O3=119.90            
H9-N8-C5-C2=240.57            H9-N8-C5-H6=  1.21            H9-N8-C5-H7=121.25            C10-N8-C5-C2= 73.42           
C10-N8-C5-H6=194.05           C10-N8-C5-H7=314.10           O11-C10-N8-C5=353.66          O11-C10-N8-H9=186.19          
C12-C10-N8-C5=176.68          C12-C10-N8-H9=  9.21          

 CMA Distance (Angstroems)
 ---------------------------
R(CMA):  4.0308
           -------------------------------------------------
          |                Final Singlepoint                |
           -------------------------------------------------

          ...................................................
          :                      SETUP                      :
          :.................................................:
          :  # basis functions                  91          :
          :  # atomic orbitals                  91          :
          :  # shells                           53          :
          :  # electrons                       100          :
          :  max. iterations                   250          :
          :  Hamiltonian                  GFN2-xTB          :
          :  restarted?                      false          :
          :  GBSA solvation                  false          :
          :  PC potential                    false          :
          :  electronic temp.          300.0000000     K    :
          :  accuracy                    1.0000000          :
          :  -> integral cutoff          0.2500000E+02      :
          :  -> integral neglect         0.1000000E-07      :
          :  -> SCF convergence          0.1000000E-05 Eh   :
          :  -> wf. convergence          0.1000000E-03 e    :
          :  Broyden damping             0.4000000          :
          :  net charge                          0          :
          :  unpaired electrons                  0          :
          ...................................................

 iter      E             dE          RMSdq      gap      omega  full diag
   1    -57.2356023 -0.572356E+02  0.836E-05    3.41       0.0  T
   2    -57.2356023 -0.233626E-10  0.536E-05    3.41     319.9  T
   3    -57.2356023 -0.120224E-10  0.362E-05    3.41     473.1  T

   *** convergence criteria satisfied after 3 iterations ***

         #    Occupation            Energy/Eh            Energy/eV
      -------------------------------------------------------------
         1        2.0000           -0.7364324             -20.0393
       ...           ...                  ...                  ...
        44        2.0000           -0.4232329             -11.5168
        45        2.0000           -0.4178400             -11.3700
        46        2.0000           -0.4139778             -11.2649
        47        2.0000           -0.4038763             -10.9900
        48        2.0000           -0.3959004             -10.7730
        49        2.0000           -0.3791842             -10.3181
        50        2.0000           -0.3598653              -9.7924 (HOMO)
        51                         -0.2346823              -6.3860 (LUMO)
        52                         -0.2316915              -6.3046
        53                         -0.2282236              -6.2103
        54                         -0.1947830              -5.3003
        55                         -0.1564961              -4.2585
       ...                                ...                  ...
        91                          0.7230968              19.6765
      -------------------------------------------------------------
                  HL-Gap            0.1251830 Eh            3.4064 eV
             Fermi-level           -0.2972738 Eh           -8.0892 eV

 SCC (total)                   0 d,  0 h,  0 min,  0.196 sec
 SCC setup                      ...        0 min,  0.003 sec (  1.284%)
 Dispersion                     ...        0 min,  0.012 sec (  6.280%)
 classical contributions        ...        0 min,  0.003 sec (  1.647%)
 integral evaluation            ...        0 min,  0.007 sec (  3.613%)
 iterations                     ...        0 min,  0.145 sec ( 73.819%)
 molecular gradient             ...        0 min,  0.026 sec ( 13.153%)
 printout                       ...        0 min,  0.000 sec (  0.194%)

         :::::::::::::::::::::::::::::::::::::::::::::::::::::
         ::                     SUMMARY                     ::
         :::::::::::::::::::::::::::::::::::::::::::::::::::::
         :: total energy             -56.477911786126 Eh    ::
         :: gradient norm              0.000885761540 Eh/a0 ::
         :: HOMO-LUMO gap              3.406403816768 eV    ::
         ::.................................................::
         :: SCC energy               -57.235272764657 Eh    ::
         :: -> isotropic ES            0.098593508959 Eh    ::
         :: -> anisotropic ES          0.004860459009 Eh    ::
         :: -> anisotropic XC          0.019165069812 Eh    ::
         :: -> dispersion             -0.035326058760 Eh    ::
         :: repulsion energy           0.757360978531 Eh    ::
         :: add. restraining           0.000000000000 Eh    ::
         :: total charge              -0.000000000000 e     ::
         :::::::::::::::::::::::::::::::::::::::::::::::::::::

           -------------------------------------------------
          |                Property Printout                |
           -------------------------------------------------

    * Orbital Energies and Occupations

         #    Occupation            Energy/Eh            Energy/eV
      -------------------------------------------------------------
         1        2.0000           -0.7364324             -20.0393
       ...           ...                  ...                  ...
        38        2.0000           -0.4666338             -12.6978
        39        2.0000           -0.4654687             -12.6660
        40        2.0000           -0.4524191             -12.3110
        41        2.0000           -0.4506225             -12.2621
        42        2.0000           -0.4450189             -12.1096
        43        2.0000           -0.4275146             -11.6333
        44        2.0000           -0.4232329             -11.5168
        45        2.0000           -0.4178400             -11.3700
        46        2.0000           -0.4139778             -11.2649
        47        2.0000           -0.4038763             -10.9900
        48        2.0000           -0.3959004             -10.7730
        49        2.0000           -0.3791842             -10.3181
        50        2.0000           -0.3598653              -9.7924 (HOMO)
        51                         -0.2346823              -6.3860 (LUMO)
        52                         -0.2316915              -6.3046
        53                         -0.2282236              -6.2103
        54                         -0.1947830              -5.3003
        55                         -0.1564961              -4.2585
        56                         -0.0691778              -1.8824
        57                         -0.0225658              -0.6140
        58                          0.0130886               0.3562
        59                          0.0298438               0.8121
        60                          0.0633429               1.7236
        61                          0.0780844               2.1248
       ...                                ...                  ...
        91                          0.7230968              19.6765
      -------------------------------------------------------------
                  HL-Gap            0.1251830 Eh            3.4064 eV
             Fermi-level           -0.2972738 Eh           -8.0892 eV

     #   Z          covCN         q      C6AA      α(0)
     1   8 O        1.654    -0.382    20.499     6.112
     2   6 C        2.685     0.359    20.914     7.484
     3   8 O        0.856    -0.379    21.268     6.183
     4   1 H        0.799     0.366     0.554     1.169
     5   6 C        3.738    -0.039    21.350     6.593
     6   1 H        0.925     0.077     2.013     2.219
     7   1 H        0.923     0.075     2.034     2.230
     8   7 N        2.687    -0.165    24.579     7.363
     9   1 H        0.860     0.201     1.099     1.642
    10   6 C        2.757     0.265    22.536     7.774
    11   8 O        0.859    -0.457    22.863     6.411
    12   6 C        3.786     0.027    20.137     6.392
    13   1 H        0.924     0.064     2.153     2.295
    14   7 N        2.631    -0.356    29.170     8.021
    15   1 H        0.860     0.152     1.388     1.845
    16   1 H        0.860     0.147     1.422     1.868
    17   6 C        3.806    -0.057    21.596     6.616
    18   1 H        0.924     0.030     2.589     2.516
    19   1 H        0.924     0.043     2.414     2.430
    20   6 C        3.059    -0.030    28.693     8.784
    21   6 C        3.034     0.000    27.990     8.678
    22   1 H        0.926     0.038     2.476     2.461
    23   7 N        2.781    -0.096    23.114     7.140
    24   1 H        0.860     0.162     1.323     1.801
    25   6 C        3.090     0.047    26.852     8.494
    26   6 C        2.909    -0.052    29.280     8.873
    27   1 H        0.926     0.024     2.674     2.557
    28   6 C        2.924    -0.037    28.915     8.818
    29   1 H        0.926     0.027     2.628     2.535
    30   6 C        2.920    -0.042    29.043     8.837
    31   1 H        0.926     0.024     2.669     2.555
    32   6 C        2.912    -0.037    28.926     8.819
    33   1 H        0.926     0.020     2.739     2.588
    34   6 C        3.118    -0.017    28.254     8.706

 Mol. C6AA /au·bohr⁶  :      13341.955807
 Mol. C8AA /au·bohr⁸  :     312476.180931
 Mol. α(0) /au        :        178.810805


Wiberg/Mayer (AO) data.
largest (>0.10) Wiberg bond orders for each atom

 ---------------------------------------------------------------------------
     #   Z sym  total        # sym  WBO       # sym  WBO       # sym  WBO
 ---------------------------------------------------------------------------
     1   8 O    2.226 --     2 C    1.199     4 H    0.762     3 O    0.182
     2   6 C    3.932 --     3 O    1.773     1 O    1.199     5 C    0.927
     3   8 O    2.064 --     2 C    1.773     1 O    0.182
     4   1 H    0.866 --     1 O    0.762
     5   6 C    3.964 --     8 N    0.990     6 H    0.975     7 H    0.952
                             2 C    0.927
     6   1 H    0.994 --     5 C    0.975
     7   1 H    0.994 --     5 C    0.952
     8   7 N    3.469 --    10 C    1.298     5 C    0.990     9 H    0.919
                            11 O    0.189
     9   1 H    0.959 --     8 N    0.919
    10   6 C    3.947 --    11 O    1.603     8 N    1.298    12 C    0.958
    11   8 O    2.013 --    10 C    1.603     8 N    0.189
    12   6 C    3.981 --    14 N    1.017    10 C    0.958    13 H    0.954
                            17 C    0.945
    13   1 H    0.996 --    12 C    0.954
    14   7 N    3.023 --    12 C    1.017    15 H    0.963    16 H    0.961
    15   1 H    0.977 --    14 N    0.963
    16   1 H    0.978 --    14 N    0.961
    17   6 C    3.994 --    20 C    1.020    18 H    0.975    19 H    0.967
                            12 C    0.945
    18   1 H    0.999 --    17 C    0.975
    19   1 H    0.997 --    17 C    0.967
    20   6 C    3.974 --    21 C    1.574    34 C    1.205    17 C    1.020
    21   6 C    3.954 --    20 C    1.574    23 N    1.205    22 H    0.969
    22   1 H    0.998 --    21 C    0.969
    23   7 N    3.551 --    21 C    1.205    25 C    1.178    24 H    0.946
    24   1 H    0.973 --    23 N    0.946
    25   6 C    3.959 --    26 C    1.340    34 C    1.245    23 N    1.178
    26   6 C    3.989 --    28 C    1.492    25 C    1.340    27 H    0.969
                            32 C    0.113
    27   1 H    0.999 --    26 C    0.969
    28   6 C    3.991 --    26 C    1.492    30 C    1.372    29 H    0.972
    29   1 H    0.999 --    28 C    0.972
    30   6 C    3.991 --    32 C    1.503    28 C    1.372    31 H    0.972
    31   1 H    0.999 --    30 C    0.972
    32   6 C    3.992 --    30 C    1.503    34 C    1.333    33 H    0.969
                            26 C    0.113
    33   1 H    0.999 --    32 C    0.969
    34   6 C    3.985 --    32 C    1.333    25 C    1.245    20 C    1.205
 ---------------------------------------------------------------------------

Topologies differ in total number of bonds
Writing topology from bond orders to xtbtopo.mol

molecular dipole:
                 x           y           z       tot (Debye)
 q only:        0.095      -1.380      -0.281
   full:        0.299      -1.767      -0.400       4.667
molecular quadrupole (traceless):
                xx          xy          yy          xz          yz          zz
 q only:        3.344      22.115      -5.964      -2.982       9.511       2.620
  q+dip:       -0.473      26.709      -3.343      -0.785      12.301       3.816
   full:       -0.202      26.868      -5.144      -3.199      12.744       5.345

           -------------------------------------------------
          |                Geometry Summary                 |
           -------------------------------------------------

      molecular mass/u    :      261.2770023
   center of mass at/Å    :        0.0150636      -0.0134525      -0.0137833
  moments of inertia/u·Å² :        0.6739464E+03   0.2315483E+04   0.2730855E+04
rotational constants/cm⁻¹ :        0.2501331E-01   0.7280394E-02   0.6173024E-02

 * 31 selected distances

     #   Z          #   Z                                           value/Å
     1   8 O        2   6 C                                       1.3189301
     2   6 C        3   8 O                                       1.1990297
     5   6 C        6   1 H                                       1.0888773
     5   6 C        7   1 H                                       1.0980607
     5   6 C        8   7 N                                       1.4507982
     8   7 N        9   1 H                                       1.0097180
     8   7 N       10   6 C                                       1.3397983
    10   6 C       11   8 O                                       1.2272849
    12   6 C       13   1 H                                       1.0938987
    12   6 C       14   7 N                                       1.4583997
    14   7 N       15   1 H                                       1.0124772
    14   7 N       16   1 H                                       1.0158027
    17   6 C       18   1 H                                       1.0938567
    17   6 C       19   1 H                                       1.0939598
    17   6 C       20   6 C                                       1.4888688 (max)
    20   6 C       21   6 C                                       1.3648902
    21   6 C       22   1 H                                       1.0733569
    21   6 C       23   7 N                                       1.3654671
    23   7 N       24   1 H                                       1.0054002 (min)
    23   7 N       25   6 C                                       1.3636335
    25   6 C       26   6 C                                       1.3886935
    26   6 C       27   1 H                                       1.0802548
    26   6 C       28   6 C                                       1.3781799
    28   6 C       29   1 H                                       1.0800078
    28   6 C       30   6 C                                       1.3975458
    30   6 C       31   1 H                                       1.0803937
    30   6 C       32   6 C                                       1.3763440
    32   6 C       33   1 H                                       1.0805902
    20   6 C       34   6 C                                       1.4282365
    25   6 C       34   6 C                                       1.4163039
    32   6 C       34   6 C                                       1.3946067

 * 5 distinct bonds (by element types)

   Z      Z             #   av. dist./Å        max./Å        min./Å
   1 H    6 C          10     1.0863257     1.0980607     1.0733569
   6 C    6 C           9     1.4037410     1.4888688     1.3648902
   1 H    7 N           4     1.0108495     1.0158027     1.0054002
   6 C    7 N           5     1.3956194     1.4583997     1.3397983
   6 C    8 O           3     1.2484149     1.3189301     1.1990297


optimized geometry written to: xtbopt.xyz


           -------------------------------------------------
          | TOTAL ENERGY              -56.477911786126 Eh   |
          | GRADIENT NORM               0.000885761540 Eh/α |
          | HOMO-LUMO GAP               3.406403816768 eV   |
           -------------------------------------------------

------------------------------------------------------------------------
 * finished run on 2026/10/01 at 18:04:21.890     
------------------------------------------------------------------------
 total:
 * wall-time:     0 d,  0 h,  0 min, 10.327 sec
 *  cpu-time:     0 d,  0 h,  2 min, 18.093 sec
 * ratio c/w:    13.371 speedup
 SCF:
 * wall-time:     0 d,  0 h,  0 min,  0.497 sec
 *  cpu-time:     0 d,  0 h,  0 min,  6.826 sec
 * ratio c/w:    13.730 speedup
 ANC optimizer:
 * wall-time:     0 d,  0 h,  0 min,  9.807 sec
 *  cpu-time:     0 d,  0 h,  2 min, 10.945 sec
 * ratio c/w:    13.352 speedup


--- STDERR ---
normal termination of xtb
Note: The following floating-point exceptions are signalling: IEEE_UNDERFLOW_FLAG IEEE_DENORMAL
