34
 energy: -56.477911786126 gnorm: 0.000885761540 xtb: 6.7.1-6.fc44.fc44
O           -1.98421572026436        2.65410504042513       -0.02882103780900
C           -3.21783324483488        2.35581780635747       -0.38769259173043
O           -3.91218458896299        3.09432243249635       -1.02812916531492
H           -1.54590281622788        1.89849371616994        0.46141024793668
C           -3.71907846323590        0.97764883483717        0.09727493373545
H           -4.75150698066077        0.84911364869800       -0.22400951483419
H           -3.67218734607493        0.97645379915618        1.19433321675972
N           -2.91613364559467       -0.11274935730937       -0.42342314970743
H           -3.35224560655110       -0.81615668248957       -1.00183030601649
C           -1.68062052860107       -0.37899406956327        0.02118920667716
O           -1.09580930659435        0.34742062178331        0.81902713676922
C           -1.02363563171965       -1.60779041638328       -0.58686999435477
H           -0.59863824430472       -2.18180282610630        0.24168358080195
N           -2.00341565307542       -2.42165734723517       -1.29720869226413
H           -1.72841929183162       -3.39606969574391       -1.29446178038280
H           -2.05903585896822       -2.12999205128865       -2.26864710871558
C            0.13509112473398       -1.12987174903373       -1.50327183909452
H           -0.28540682300717       -0.49615707493484       -2.28947115584341
H            0.57840814800790       -2.01466012542674       -1.96949846293772
C            1.17915052625020       -0.37779390490373       -0.75423994752428
C            1.33505101286777        0.97677075998114       -0.69280317068152
H            0.77121839859573        1.74700093361914       -1.18365247913806
N            2.37772209546705        1.29211150141465        0.13054194466165
H            2.66895432394884        2.22545672061813        0.36480656741208
C            2.91113032353442        0.14307941537374        0.63521699250007
C            3.97214447243308       -0.05490820826224        1.50901284196787
H            4.52285420203143        0.78084130934900        1.91545079857668
C            4.29405379161070       -1.35344372015731        1.84001034287587
H            5.11219158694666       -1.54364640080153        2.51889925611760
C            3.58221959176629       -2.43467292698714        1.31335156025751
H            3.86860147210995       -3.43681198810636        1.59787422561573
C            2.53122036240678       -2.24561314924349        0.44503162292904
H            1.99108488185684       -3.09052575518607        0.04247572606943
C            2.17973753560332       -0.94241752817969        0.09422034544867
