34
frame_0007
O      -1.133718687400000      2.461344866000000      0.225787069100000
C      -0.685423759500000      2.168428415100000     -0.975680269000000
O       0.227398557200000      2.742077073400000     -1.500142387500000
H      -1.833292718500000      1.816986578200000      0.536377571200000
C      -1.474551153600000      1.063946040600000     -1.716469998300000
H      -1.047326782500000      0.947981858100000     -2.711585524200000
H      -2.510071125000000      1.419357012700000     -1.805543804200000
N      -1.468416468100000     -0.222659798100000     -1.052380550800000
H      -1.010691231300000     -1.009659698200000     -1.491714617300000
C      -2.082976316800000     -0.480853586200000      0.105616998500000
O      -2.635767956300000      0.375114036500000      0.788770137000000
C      -2.017461450300000     -1.943960216700000      0.517120513200000
H      -2.889508376400000     -2.145267119600000      1.161864768500000
N      -1.968312476600000     -2.779081985700000     -0.676176005200000
H      -2.857707937300000     -2.752452880100000     -1.164024494500000
H      -1.785674676500000     -3.742763078800000     -0.418749354500000
C      -0.737157240900000     -2.158847632000000      1.356813909900000
H      -0.664352589000000     -3.222388140200000      1.598123769200000
H      -0.839300060700000     -1.600133119200000      2.287440402000000
C       0.485339866600000     -1.704090436200000      0.631960266900000
C       1.168517718400000     -2.366312742400000     -0.347155979800000
H       0.998952338900000     -3.346743815600000     -0.749235454800000
N       2.191781551600000     -1.587090826400000     -0.815095339700000
H       2.854886197200000     -1.855911189900000     -1.521258712100000
C       2.192240283100000     -0.398695430300000     -0.139540722900000
C       3.022662717900000      0.708120990400000     -0.258267642200000
H       3.829007847200000      0.725328542700000     -0.976466551900000
C       2.773296866100000      1.781399853900000      0.567907185200000
H       3.392226737000000      2.662432707400000      0.496694925500000
C       1.728437236000000      1.758097610800000      1.495269916200000
H       1.563351330100000      2.623097847200000      2.118851567100000
C       0.900688996300000      0.666152944500000      1.615520620600000
H       0.088783067300000      0.664390652400000      2.327565770500000
C       1.124091919300000     -0.433278067700000      0.786264690500000
