34
frame_0069
O      -4.376389764977334      2.497907416964591     -1.117479603315031
C      -3.722287849647581      2.462209640100948     -1.948563255234908
O      -3.536434261473287      3.551550494300231     -2.778083762347972
H      -4.267249435692039      1.531773607185884     -0.391615035754760
C      -2.813032061023975      1.188499671233085     -2.252726566660586
H      -2.095186222204737      1.374221262589924     -3.389927398024574
H      -3.394662786598566      0.455143344199786     -2.571701848286121
N      -1.779610572289276      1.075655280145813     -1.171289491397586
H      -0.753885671021767      1.151529878361994     -1.491951447417409
C      -2.039129908718929      0.461744043946559     -0.183269220352894
O      -3.017725566385309      0.385947356061862      0.292394699840265
C      -0.664426234801297     -0.081411626795552      0.606068317351910
H       0.023407507240127      0.796898291121149      0.672997206807154
N      -1.147530180449573     -0.190537287303838      1.867488457219577
H      -1.967327387986763     -0.634137111183577      2.206435169925367
H      -1.473388214605800      0.772428005476162      2.533329407756779
C      -0.199937754043996     -1.330841636025665      0.234864479891960
H      -0.189302382804698     -1.161246257550335     -0.890545942932799
H      -0.982216852730298     -2.070778969278630      0.454818369351215
C       0.924392955642323     -1.502290241824384      0.864987336397440
C       1.201549567236973     -2.342208875553352      1.966946464426668
H       0.601130368454385     -2.755430972896605      2.677685002519722
N       2.474843674999317     -2.368173433707019      2.430297466256754
H       3.127788308318964     -2.814987599217747      3.057931969427000
C       3.206238105866614     -1.449715809161748      1.333412345633107
C       4.617315343705462     -1.273357521899000      1.434789332652672
H       5.183330385523269     -1.803608645633567      1.864468658665443
C       5.036804197643409     -0.511775564911578      0.228771990461896
H       6.048847538006468     -0.404302756092363     -0.020767323732593
C       4.070493026264665     -0.099586119698329     -0.752090255871097
H       4.400393079372462      0.535545136712494     -1.533420826211462
C       2.734123585554067     -0.348718893007771     -0.379147917599570
H       2.019090309339625      0.144683276344561     -1.326157176892114
C       2.277544429639228     -0.974014542223353      0.432052680075469
