      -----------------------------------------------------------      
     |                   =====================                   |     
     |                           x T B                           |     
     |                   =====================                   |     
     |                         S. Grimme                         |     
     |          Mulliken Center for Theoretical Chemistry        |     
     |                    University of Bonn                     |     
      -----------------------------------------------------------      

   * xtb version 6.7.1-6.fc44.fc44 compiled by Fedora project on Sun Jan 18 23:32:34 UTC 2026

   xtb is free software: you can redistribute it and/or modify it under
   the terms of the GNU Lesser General Public License as published by
   the Free Software Foundation, either version 3 of the License, or
   (at your option) any later version.
   
   xtb is distributed in the hope that it will be useful,
   but WITHOUT ANY WARRANTY; without even the implied warranty of
   MERCHANTABILITY or FITNESS FOR A PARTICULAR PURPOSE.  See the
   GNU Lesser General Public License for more details.
   
   Cite this work as:
   * C. Bannwarth, E. Caldeweyher, S. Ehlert, A. Hansen, P. Pracht,
     J. Seibert, S. Spicher, S. Grimme, WIREs Comput. Mol. Sci., 2020, 11,
     e01493. DOI: 10.1002/wcms.1493
   
   for GFN2-xTB:
   * C. Bannwarth, S. Ehlert and S. Grimme., J. Chem. Theory Comput., 2019,
     15, 1652-1671. DOI: 10.1021/acs.jctc.8b01176
   for GFN1-xTB:
   * S. Grimme, C. Bannwarth, P. Shushkov, J. Chem. Theory Comput., 2017,
     13, 1989-2009. DOI: 10.1021/acs.jctc.7b00118
   for GFN0-xTB:
   * P. Pracht, E. Caldeweyher, S. Ehlert, S. Grimme, ChemRxiv, 2019, preprint.
     DOI: 10.26434/chemrxiv.8326202.v1
   for GFN-FF:
   * S. Spicher and S. Grimme, Angew. Chem. Int. Ed., 2020, 59, 15665-15673.
     DOI: 10.1002/anie.202004239
   
   for ALPB and GBSA implicit solvation:
   * S. Ehlert, M. Stahn, S. Spicher, S. Grimme, J. Chem. Theory Comput.,
     2021, 17, 4250-4261. DOI: 10.1021/acs.jctc.1c00471
   
   for ddCOSMO and CPCM-X implicit solvation:
   * M. Stahn, S. Ehlert, S. Grimme, J. Phys. Chem. A,
     2023, XX, XXXX-XXXX. DOI: 10.1021/acs.jpca.3c04382
   
   for DFT-D4:
   * E. Caldeweyher, C. Bannwarth and S. Grimme, J. Chem. Phys., 2017,
     147, 034112. DOI: 10.1063/1.4993215
   * E. Caldeweyher, S. Ehlert, A. Hansen, H. Neugebauer, S. Spicher,
     C. Bannwarth and S. Grimme, J. Chem. Phys., 2019, 150, 154122.
     DOI: 10.1063/1.5090222
   * E. Caldeweyher, J.-M. Mewes, S. Ehlert and S. Grimme, Phys. Chem. Chem. Phys.
     2020, 22, 8499-8512. DOI: 10.1039/D0CP00502A
   
   for sTDA-xTB:
   * S. Grimme and C. Bannwarth, J. Chem. Phys., 2016, 145, 054103.
     DOI: 10.1063/1.4959605
   
   in the mass-spec context:
   * V. Asgeirsson, C. Bauer and S. Grimme, Chem. Sci., 2017, 8, 4879.
     DOI: 10.1039/c7sc00601b
   * J. Koopman and S. Grimme, ACS Omega 2019, 4, 12, 15120-15133.
     DOI: 10.1021/acsomega.9b02011
   
   for metadynamics refer to:
   * S. Grimme, J. Chem. Theory Comput., 2019, 155, 2847-2862
     DOI: 10.1021/acs.jctc.9b00143
   
   for SPH calculations refer to:
   * S. Spicher and S. Grimme, J. Chem. Theory Comput., 2021, 17, 1701-1714
     DOI: 10.1021/acs.jctc.0c01306
   
   for ONIOM refer to:
   * C. Plett, A. Katbashev, S. Ehlert, S. Grimme, M. Bursch,
     Phys. Chem. Chem. Phys., 2023, 25, 17860-17868. DOI: 10.1039/D3CP02178E
   
   for DIPRO refer to:
   * J. Kohn, N. Gildemeister, S. Grimme, D. Fazzi, A. Hansen,
     J. Chem. Phys., 2023, just accepted.
   
   for PTB refer to:
   * S. Grimme, M. Mueller, A. Hansen, J. Chem. Phys., 2023, 158, 124111.
     DOI: 10.1063/5.0137838
   
   with help from (in alphabetical order)
   P. Atkinson, C. Bannwarth, F. Bohle, G. Brandenburg, E. Caldeweyher
   M. Checinski, S. Dohm, S. Ehlert, S. Ehrlich, I. Gerasimov, C. Hölzer
   A. Katbashev, J. Kohn, J. Koopman, C. Lavigne, S. Lehtola, F. März, M. Müller,
   F. Musil, H. Neugebauer, J. Pisarek, C. Plett, P. Pracht, F. Pultar,
   J. Seibert, P. Shushkov, S. Spicher, M. Stahn, M. Steiner, T. Strunk,
   J. Stückrath, T. Rose, and J. Unsleber
   
 * started run on 2026/10/01 at 18:05:30.120     
   ID    Z sym.   atoms
    1    8 O      1, 3, 11
    2    6 C      2, 5, 10, 12, 17, 20, 21, 25, 26, 28, 30, 32, 34
    3    1 H      4, 6, 7, 9, 13, 15, 16, 18, 19, 22, 24, 27, 29, 31, 33
    4    7 N      8, 14, 23

           -------------------------------------------------
          |                Calculation Setup                |
           -------------------------------------------------

          program call               : /usr/bin/xtb input.xyz --opt --gfn 2 --chrg 0 --uhf 0
          hostname                   : fedora
          coordinate file            : input.xyz
          omp threads                :                    16


           -------------------------------------------------
          |                 G F N 2 - x T B                 |
           -------------------------------------------------

        Reference                      10.1021/acs.jctc.8b01176
      * Hamiltonian:
        H0-scaling (s, p, d)           1.850000    2.230000    2.230000
        zeta-weighting                 0.500000
      * Dispersion:
        s8                             2.700000
        a1                             0.520000
        a2                             5.000000
        s9                             5.000000
      * Repulsion:
        kExp                           1.500000    1.000000
        rExp                           1.000000
      * Coulomb:
        alpha                          2.000000
        third order                    shell-resolved
        anisotropic                    true
        a3                             3.000000
        a5                             4.000000
        cn-shift                       1.200000
        cn-exp                         4.000000
        max-rad                        5.000000


          ...................................................
          :                      SETUP                      :
          :.................................................:
          :  # basis functions                  91          :
          :  # atomic orbitals                  91          :
          :  # shells                           53          :
          :  # electrons                       100          :
          :  max. iterations                   250          :
          :  Hamiltonian                  GFN2-xTB          :
          :  restarted?                      false          :
          :  GBSA solvation                  false          :
          :  PC potential                    false          :
          :  electronic temp.          300.0000000     K    :
          :  accuracy                    1.0000000          :
          :  -> integral cutoff          0.2500000E+02      :
          :  -> integral neglect         0.1000000E-07      :
          :  -> SCF convergence          0.1000000E-05 Eh   :
          :  -> wf. convergence          0.1000000E-03 e    :
          :  Broyden damping             0.4000000          :
          :  net charge                          0          :
          :  unpaired electrons                  0          :
          ...................................................

 iter      E             dE          RMSdq      gap      omega  full diag
   1    -56.8096261 -0.568096E+02  0.435E+00    2.22       0.0  T
   2    -56.9703487 -0.160723E+00  0.262E+00    2.79       1.0  T
   3    -56.9748175 -0.446878E-02  0.154E+00    2.78       1.0  T
   4    -56.9723764  0.244104E-02  0.856E-01    2.83       1.0  T
   5    -56.9936631 -0.212867E-01  0.174E-01    2.86       1.0  T
   6    -56.9942936 -0.630540E-03  0.677E-02    2.85       1.0  T
   7    -56.9943343 -0.406923E-04  0.335E-02    2.86       1.0  T
   8    -56.9943414 -0.705140E-05  0.118E-02    2.85       1.4  T
   9    -56.9943434 -0.197940E-05  0.570E-03    2.85       3.0  T
  10    -56.9943439 -0.507522E-06  0.250E-03    2.85       6.9  T
  11    -56.9943439 -0.519059E-07  0.125E-03    2.85      13.8  T
  12    -56.9943439 -0.173901E-07  0.461E-04    2.85      37.2  T
  13    -56.9943439 -0.239628E-08  0.128E-04    2.85     133.7  T

   *** convergence criteria satisfied after 13 iterations ***

         #    Occupation            Energy/Eh            Energy/eV
      -------------------------------------------------------------
         1        2.0000           -0.8021747             -21.8283
       ...           ...                  ...                  ...
        44        2.0000           -0.4224569             -11.4956
        45        2.0000           -0.4056186             -11.0374
        46        2.0000           -0.4025826             -10.9548
        47        2.0000           -0.3936344             -10.7113
        48        2.0000           -0.3714586             -10.1079
        49        2.0000           -0.3550338              -9.6610
        50        2.0000           -0.3447403              -9.3809 (HOMO)
        51                         -0.2398888              -6.5277 (LUMO)
        52                         -0.2296041              -6.2478
        53                         -0.2065584              -5.6207
        54                         -0.1915136              -5.2114
        55                         -0.1840867              -5.0093
       ...                                ...                  ...
        91                          1.6921664              46.0462
      -------------------------------------------------------------
                  HL-Gap            0.1048515 Eh            2.8532 eV
             Fermi-level           -0.2923146 Eh           -7.9543 eV

 SCC (total)                   0 d,  0 h,  0 min,  0.091 sec
 SCC setup                      ...        0 min,  0.000 sec (  0.215%)
 Dispersion                     ...        0 min,  0.001 sec (  1.370%)
 classical contributions        ...        0 min,  0.000 sec (  0.176%)
 integral evaluation            ...        0 min,  0.014 sec ( 15.897%)
 iterations                     ...        0 min,  0.073 sec ( 80.354%)
 molecular gradient             ...        0 min,  0.001 sec (  1.629%)
 printout                       ...        0 min,  0.000 sec (  0.347%)

         :::::::::::::::::::::::::::::::::::::::::::::::::::::
         ::                     SUMMARY                     ::
         :::::::::::::::::::::::::::::::::::::::::::::::::::::
         :: total energy             -55.890326911778 Eh    ::
         :: gradient norm              1.331568215696 Eh/a0 ::
         :: HOMO-LUMO gap              2.853153428775 eV    ::
         ::.................................................::
         :: SCC energy               -56.994328401640 Eh    ::
         :: -> isotropic ES            0.115069158005 Eh    ::
         :: -> anisotropic ES          0.009749918618 Eh    ::
         :: -> anisotropic XC          0.017826026911 Eh    ::
         :: -> dispersion             -0.034511710773 Eh    ::
         :: repulsion energy           1.104001489863 Eh    ::
         :: add. restraining           0.000000000000 Eh    ::
         :: total charge              -0.000000000000 e     ::
         :::::::::::::::::::::::::::::::::::::::::::::::::::::

      ----------------------------------------------------------- 
     |                   =====================                   |
     |                        A N C O P T                        |
     |                   =====================                   |
     |               Approximate Normal Coordinate               |
     |                Rational Function Optimizer                |
      ----------------------------------------------------------- 
      ----------------------------------------------------------- 
     |                   =====================                   |
     |                        A N C O P T                        |
     |                   =====================                   |
     |               Approximate Normal Coordinate               |
     |                Rational Function Optimizer                |
      ----------------------------------------------------------- 

          ...................................................
          :                      SETUP                      :
          :.................................................:
          :   optimization level            normal          :
          :   max. optcycles                   200          :
          :   ANC micro-cycles                  20          :
          :   degrees of freedom                96          :
          :.................................................:
          :   RF solver                   davidson          :
          :   write xtbopt.log                true          :
          :   linear?                        false          :
          :   energy convergence         0.5000000E-05 Eh   :
          :   grad. convergence          0.1000000E-02 Eh/α :
          :   maxmium RF displ.          1.0000000          :
          :   Hlow (freq-cutoff)         0.1000000E-01      :
          :   Hmax (freq-cutoff)         5.0000000          :
          :   S6 in model hess.         20.0000000          :
          ...................................................

generating ANC from exact Hessian ...
Using Lindh-Hessian (1995)
 Shifting diagonal of input Hessian by    9.4460652322729023E-003
 Lowest  eigenvalues of input Hessian
    0.000000    0.000000    0.000000    0.000000    0.000000    0.000000
    0.010000    0.010109    0.010327    0.011801    0.012273    0.015043
    0.015853    0.018798    0.019170    0.020555    0.021250    0.022246
 Highest eigenvalues
    2.163734    2.356469    2.493640    2.958086    2.960951    3.108489


........................................................................
.............................. CYCLE    1 ..............................
........................................................................

 iter      E             dE          RMSdq      gap      omega  full diag
   1    -56.9943439 -0.569943E+02  0.617E-05    2.85       0.0  T
   2    -56.9943439 -0.249685E-10  0.373E-05    2.85     459.8  T
   3    -56.9943439 -0.917311E-11  0.252E-05    2.85     680.5  T
     SCC iter.                  ...        0 min,  0.003 sec
     gradient                   ...        0 min,  0.002 sec
 * total energy  :   -55.8903269 Eh     change       -0.1477360E-09 Eh
   gradient norm :     1.3315663 Eh/α   predicted     0.0000000E+00 (-100.00%)
   displ. norm   :     0.5115805 α      lambda       -0.6300377E+00
   maximum displ.:     0.2046345 α      in ANC's #94, #95, #89, ...

........................................................................
.............................. CYCLE    2 ..............................
........................................................................

 iter      E             dE          RMSdq      gap      omega  full diag
   1    -57.0740714 -0.570741E+02  0.977E-01    3.18       0.0  T
   2    -57.0944937 -0.204223E-01  0.616E-01    3.26       1.0  T
   3    -57.1000757 -0.558198E-02  0.286E-01    3.25       1.0  T
   4    -57.0998450  0.230749E-03  0.163E-01    3.24       1.0  T
   5    -57.1001007 -0.255792E-03  0.600E-02    3.25       1.0  T
   6    -57.1002057 -0.104987E-03  0.118E-02    3.25       1.5  T
   7    -57.1002065 -0.776971E-06  0.602E-03    3.24       2.9  T
   8    -57.1002070 -0.456051E-06  0.240E-03    3.25       7.2  T
   9    -57.1002070 -0.615779E-07  0.102E-03    3.25      16.8  T
  10    -57.1002070 -0.474594E-08  0.332E-04    3.24      51.7  T
  11    -57.1002070 -0.974431E-09  0.138E-04    3.25     123.9  T
     SCC iter.                  ...        0 min,  0.010 sec
     gradient                   ...        0 min,  0.008 sec
 * total energy  :   -56.2981252 Eh     change       -0.4077983E+00 Eh
   gradient norm :     0.4771735 Eh/α   predicted    -0.3974643E+00 (  -2.53%)
   displ. norm   :     0.4974056 α      lambda       -0.1986194E+00
   maximum displ.:     0.1309980 α      in ANC's #63, #55, #67, ...

........................................................................
.............................. CYCLE    3 ..............................
........................................................................

 iter      E             dE          RMSdq      gap      omega  full diag
   1    -57.2100672 -0.572101E+02  0.621E-01    3.28       0.0  T
   2    -57.2152729 -0.520563E-02  0.354E-01    3.44       1.0  T
   3    -57.2156260 -0.353160E-03  0.200E-01    3.43       1.0  T
   4    -57.2155954  0.306361E-04  0.115E-01    3.43       1.0  T
   5    -57.2158941 -0.298740E-03  0.216E-02    3.44       1.0  T
   6    -57.2159021 -0.792407E-05  0.813E-03    3.43       2.1  T
   7    -57.2159023 -0.262436E-06  0.416E-03    3.43       4.1  T
   8    -57.2159025 -0.174602E-06  0.140E-03    3.43      12.3  T
   9    -57.2159025 -0.214865E-07  0.658E-04    3.43      26.1  T
  10    -57.2159025 -0.245333E-08  0.256E-04    3.43      67.0  T
     SCC iter.                  ...        0 min,  0.016 sec
     gradient                   ...        0 min,  0.002 sec
 * total energy  :   -56.4358301 Eh     change       -0.1377049E+00 Eh
   gradient norm :     0.1738412 Eh/α   predicted    -0.1238802E+00 ( -10.04%)
   displ. norm   :     0.4136639 α      lambda       -0.5546394E-01
   maximum displ.:     0.1437341 α      in ANC's #55, #12, #63, ...

........................................................................
.............................. CYCLE    4 ..............................
........................................................................

 iter      E             dE          RMSdq      gap      omega  full diag
   1    -57.2366143 -0.572366E+02  0.453E-01    3.31       0.0  T
   2    -57.2379003 -0.128599E-02  0.268E-01    3.38       1.0  T
   3    -57.2379593 -0.590360E-04  0.137E-01    3.38       1.0  T
   4    -57.2381140 -0.154699E-03  0.549E-02    3.38       1.0  T
   5    -57.2381939 -0.798648E-04  0.144E-02    3.39       1.2  T
   6    -57.2381972 -0.332282E-05  0.644E-03    3.38       2.7  T
   7    -57.2381973 -0.888336E-07  0.265E-03    3.38       6.5  T
   8    -57.2381973 -0.752835E-07  0.891E-04    3.38      19.2  T
   9    -57.2381973 -0.853013E-08  0.441E-04    3.38      38.9  T
     SCC iter.                  ...        0 min,  0.028 sec
     gradient                   ...        0 min,  0.002 sec
 * total energy  :   -56.4665075 Eh     change       -0.3067737E-01 Eh
   gradient norm :     0.0571558 Eh/α   predicted    -0.3247770E-01 (   5.87%)
   displ. norm   :     0.3113873 α      lambda       -0.9438233E-02
   maximum displ.:     0.1282126 α      in ANC's #12, #13, #26, ...

........................................................................
.............................. CYCLE    5 ..............................
........................................................................

 iter      E             dE          RMSdq      gap      omega  full diag
   1    -57.2193996 -0.572194E+02  0.217E-01    3.36       0.0  T
   2    -57.2194766 -0.769439E-04  0.128E-01    3.35       1.0  T
   3    -57.2194204  0.561956E-04  0.570E-02    3.35       1.0  T
   4    -57.2194936 -0.732019E-04  0.136E-02    3.35       1.3  T
   5    -57.2194986 -0.502816E-05  0.403E-03    3.35       4.3  T
   6    -57.2194988 -0.189934E-06  0.191E-03    3.35       9.0  T
   7    -57.2194988 -0.153908E-07  0.681E-04    3.35      25.2  T
   8    -57.2194988 -0.832791E-08  0.216E-04    3.35      79.6  T
     SCC iter.                  ...        0 min,  0.008 sec
     gradient                   ...        0 min,  0.001 sec
 * total energy  :   -56.4715015 Eh     change       -0.4994021E-02 Eh
   gradient norm :     0.0368463 Eh/α   predicted    -0.5176701E-02 (   3.66%)
   displ. norm   :     0.2480059 α      lambda       -0.3527847E-02
   maximum displ.:     0.1163865 α      in ANC's #15, #11, #18, ...

........................................................................
.............................. CYCLE    6 ..............................
........................................................................

 iter      E             dE          RMSdq      gap      omega  full diag
   1    -57.2196937 -0.572197E+02  0.163E-01    3.34       0.0  T
   2    -57.2197193 -0.256377E-04  0.968E-02    3.32       1.0  T
   3    -57.2196951  0.242188E-04  0.346E-02    3.32       1.0  T
   4    -57.2197259 -0.307356E-04  0.777E-03    3.32       2.2  T
   5    -57.2197272 -0.130199E-05  0.325E-03    3.32       5.3  T
   6    -57.2197273 -0.101677E-06  0.129E-03    3.32      13.3  T
   7    -57.2197273 -0.116928E-07  0.536E-04    3.32      32.0  T
   8    -57.2197273 -0.302087E-08  0.237E-04    3.32      72.5  T
     SCC iter.                  ...        0 min,  0.009 sec
     gradient                   ...        0 min,  0.001 sec
 * total energy  :   -56.4732595 Eh     change       -0.1757939E-02 Eh
   gradient norm :     0.0256350 Eh/α   predicted    -0.1872420E-02 (   6.51%)
   displ. norm   :     0.1851540 α      lambda       -0.1549751E-02
   maximum displ.:     0.1044078 α      in ANC's #12, #7, #15, ...

........................................................................
.............................. CYCLE    7 ..............................
........................................................................

 iter      E             dE          RMSdq      gap      omega  full diag
   1    -57.2289849 -0.572290E+02  0.117E-01    3.33       0.0  T
   2    -57.2289965 -0.115335E-04  0.682E-02    3.32       1.0  T
   3    -57.2289933  0.320294E-05  0.149E-02    3.33       1.2  T
   4    -57.2289982 -0.496767E-05  0.313E-03    3.32       5.5  T
   5    -57.2289984 -0.159886E-06  0.153E-03    3.32      11.2  T
   6    -57.2289984 -0.166980E-07  0.845E-04    3.32      20.3  T
   7    -57.2289984 -0.688119E-08  0.290E-04    3.32      59.1  T
     SCC iter.                  ...        0 min,  0.010 sec
     gradient                   ...        0 min,  0.002 sec
 * total energy  :   -56.4739717 Eh     change       -0.7122252E-03 Eh
   gradient norm :     0.0163164 Eh/α   predicted    -0.8014414E-03 (  12.53%)
   displ. norm   :     0.1257520 α      lambda       -0.6497808E-03
   maximum displ.:     0.0647948 α      in ANC's #8, #7, #11, ...

........................................................................
.............................. CYCLE    8 ..............................
........................................................................

 iter      E             dE          RMSdq      gap      omega  full diag
   1    -57.2316764 -0.572317E+02  0.717E-02    3.34       0.0  T
   2    -57.2316828 -0.645966E-05  0.416E-02    3.34       1.0  T
   3    -57.2316807  0.212262E-05  0.128E-02    3.34       1.3  T
   4    -57.2316835 -0.281612E-05  0.361E-03    3.34       4.8  T
   5    -57.2316838 -0.335021E-06  0.128E-03    3.34      13.4  T
   6    -57.2316839 -0.140294E-07  0.653E-04    3.34      26.3  T
   7    -57.2316839 -0.346940E-08  0.219E-04    3.34      78.3  T
     SCC iter.                  ...        0 min,  0.007 sec
     gradient                   ...        0 min,  0.001 sec
 * total energy  :   -56.4743415 Eh     change       -0.3697921E-03 Eh
   gradient norm :     0.0104739 Eh/α   predicted    -0.3300329E-03 ( -10.75%)
   displ. norm   :     0.0924772 α      lambda       -0.2619321E-03
   maximum displ.:     0.0519524 α      in ANC's #8, #18, #14, ...

........................................................................
.............................. CYCLE    9 ..............................
........................................................................

 iter      E             dE          RMSdq      gap      omega  full diag
   1    -57.2325527 -0.572326E+02  0.428E-02    3.35       0.0  T
   2    -57.2325559 -0.321563E-05  0.254E-02    3.35       1.0  T
   3    -57.2325549  0.984502E-06  0.904E-03    3.35       1.9  T
   4    -57.2325563 -0.141231E-05  0.273E-03    3.35       6.3  T
   5    -57.2325566 -0.215808E-06  0.911E-04    3.35      18.8  T
   6    -57.2325566 -0.656443E-08  0.429E-04    3.35      40.0  T
     SCC iter.                  ...        0 min,  0.007 sec
     gradient                   ...        0 min,  0.002 sec
 * total energy  :   -56.4744958 Eh     change       -0.1542899E-03 Eh
   gradient norm :     0.0057315 Eh/α   predicted    -0.1320969E-03 ( -14.38%)
   displ. norm   :     0.0909852 α      lambda       -0.1530938E-03
   maximum displ.:     0.0423840 α      in ANC's #8, #7, #18, ...

........................................................................
.............................. CYCLE   10 ..............................
........................................................................

 iter      E             dE          RMSdq      gap      omega  full diag
   1    -57.2318261 -0.572318E+02  0.478E-02    3.36       0.0  T
   2    -57.2318317 -0.565444E-05  0.280E-02    3.36       1.0  T
   3    -57.2318311  0.585395E-06  0.867E-03    3.36       2.0  T
   4    -57.2318318 -0.639269E-06  0.339E-03    3.36       5.1  T
   5    -57.2318322 -0.384708E-06  0.908E-04    3.36      18.9  T
   6    -57.2318322 -0.880900E-08  0.499E-04    3.36      34.3  T
     SCC iter.                  ...        0 min,  0.008 sec
     gradient                   ...        0 min,  0.002 sec
 * total energy  :   -56.4745470 Eh     change       -0.5123245E-04 Eh
   gradient norm :     0.0077918 Eh/α   predicted    -0.7718292E-04 (  50.65%)
   displ. norm   :     0.0427670 α      lambda       -0.8973436E-04
   maximum displ.:     0.0183828 α      in ANC's #6, #14, #7, ...

........................................................................
.............................. CYCLE   11 ..............................
........................................................................

 iter      E             dE          RMSdq      gap      omega  full diag
   1    -57.2332675 -0.572333E+02  0.233E-02    3.36       0.0  T
   2    -57.2332700 -0.244390E-05  0.138E-02    3.36       1.2  T
   3    -57.2332700 -0.225455E-08  0.529E-03    3.36       3.2  T
   4    -57.2332701 -0.916664E-07  0.125E-03    3.36      13.8  T
   5    -57.2332701 -0.330762E-07  0.387E-04    3.36      44.3  T
   6    -57.2332701 -0.976904E-09  0.186E-04    3.36      92.2  T
     SCC iter.                  ...        0 min,  0.006 sec
     gradient                   ...        0 min,  0.002 sec
 * total energy  :   -56.4745910 Eh     change       -0.4400740E-04 Eh
   gradient norm :     0.0041409 Eh/α   predicted    -0.4494947E-04 (   2.14%)
   displ. norm   :     0.0182833 α      lambda       -0.2362569E-04
   maximum displ.:     0.0084085 α      in ANC's #4, #14, #16, ...

........................................................................
.............................. CYCLE   12 ..............................
........................................................................

 iter      E             dE          RMSdq      gap      omega  full diag
   1    -57.2331502 -0.572332E+02  0.956E-03    3.35       0.0  T
   2    -57.2331505 -0.214339E-06  0.565E-03    3.35       3.0  T
   3    -57.2331504  0.590880E-07  0.232E-03    3.35       7.4  T
   4    -57.2331505 -0.877291E-07  0.764E-04    3.35      22.5  T
   5    -57.2331505 -0.152472E-07  0.214E-04    3.35      80.3  T
     SCC iter.                  ...        0 min,  0.005 sec
     gradient                   ...        0 min,  0.001 sec
 * total energy  :   -56.4746070 Eh     change       -0.1601198E-04 Eh
   gradient norm :     0.0023588 Eh/α   predicted    -0.1181849E-04 ( -26.19%)
   displ. norm   :     0.0353977 α      lambda       -0.2036114E-04
   maximum displ.:     0.0162187 α      in ANC's #4, #14, #15, ...

........................................................................
.............................. CYCLE   13 ..............................
........................................................................

 iter      E             dE          RMSdq      gap      omega  full diag
   1    -57.2330234 -0.572330E+02  0.145E-02    3.34       0.0  T
   2    -57.2330237 -0.243524E-06  0.839E-03    3.34       2.0  T
   3    -57.2330236  0.740055E-07  0.260E-03    3.34       6.6  T
   4    -57.2330237 -0.120464E-06  0.683E-04    3.34      25.1  T
   5    -57.2330237 -0.843767E-08  0.309E-04    3.34      55.5  T
     SCC iter.                  ...        0 min,  0.006 sec
     gradient                   ...        0 min,  0.001 sec
 * total energy  :   -56.4746198 Eh     change       -0.1274563E-04 Eh
   gradient norm :     0.0014593 Eh/α   predicted    -0.1019857E-04 ( -19.98%)
   displ. norm   :     0.0456360 α      lambda       -0.8040225E-05
   maximum displ.:     0.0216985 α      in ANC's #4, #14, #8, ...

........................................................................
.............................. CYCLE   14 ..............................
........................................................................

 iter      E             dE          RMSdq      gap      omega  full diag
   1    -57.2329117 -0.572329E+02  0.169E-02    3.34       0.0  T
   2    -57.2329118 -0.157060E-06  0.985E-03    3.34       1.7  T
   3    -57.2329117  0.796387E-07  0.209E-03    3.34       8.2  T
   4    -57.2329119 -0.113879E-06  0.700E-04    3.34      24.5  T
   5    -57.2329119 -0.100766E-07  0.327E-04    3.34      52.4  T
     SCC iter.                  ...        0 min,  0.007 sec
     gradient                   ...        0 min,  0.001 sec
 * total energy  :   -56.4746256 Eh     change       -0.5865479E-05 Eh
   gradient norm :     0.0015411 Eh/α   predicted    -0.4025575E-05 ( -31.37%)
   displ. norm   :     0.0185691 α      lambda       -0.3879287E-05
   maximum displ.:     0.0098880 α      in ANC's #4, #14, #6, ...

........................................................................
.............................. CYCLE   15 ..............................
........................................................................

 iter      E             dE          RMSdq      gap      omega  full diag
   1    -57.2331157 -0.572331E+02  0.722E-03    3.34       0.0  T
   2    -57.2331158 -0.603507E-07  0.418E-03    3.34       4.1  T
   3    -57.2331158  0.176631E-07  0.114E-03    3.34      15.0  T
   4    -57.2331158 -0.227816E-07  0.360E-04    3.34      47.6  T
   5    -57.2331158 -0.388354E-08  0.125E-04    3.34     137.2  T
     SCC iter.                  ...        0 min,  0.005 sec
     gradient                   ...        0 min,  0.001 sec
 * total energy  :   -56.4746287 Eh     change       -0.3044340E-05 Eh
   gradient norm :     0.0009171 Eh/α   predicted    -0.1942607E-05 ( -36.19%)
   displ. norm   :     0.0165177 α      lambda       -0.2418255E-05
   maximum displ.:     0.0077961 α      in ANC's #4, #14, #1, ...

   *** GEOMETRY OPTIMIZATION CONVERGED AFTER 15 ITERATIONS ***

------------------------------------------------------------------------
 total energy gain   :        -0.5843018 Eh     -366.6549 kcal/mol
 total RMSD          :         0.2847641 a0        0.1507 Å
 total power (kW/mol):      -102.2722722 (step)-8010.2262 (real)
------------------------------------------------------------------------

 ANCopt (total)                0 d,  0 h,  0 min,  0.192 sec
 optimizer setup                ...        0 min,  0.000 sec (  0.070%)
 model hessian                  ...        0 min,  0.005 sec (  2.726%)
 ANC generation                 ...        0 min,  0.001 sec (  0.750%)
 coordinate transformation      ...        0 min,  0.000 sec (  0.046%)
 single point calculation       ...        0 min,  0.177 sec ( 92.518%)
 optimization log               ...        0 min,  0.001 sec (  0.545%)
 hessian update                 ...        0 min,  0.004 sec (  1.872%)
 rational function              ...        0 min,  0.002 sec (  0.837%)

================
 final structure:
================
34
 xtb: 6.7.1-6.fc44.fc44
O           -4.30203552369928        2.39711808879696       -0.94029322271790
C           -3.59193925189793        2.49580816979867       -2.04745799064413
O           -3.63365922978248        3.44625306512609       -2.77541498131556
H           -4.10812890078222        1.55583003404573       -0.44274117780202
C           -2.70839088858354        1.26735846892661       -2.35954877567178
H           -2.20590768548272        1.43179115122368       -3.31126479021089
H           -3.37046788152760        0.39617024333398       -2.43885904102495
N           -1.71219124326469        1.00510998695530       -1.33343561068047
H           -0.74928808732932        1.19916777549837       -1.55395494782972
C           -2.02016119831435        0.47612453122461       -0.13669896112770
O           -3.18039669027242        0.30300824079443        0.22236299400553
C           -0.83473377353960        0.07584566000478        0.73735040388060
H           -0.04558215696823        0.83184503524820        0.65359539124270
N           -1.19466019325612       -0.05707053561602        2.13181085624037
H           -2.01633061088346       -0.64939594976385        2.20931813075972
H           -1.43659414976258        0.84578630772384        2.52600936679735
C           -0.28793264301656       -1.27596289776612        0.21945495877902
H           -0.16488786158874       -1.22793608631122       -0.86470391361228
H           -1.01711764340956       -2.05275213816427        0.45488724529562
C            1.01891457242195       -1.58667376558187        0.86403118109902
C            1.23022521571428       -2.32747427239213        1.98919481259037
H            0.51589429796334       -2.84663408932388        2.59768768798330
N            2.56204671472184       -2.34669989364762        2.29712324601264
H            2.97254246510335       -2.82233293773607        3.08226998929857
C            3.24299895441598       -1.60597167027982        1.37593052266857
C            4.59909214305880       -1.32751689700545        1.26288732300271
H            5.30909588427831       -1.71744560315077        1.97720405449504
C            5.00340194079471       -0.53636750191362        0.20941495360536
H            6.05034454197317       -0.29918079638939        0.09171839128328
C            4.08375649146920       -0.03366816560798       -0.71500761205778
H            4.44320924100591        0.58144380818994       -1.52708664678302
C            2.73896485896255       -0.30726089809805       -0.60866949728965
H            2.03962601536007        0.08361637209036       -1.33461959788445
C            2.29786155147008       -1.10331999945300        0.44850754024152

 Bond Distances (Angstroems)
 ---------------------------
O1-C2=1.3190         O1-H4=0.9965         C2-O1=1.3190         C2-O3=1.1979         C2-C5=1.5450         O3-C2=1.1979         
H4-O1=0.9965         C5-C2=1.5450         C5-H6=1.0887         C5-H7=1.0971         C5-N8=1.4540         H6-C5=1.0887         
H7-C5=1.0971         N8-C5=1.4540         N8-H9=1.0067         N8-C10=1.3442        H9-N8=1.0067         C10-N8=1.3442        
C10-O11=1.2268       C10-C12=1.5262       O11-C10=1.2268       C12-C10=1.5262       C12-H13=1.0960       C12-N14=1.4463       
C12-C17=1.5474       H13-C12=1.0960       N14-C12=1.4463       N14-H15=1.0159       N14-H16=1.0144       H15-N14=1.0159       
H16-N14=1.0144       C17-C12=1.5474       C17-H18=1.0922       C17-H19=1.0911       C17-C20=1.4899       H18-C17=1.0922       
H19-C17=1.0911       C20-C17=1.4899       C20-C21=1.3636       C20-C34=1.4290       C21-C20=1.3636       C21-H22=1.0724       
C21-N23=1.3671       H22-C21=1.0724       N23-C21=1.3671       N23-H24=1.0056       N23-C25=1.3642       H24-N23=1.0056       
C25-N23=1.3642       C25-C26=1.3890       C25-C34=1.4164       C26-C25=1.3890       C26-H27=1.0800       C26-C28=1.3781       
H27-C26=1.0800       C28-C26=1.3781       C28-H29=1.0799       C28-C30=1.3975       H29-C28=1.0799       C30-C28=1.3975       
C30-H31=1.0803       C30-C32=1.3765       H31-C30=1.0803       C32-C30=1.3765       C32-H33=1.0811       C32-C34=1.3950       
H33-C32=1.0811       C34-C20=1.4290       C34-C25=1.4164       C34-C32=1.3950       
 C  H  Rav=1.0859 sigma=0.0078  Rmin=1.0724  Rmax=1.0971    10
 C  C  Rav=1.4378 sigma=0.0666  Rmin=1.3636  Rmax=1.5474    12
 N  H  Rav=1.0106 sigma=0.0046  Rmin=1.0056  Rmax=1.0159     4
 N  C  Rav=1.3951 sigma=0.0457  Rmin=1.3442  Rmax=1.4540     5
 O  H  Rav=0.9965 sigma=0.0000  Rmin=0.9965  Rmax=0.9965     1
 O  C  Rav=1.2479 sigma=0.0516  Rmin=1.1979  Rmax=1.3190     3

 selected bond angles (degree)
 --------------------
H4-O1-C2=112.18                O3-C2-O1=123.42                C5-C2-O1=114.70                C5-C2-O3=121.87                
H6-C5-C2=108.69                H7-C5-C2=107.51                H7-C5-H6=109.59                N8-C5-C2=113.12                
N8-C5-H6=109.14                N8-C5-H7=108.74                H9-N8-C5=117.77                C10-N8-C5=122.84               
C10-N8-H9=119.34               O11-C10-N8=122.19              C12-C10-N8=115.79              C12-C10-O11=122.00             

 selected dihedral angles (degree)
 ---------------------------------
O3-C2-O1-H4=182.55            C5-C2-O1-H4=  3.71            H6-C5-C2-O1=177.30            H6-C5-C2-O3=358.44            
H7-C5-C2-O1= 58.76            H7-C5-C2-O3=239.89            N8-C5-C2-O1=298.69            N8-C5-C2-O3=119.83            
H9-N8-C5-C2=251.74            H9-N8-C5-H6= 12.87            H9-N8-C5-H7=132.38            C10-N8-C5-C2= 74.16           
C10-N8-C5-H6=195.29           C10-N8-C5-H7=314.80           O11-C10-N8-C5=352.49          O11-C10-N8-H9=174.95          
C12-C10-N8-C5=171.23          C12-C10-N8-H9=353.69          
           -------------------------------------------------
          |                Final Singlepoint                |
           -------------------------------------------------

          ...................................................
          :                      SETUP                      :
          :.................................................:
          :  # basis functions                  91          :
          :  # atomic orbitals                  91          :
          :  # shells                           53          :
          :  # electrons                       100          :
          :  max. iterations                   250          :
          :  Hamiltonian                  GFN2-xTB          :
          :  restarted?                      false          :
          :  GBSA solvation                  false          :
          :  PC potential                    false          :
          :  electronic temp.          300.0000000     K    :
          :  accuracy                    1.0000000          :
          :  -> integral cutoff          0.2500000E+02      :
          :  -> integral neglect         0.1000000E-07      :
          :  -> SCF convergence          0.1000000E-05 Eh   :
          :  -> wf. convergence          0.1000000E-03 e    :
          :  Broyden damping             0.4000000          :
          :  net charge                          0          :
          :  unpaired electrons                  0          :
          ...................................................

 iter      E             dE          RMSdq      gap      omega  full diag
   1    -57.2331158 -0.572331E+02  0.564E-05    3.34       0.0  T
   2    -57.2331158 -0.158025E-10  0.359E-05    3.34     477.5  T
   3    -57.2331158 -0.726885E-11  0.220E-05    3.34     780.0  T

   *** convergence criteria satisfied after 3 iterations ***

         #    Occupation            Energy/Eh            Energy/eV
      -------------------------------------------------------------
         1        2.0000           -0.7414337             -20.1754
       ...           ...                  ...                  ...
        44        2.0000           -0.4329530             -11.7812
        45        2.0000           -0.4216116             -11.4726
        46        2.0000           -0.4204380             -11.4407
        47        2.0000           -0.4098623             -11.1529
        48        2.0000           -0.3873330             -10.5399
        49        2.0000           -0.3815795             -10.3833
        50        2.0000           -0.3682166             -10.0197 (HOMO)
        51                         -0.2454272              -6.6784 (LUMO)
        52                         -0.2373704              -6.4592
        53                         -0.2350889              -6.3971
        54                         -0.2027556              -5.5173
        55                         -0.1624696              -4.4210
       ...                                ...                  ...
        91                          0.7144262              19.4405
      -------------------------------------------------------------
                  HL-Gap            0.1227894 Eh            3.3413 eV
             Fermi-level           -0.3068219 Eh           -8.3490 eV

 SCC (total)                   0 d,  0 h,  0 min,  0.006 sec
 SCC setup                      ...        0 min,  0.000 sec (  3.354%)
 Dispersion                     ...        0 min,  0.000 sec (  2.230%)
 classical contributions        ...        0 min,  0.000 sec (  0.207%)
 integral evaluation            ...        0 min,  0.001 sec (  9.615%)
 iterations                     ...        0 min,  0.003 sec ( 54.021%)
 molecular gradient             ...        0 min,  0.002 sec ( 25.906%)
 printout                       ...        0 min,  0.000 sec (  4.578%)

         :::::::::::::::::::::::::::::::::::::::::::::::::::::
         ::                     SUMMARY                     ::
         :::::::::::::::::::::::::::::::::::::::::::::::::::::
         :: total energy             -56.474628680191 Eh    ::
         :: gradient norm              0.000916950209 Eh/a0 ::
         :: HOMO-LUMO gap              3.341268320721 eV    ::
         ::.................................................::
         :: SCC energy               -57.233056780708 Eh    ::
         :: -> isotropic ES            0.096761104304 Eh    ::
         :: -> anisotropic ES          0.007691383859 Eh    ::
         :: -> anisotropic XC          0.019418590338 Eh    ::
         :: -> dispersion             -0.033741394824 Eh    ::
         :: repulsion energy           0.758428100517 Eh    ::
         :: add. restraining           0.000000000000 Eh    ::
         :: total charge               0.000000000000 e     ::
         :::::::::::::::::::::::::::::::::::::::::::::::::::::

           -------------------------------------------------
          |                Property Printout                |
           -------------------------------------------------

    * Orbital Energies and Occupations

         #    Occupation            Energy/Eh            Energy/eV
      -------------------------------------------------------------
         1        2.0000           -0.7414337             -20.1754
       ...           ...                  ...                  ...
        38        2.0000           -0.4702130             -12.7951
        39        2.0000           -0.4659276             -12.6785
        40        2.0000           -0.4599688             -12.5164
        41        2.0000           -0.4568796             -12.4323
        42        2.0000           -0.4537876             -12.3482
        43        2.0000           -0.4347434             -11.8300
        44        2.0000           -0.4329530             -11.7812
        45        2.0000           -0.4216116             -11.4726
        46        2.0000           -0.4204380             -11.4407
        47        2.0000           -0.4098623             -11.1529
        48        2.0000           -0.3873330             -10.5399
        49        2.0000           -0.3815795             -10.3833
        50        2.0000           -0.3682166             -10.0197 (HOMO)
        51                         -0.2454272              -6.6784 (LUMO)
        52                         -0.2373704              -6.4592
        53                         -0.2350889              -6.3971
        54                         -0.2027556              -5.5173
        55                         -0.1624696              -4.4210
        56                         -0.0768581              -2.0914
        57                         -0.0311254              -0.8470
        58                          0.0166548               0.4532
        59                          0.0387985               1.0558
        60                          0.0559989               1.5238
        61                          0.0729926               1.9862
       ...                                ...                  ...
        91                          0.7144262              19.4405
      -------------------------------------------------------------
                  HL-Gap            0.1227894 Eh            3.3413 eV
             Fermi-level           -0.3068219 Eh           -8.3490 eV

     #   Z          covCN         q      C6AA      α(0)
     1   8 O        1.655    -0.374    20.348     6.089
     2   6 C        2.684     0.358    20.930     7.487
     3   8 O        0.856    -0.374    21.168     6.169
     4   1 H        0.800     0.363     0.559     1.174
     5   6 C        3.737    -0.037    21.321     6.589
     6   1 H        0.925     0.076     2.018     2.222
     7   1 H        0.924     0.077     2.014     2.219
     8   7 N        2.685    -0.172    24.727     7.385
     9   1 H        0.860     0.181     1.209     1.722
    10   6 C        2.754     0.256    22.689     7.800
    11   8 O        0.859    -0.454    22.797     6.402
    12   6 C        3.788     0.034    20.019     6.373
    13   1 H        0.924     0.042     2.421     2.433
    14   7 N        2.632    -0.332    28.541     7.934
    15   1 H        0.860     0.160     1.336     1.811
    16   1 H        0.860     0.144     1.440     1.880
    17   6 C        3.809    -0.059    21.636     6.621
    18   1 H        0.924     0.037     2.495     2.470
    19   1 H        0.924     0.050     2.322     2.383
    20   6 C        3.059    -0.026    28.603     8.770
    21   6 C        3.034    -0.001    28.027     8.684
    22   1 H        0.926     0.040     2.447     2.446
    23   7 N        2.780    -0.099    23.183     7.151
    24   1 H        0.860     0.160     1.335     1.810
    25   6 C        3.088     0.045    26.894     8.501
    26   6 C        2.908    -0.052    29.284     8.873
    27   1 H        0.926     0.025     2.662     2.551
    28   6 C        2.924    -0.036    28.906     8.817
    29   1 H        0.926     0.029     2.601     2.522
    30   6 C        2.919    -0.042    29.037     8.837
    31   1 H        0.926     0.026     2.643     2.542
    32   6 C        2.912    -0.037    28.928     8.819
    33   1 H        0.926     0.015     2.818     2.625
    34   6 C        3.118    -0.020    28.333     8.718

 Mol. C6AA /au·bohr⁶  :      13342.968075
 Mol. C8AA /au·bohr⁸  :     312429.143796
 Mol. α(0) /au        :        178.830890


Wiberg/Mayer (AO) data.
largest (>0.10) Wiberg bond orders for each atom

 ---------------------------------------------------------------------------
     #   Z sym  total        # sym  WBO       # sym  WBO       # sym  WBO
 ---------------------------------------------------------------------------
     1   8 O    2.233 --     2 C    1.197     4 H    0.775     3 O    0.183
     2   6 C    3.931 --     3 O    1.777     1 O    1.197     5 C    0.925
     3   8 O    2.069 --     2 C    1.777     1 O    0.183
     4   1 H    0.868 --     1 O    0.775
     5   6 C    3.962 --     8 N    0.986     6 H    0.974     7 H    0.954
                             2 C    0.925
     6   1 H    0.994 --     5 C    0.974
     7   1 H    0.994 --     5 C    0.954
     8   7 N    3.455 --    10 C    1.279     5 C    0.986     9 H    0.940
                            11 O    0.186
     9   1 H    0.967 --     8 N    0.940
    10   6 C    3.936 --    11 O    1.618     8 N    1.279    12 C    0.943
    11   8 O    2.014 --    10 C    1.618     8 N    0.186
    12   6 C    3.988 --    14 N    1.034    13 H    0.956    17 C    0.947
                            10 C    0.943
    13   1 H    0.998 --    12 C    0.956
    14   7 N    3.020 --    12 C    1.034    16 H    0.964    15 H    0.956
    15   1 H    0.974 --    14 N    0.956
    16   1 H    0.979 --    14 N    0.964
    17   6 C    3.993 --    20 C    1.016    19 H    0.973    18 H    0.970
                            12 C    0.947
    18   1 H    0.999 --    17 C    0.970
    19   1 H    0.997 --    17 C    0.973
    20   6 C    3.974 --    21 C    1.580    34 C    1.205    17 C    1.016
    21   6 C    3.951 --    20 C    1.580    23 N    1.201    22 H    0.969
    22   1 H    0.998 --    21 C    0.969
    23   7 N    3.546 --    21 C    1.201    25 C    1.178    24 H    0.947
    24   1 H    0.974 --    23 N    0.947
    25   6 C    3.959 --    26 C    1.340    34 C    1.245    23 N    1.178
    26   6 C    3.989 --    28 C    1.493    25 C    1.340    27 H    0.969
                            32 C    0.113
    27   1 H    0.999 --    26 C    0.969
    28   6 C    3.991 --    26 C    1.493    30 C    1.372    29 H    0.972
    29   1 H    0.999 --    28 C    0.972
    30   6 C    3.991 --    32 C    1.504    28 C    1.372    31 H    0.972
    31   1 H    0.999 --    30 C    0.972
    32   6 C    3.992 --    30 C    1.504    34 C    1.332    33 H    0.969
                            26 C    0.113
    33   1 H    0.999 --    32 C    0.969
    34   6 C    3.984 --    32 C    1.332    25 C    1.245    20 C    1.205
 ---------------------------------------------------------------------------

Topologies differ in total number of bonds
Writing topology from bond orders to xtbtopo.mol

molecular dipole:
                 x           y           z       tot (Debye)
 q only:        1.548      -1.652       0.692
   full:        1.683      -1.884       0.745       6.693
molecular quadrupole (traceless):
                xx          xy          yy          xz          yz          zz
 q only:       -9.862      13.480      -3.272      -1.425       4.232      13.134
  q+dip:       -8.941      18.251      -5.570      -1.787       2.813      14.511
   full:      -10.304      17.838      -4.173      -1.709       5.451      14.477

           -------------------------------------------------
          |                Geometry Summary                 |
           -------------------------------------------------

      molecular mass/u    :      261.2770023
   center of mass at/Å    :        0.0038604       0.0171826       0.0171793
  moments of inertia/u·Å² :        0.6077731E+03   0.3081851E+04   0.3538311E+04
rotational constants/cm⁻¹ :        0.2773672E-01   0.5469969E-02   0.4764316E-02

 * 32 selected distances

     #   Z          #   Z                                           value/Å
     1   8 O        2   6 C                                       1.3190112
     2   6 C        3   8 O                                       1.1979181
     1   8 O        4   1 H                                       0.9964555 (min)
     5   6 C        6   1 H                                       1.0887107
     5   6 C        7   1 H                                       1.0970894
     5   6 C        8   7 N                                       1.4539933
     8   7 N        9   1 H                                       1.0067124
     8   7 N       10   6 C                                       1.3441912
    10   6 C       11   8 O                                       1.2268013
    12   6 C       13   1 H                                       1.0960431
    12   6 C       14   7 N                                       1.4462829
    14   7 N       15   1 H                                       1.0158736
    14   7 N       16   1 H                                       1.0144334
    17   6 C       18   1 H                                       1.0921755
    17   6 C       19   1 H                                       1.0911191
    17   6 C       20   6 C                                       1.4899228 (max)
    20   6 C       21   6 C                                       1.3636096
    21   6 C       22   1 H                                       1.0724082
    21   6 C       23   7 N                                       1.3670912
    23   7 N       24   1 H                                       1.0055790
    23   7 N       25   6 C                                       1.3641740
    25   6 C       26   6 C                                       1.3889942
    26   6 C       27   1 H                                       1.0799992
    26   6 C       28   6 C                                       1.3781104
    28   6 C       29   1 H                                       1.0799070
    28   6 C       30   6 C                                       1.3975020
    30   6 C       31   1 H                                       1.0802970
    30   6 C       32   6 C                                       1.3764540
    32   6 C       33   1 H                                       1.0811400
    20   6 C       34   6 C                                       1.4289844
    25   6 C       34   6 C                                       1.4163535
    32   6 C       34   6 C                                       1.3949573

 * 6 distinct bonds (by element types)

   Z      Z             #   av. dist./Å        max./Å        min./Å
   1 H    6 C          10     1.0858889     1.0970894     1.0724082
   6 C    6 C           9     1.4038765     1.4899228     1.3636096
   1 H    7 N           4     1.0106496     1.0158736     1.0055790
   6 C    7 N           5     1.3951465     1.4539933     1.3441912
   1 H    8 O           1     0.9964555     0.9964555     0.9964555
   6 C    8 O           3     1.2479102     1.3190112     1.1979181


optimized geometry written to: xtbopt.xyz


           -------------------------------------------------
          | TOTAL ENERGY              -56.474628680191 Eh   |
          | GRADIENT NORM               0.000916950209 Eh/α |
          | HOMO-LUMO GAP               3.341268320721 eV   |
           -------------------------------------------------

------------------------------------------------------------------------
 * finished run on 2026/10/01 at 18:05:30.418     
------------------------------------------------------------------------
 total:
 * wall-time:     0 d,  0 h,  0 min,  0.298 sec
 *  cpu-time:     0 d,  0 h,  0 min,  4.548 sec
 * ratio c/w:    15.253 speedup
 SCF:
 * wall-time:     0 d,  0 h,  0 min,  0.091 sec
 *  cpu-time:     0 d,  0 h,  0 min,  1.353 sec
 * ratio c/w:    14.856 speedup
 ANC optimizer:
 * wall-time:     0 d,  0 h,  0 min,  0.198 sec
 *  cpu-time:     0 d,  0 h,  0 min,  3.080 sec
 * ratio c/w:    15.515 speedup


--- STDERR ---
normal termination of xtb
Note: The following floating-point exceptions are signalling: IEEE_UNDERFLOW_FLAG IEEE_DENORMAL
