34
 energy: -56.474628680191 gnorm: 0.000916950209 xtb: 6.7.1-6.fc44.fc44
O           -4.30203552369928        2.39711808879696       -0.94029322271790
C           -3.59193925189793        2.49580816979867       -2.04745799064413
O           -3.63365922978248        3.44625306512609       -2.77541498131556
H           -4.10812890078222        1.55583003404573       -0.44274117780202
C           -2.70839088858354        1.26735846892661       -2.35954877567178
H           -2.20590768548272        1.43179115122368       -3.31126479021089
H           -3.37046788152760        0.39617024333398       -2.43885904102495
N           -1.71219124326469        1.00510998695530       -1.33343561068047
H           -0.74928808732932        1.19916777549837       -1.55395494782972
C           -2.02016119831435        0.47612453122461       -0.13669896112770
O           -3.18039669027242        0.30300824079443        0.22236299400553
C           -0.83473377353960        0.07584566000478        0.73735040388060
H           -0.04558215696823        0.83184503524820        0.65359539124270
N           -1.19466019325612       -0.05707053561602        2.13181085624037
H           -2.01633061088346       -0.64939594976385        2.20931813075972
H           -1.43659414976258        0.84578630772384        2.52600936679735
C           -0.28793264301656       -1.27596289776612        0.21945495877902
H           -0.16488786158874       -1.22793608631122       -0.86470391361228
H           -1.01711764340956       -2.05275213816427        0.45488724529562
C            1.01891457242195       -1.58667376558187        0.86403118109902
C            1.23022521571428       -2.32747427239213        1.98919481259037
H            0.51589429796334       -2.84663408932388        2.59768768798330
N            2.56204671472184       -2.34669989364762        2.29712324601264
H            2.97254246510335       -2.82233293773607        3.08226998929857
C            3.24299895441598       -1.60597167027982        1.37593052266857
C            4.59909214305880       -1.32751689700545        1.26288732300271
H            5.30909588427831       -1.71744560315077        1.97720405449504
C            5.00340194079471       -0.53636750191362        0.20941495360536
H            6.05034454197317       -0.29918079638939        0.09171839128328
C            4.08375649146920       -0.03366816560798       -0.71500761205778
H            4.44320924100591        0.58144380818994       -1.52708664678302
C            2.73896485896255       -0.30726089809805       -0.60866949728965
H            2.03962601536007        0.08361637209036       -1.33461959788445
C            2.29786155147008       -1.10331999945300        0.44850754024152
