34
frame_0024
O      -3.615693936100000      2.959699452700000     -0.721481198400000
C      -3.861631299800000      2.399342356400000     -1.889045760100000
O      -4.092790611800000      3.025693700900000     -2.884417895500000
H      -3.404084604600000      2.286828988600000     -0.015239282000000
C      -3.863785206500000      0.854074688700000     -1.880912928900000
H      -4.098116080500000      0.501360798900000     -2.884242858700000
H      -4.651832282600000      0.533454776800000     -1.186970359900000
N      -2.598513990100000      0.283903261800000     -1.461505803100000
H      -2.036216688100000     -0.240408805200000     -2.119290547200000
C      -2.157436876900000      0.307691435200000     -0.199403845200000
O      -2.726684929900000      0.921364027500000      0.697617076400000
C      -0.889548786800000     -0.506913926400000      0.035623383000000
H      -1.216106998200000     -1.469006210000000      0.452842699000000
N      -0.237662937200000     -0.780392543300000     -1.236929816600000
H       0.485829006300000     -1.479860931800000     -1.109831548300000
H       0.225473761900000      0.061078224800000     -1.569724083800000
C       0.000098120200000      0.198875584100000      1.082916672200000
H      -0.621943513000000      0.438942831600000      1.945826148200000
H       0.370281681300000      1.134277358600000      0.656245403500000
C       1.142800289400000     -0.670127680200000      1.487182623600000
C       1.150723259800000     -1.595836089100000      2.490143265800000
H       0.375472638700000     -1.836327639400000      3.192359710100000
N       2.355641218100000     -2.243080029400000      2.527271672000000
H       2.615185845900000     -2.954420887000000      3.188725773900000
C       3.157512874900000     -1.745777579300000      1.542082510000000
C       4.456995929100000     -2.078832536200000      1.181339683500000
H       5.003404871800000     -2.843729809000000      1.713343095100000
C       5.021381952000000     -1.396936741300000      0.125592520900000
H       6.029611182600000     -1.630308641300000     -0.182247334900000
C       4.315643492500000     -0.400551364600000     -0.554954526300000
H       4.797458851800000      0.115743606000000     -1.372099309300000
C       3.028572125900000     -0.065692621300000     -0.202053390200000
H       2.502127685500000      0.716796151500000     -0.729664401100000
C       2.424552142800000     -0.745539738700000      0.856872856600000
