34
frame_0027
O      -3.328090790400000      1.492830818600000     -2.930952944900000
C      -3.905806744600000      2.289264553300000     -2.054151982100000
O      -4.381480472200000      3.351224022700000     -2.341077646900000
H      -2.955146195500000      0.669395803000000     -2.507869658500000
C      -3.964537679600000      1.736070179300000     -0.612137030200000
H      -4.548646008400000      0.807079211800000     -0.646456230300000
H      -4.475899078800000      2.462922616200000      0.017497961300000
N      -2.659966398900000      1.453911175300000     -0.046654596800000
H      -2.304519954900000      2.019105218800000      0.713124521900000
C      -1.889935784500000      0.429966910900000     -0.430432665100000
O      -2.167151549800000     -0.298132275500000     -1.378194862500000
C      -0.618465691500000      0.259451841800000      0.391952232600000
H       0.188942256100000      0.719889828900000     -0.191442201400000
N      -0.729956138700000      0.997397543000000      1.642844952400000
H       0.185023369500000      1.078736117400000      2.072561956600000
H      -1.318657127100000      0.481701134400000      2.291706768200000
C      -0.300615974600000     -1.241462829800000      0.564614913900000
H      -0.324507379200000     -1.708486611000000     -0.420933024500000
H      -1.079147158200000     -1.699255008900000      1.180882125600000
C       1.033663483900000     -1.428759513300000      1.201502760300000
C       1.295177140800000     -1.749613972400000      2.501626446500000
H       0.609694764400000     -1.972605183100000      3.298016475900000
N       2.647424705000000     -1.781712886200000      2.718249656300000
H       3.093511201200000     -2.020535528400000      3.586940808600000
C       3.289817665900000     -1.478185278400000      1.552397616100000
C       4.645731862900000     -1.382387322900000      1.265737253700000
H       5.390675880100000     -1.565156999000000      2.026333199800000
C       5.001840040200000     -1.048784930800000     -0.022842088700000
H       6.046982397500000     -0.965570141600000     -0.281310473900000
C       4.036995710900000     -0.817521806200000     -1.007773073200000
H       4.361006082400000     -0.562112865100000     -2.005769831100000
C       2.692162499100000     -0.910672443500000     -0.730637161600000
H       1.953885878000000     -0.737884361900000     -1.499581658200000
C       2.301801466800000     -1.242669148900000      0.566812716800000
