      -----------------------------------------------------------      
     |                   =====================                   |     
     |                           x T B                           |     
     |                   =====================                   |     
     |                         S. Grimme                         |     
     |          Mulliken Center for Theoretical Chemistry        |     
     |                    University of Bonn                     |     
      -----------------------------------------------------------      

   * xtb version 6.7.1-6.fc44.fc44 compiled by Fedora project on Sun Jan 18 23:32:34 UTC 2026

   xtb is free software: you can redistribute it and/or modify it under
   the terms of the GNU Lesser General Public License as published by
   the Free Software Foundation, either version 3 of the License, or
   (at your option) any later version.
   
   xtb is distributed in the hope that it will be useful,
   but WITHOUT ANY WARRANTY; without even the implied warranty of
   MERCHANTABILITY or FITNESS FOR A PARTICULAR PURPOSE.  See the
   GNU Lesser General Public License for more details.
   
   Cite this work as:
   * C. Bannwarth, E. Caldeweyher, S. Ehlert, A. Hansen, P. Pracht,
     J. Seibert, S. Spicher, S. Grimme, WIREs Comput. Mol. Sci., 2020, 11,
     e01493. DOI: 10.1002/wcms.1493
   
   for GFN2-xTB:
   * C. Bannwarth, S. Ehlert and S. Grimme., J. Chem. Theory Comput., 2019,
     15, 1652-1671. DOI: 10.1021/acs.jctc.8b01176
   for GFN1-xTB:
   * S. Grimme, C. Bannwarth, P. Shushkov, J. Chem. Theory Comput., 2017,
     13, 1989-2009. DOI: 10.1021/acs.jctc.7b00118
   for GFN0-xTB:
   * P. Pracht, E. Caldeweyher, S. Ehlert, S. Grimme, ChemRxiv, 2019, preprint.
     DOI: 10.26434/chemrxiv.8326202.v1
   for GFN-FF:
   * S. Spicher and S. Grimme, Angew. Chem. Int. Ed., 2020, 59, 15665-15673.
     DOI: 10.1002/anie.202004239
   
   for ALPB and GBSA implicit solvation:
   * S. Ehlert, M. Stahn, S. Spicher, S. Grimme, J. Chem. Theory Comput.,
     2021, 17, 4250-4261. DOI: 10.1021/acs.jctc.1c00471
   
   for ddCOSMO and CPCM-X implicit solvation:
   * M. Stahn, S. Ehlert, S. Grimme, J. Phys. Chem. A,
     2023, XX, XXXX-XXXX. DOI: 10.1021/acs.jpca.3c04382
   
   for DFT-D4:
   * E. Caldeweyher, C. Bannwarth and S. Grimme, J. Chem. Phys., 2017,
     147, 034112. DOI: 10.1063/1.4993215
   * E. Caldeweyher, S. Ehlert, A. Hansen, H. Neugebauer, S. Spicher,
     C. Bannwarth and S. Grimme, J. Chem. Phys., 2019, 150, 154122.
     DOI: 10.1063/1.5090222
   * E. Caldeweyher, J.-M. Mewes, S. Ehlert and S. Grimme, Phys. Chem. Chem. Phys.
     2020, 22, 8499-8512. DOI: 10.1039/D0CP00502A
   
   for sTDA-xTB:
   * S. Grimme and C. Bannwarth, J. Chem. Phys., 2016, 145, 054103.
     DOI: 10.1063/1.4959605
   
   in the mass-spec context:
   * V. Asgeirsson, C. Bauer and S. Grimme, Chem. Sci., 2017, 8, 4879.
     DOI: 10.1039/c7sc00601b
   * J. Koopman and S. Grimme, ACS Omega 2019, 4, 12, 15120-15133.
     DOI: 10.1021/acsomega.9b02011
   
   for metadynamics refer to:
   * S. Grimme, J. Chem. Theory Comput., 2019, 155, 2847-2862
     DOI: 10.1021/acs.jctc.9b00143
   
   for SPH calculations refer to:
   * S. Spicher and S. Grimme, J. Chem. Theory Comput., 2021, 17, 1701-1714
     DOI: 10.1021/acs.jctc.0c01306
   
   for ONIOM refer to:
   * C. Plett, A. Katbashev, S. Ehlert, S. Grimme, M. Bursch,
     Phys. Chem. Chem. Phys., 2023, 25, 17860-17868. DOI: 10.1039/D3CP02178E
   
   for DIPRO refer to:
   * J. Kohn, N. Gildemeister, S. Grimme, D. Fazzi, A. Hansen,
     J. Chem. Phys., 2023, just accepted.
   
   for PTB refer to:
   * S. Grimme, M. Mueller, A. Hansen, J. Chem. Phys., 2023, 158, 124111.
     DOI: 10.1063/5.0137838
   
   with help from (in alphabetical order)
   P. Atkinson, C. Bannwarth, F. Bohle, G. Brandenburg, E. Caldeweyher
   M. Checinski, S. Dohm, S. Ehlert, S. Ehrlich, I. Gerasimov, C. Hölzer
   A. Katbashev, J. Kohn, J. Koopman, C. Lavigne, S. Lehtola, F. März, M. Müller,
   F. Musil, H. Neugebauer, J. Pisarek, C. Plett, P. Pracht, F. Pultar,
   J. Seibert, P. Shushkov, S. Spicher, M. Stahn, M. Steiner, T. Strunk,
   J. Stückrath, T. Rose, and J. Unsleber
   
 * started run on 2026/10/01 at 18:03:22.384     
   ID    Z sym.   atoms
    1    8 O      1, 3, 11
    2    6 C      2, 5, 10, 12, 17, 20, 21, 25, 26, 28, 30, 32, 34
    3    1 H      4, 6, 7, 9, 13, 15, 16, 18, 19, 22, 24, 27, 29, 31, 33
    4    7 N      8, 14, 23

           -------------------------------------------------
          |                Calculation Setup                |
           -------------------------------------------------

          program call               : /usr/bin/xtb input.xyz --opt --gfn 2 --chrg 0 --uhf 0
          hostname                   : fedora
          coordinate file            : input.xyz
          omp threads                :                    16


           -------------------------------------------------
          |                 G F N 2 - x T B                 |
           -------------------------------------------------

        Reference                      10.1021/acs.jctc.8b01176
      * Hamiltonian:
        H0-scaling (s, p, d)           1.850000    2.230000    2.230000
        zeta-weighting                 0.500000
      * Dispersion:
        s8                             2.700000
        a1                             0.520000
        a2                             5.000000
        s9                             5.000000
      * Repulsion:
        kExp                           1.500000    1.000000
        rExp                           1.000000
      * Coulomb:
        alpha                          2.000000
        third order                    shell-resolved
        anisotropic                    true
        a3                             3.000000
        a5                             4.000000
        cn-shift                       1.200000
        cn-exp                         4.000000
        max-rad                        5.000000


          ...................................................
          :                      SETUP                      :
          :.................................................:
          :  # basis functions                  91          :
          :  # atomic orbitals                  91          :
          :  # shells                           53          :
          :  # electrons                       100          :
          :  max. iterations                   250          :
          :  Hamiltonian                  GFN2-xTB          :
          :  restarted?                      false          :
          :  GBSA solvation                  false          :
          :  PC potential                    false          :
          :  electronic temp.          300.0000000     K    :
          :  accuracy                    1.0000000          :
          :  -> integral cutoff          0.2500000E+02      :
          :  -> integral neglect         0.1000000E-07      :
          :  -> SCF convergence          0.1000000E-05 Eh   :
          :  -> wf. convergence          0.1000000E-03 e    :
          :  Broyden damping             0.4000000          :
          :  net charge                          0          :
          :  unpaired electrons                  0          :
          ...................................................

 iter      E             dE          RMSdq      gap      omega  full diag
   1    -57.0863435 -0.570863E+02  0.430E+00    3.06       0.0  T
   2    -57.2176905 -0.131347E+00  0.254E+00    3.58       1.0  T
   3    -57.2251621 -0.747158E-02  0.140E+00    3.65       1.0  T
   4    -57.2273562 -0.219412E-02  0.566E-01    3.56       1.0  T
   5    -57.2361685 -0.881227E-02  0.120E-01    3.59       1.0  T
   6    -57.2363290 -0.160518E-03  0.600E-02    3.59       1.0  T
   7    -57.2363645 -0.355167E-04  0.260E-02    3.59       1.0  T
   8    -57.2363651 -0.593502E-06  0.116E-02    3.59       1.5  T
   9    -57.2363671 -0.194018E-05  0.359E-03    3.59       4.8  T
  10    -57.2363671 -0.652309E-07  0.156E-03    3.59      11.0  T
  11    -57.2363672 -0.143486E-07  0.701E-04    3.59      24.5  T
  12    -57.2363672 -0.450835E-08  0.239E-04    3.59      71.7  T

   *** convergence criteria satisfied after 12 iterations ***

         #    Occupation            Energy/Eh            Energy/eV
      -------------------------------------------------------------
         1        2.0000           -0.7347529             -19.9936
       ...           ...                  ...                  ...
        44        2.0000           -0.4256638             -11.5829
        45        2.0000           -0.4244836             -11.5508
        46        2.0000           -0.4198922             -11.4258
        47        2.0000           -0.4029033             -10.9636
        48        2.0000           -0.3989651             -10.8564
        49        2.0000           -0.3889520             -10.5839
        50        2.0000           -0.3707258             -10.0880 (HOMO)
        51                         -0.2387991              -6.4981 (LUMO)
        52                         -0.2341899              -6.3726
        53                         -0.2298519              -6.2546
        54                         -0.2037603              -5.5446
        55                         -0.1670105              -4.5446
       ...                                ...                  ...
        91                          0.7116785              19.3658
      -------------------------------------------------------------
                  HL-Gap            0.1319267 Eh            3.5899 eV
             Fermi-level           -0.3047624 Eh           -8.2930 eV

 SCC (total)                   0 d,  0 h,  0 min,  0.276 sec
 SCC setup                      ...        0 min,  0.004 sec (  1.594%)
 Dispersion                     ...        0 min,  0.011 sec (  4.072%)
 classical contributions        ...        0 min,  0.005 sec (  1.991%)
 integral evaluation            ...        0 min,  0.019 sec (  6.933%)
 iterations                     ...        0 min,  0.223 sec ( 80.795%)
 molecular gradient             ...        0 min,  0.012 sec (  4.470%)
 printout                       ...        0 min,  0.000 sec (  0.138%)

         :::::::::::::::::::::::::::::::::::::::::::::::::::::
         ::                     SUMMARY                     ::
         :::::::::::::::::::::::::::::::::::::::::::::::::::::
         :: total energy             -56.479130104333 Eh    ::
         :: gradient norm              0.000051446959 Eh/a0 ::
         :: HOMO-LUMO gap              3.589907051249 eV    ::
         ::.................................................::
         :: SCC energy               -57.236345513785 Eh    ::
         :: -> isotropic ES            0.097906859459 Eh    ::
         :: -> anisotropic ES          0.004266840610 Eh    ::
         :: -> anisotropic XC          0.019233191013 Eh    ::
         :: -> dispersion             -0.033732559863 Eh    ::
         :: repulsion energy           0.757215409452 Eh    ::
         :: add. restraining           0.000000000000 Eh    ::
         :: total charge               0.000000000000 e     ::
         :::::::::::::::::::::::::::::::::::::::::::::::::::::

      ----------------------------------------------------------- 
     |                   =====================                   |
     |                        A N C O P T                        |
     |                   =====================                   |
     |               Approximate Normal Coordinate               |
     |                Rational Function Optimizer                |
      ----------------------------------------------------------- 
      ----------------------------------------------------------- 
     |                   =====================                   |
     |                        A N C O P T                        |
     |                   =====================                   |
     |               Approximate Normal Coordinate               |
     |                Rational Function Optimizer                |
      ----------------------------------------------------------- 

          ...................................................
          :                      SETUP                      :
          :.................................................:
          :   optimization level            normal          :
          :   max. optcycles                   200          :
          :   ANC micro-cycles                  20          :
          :   degrees of freedom                96          :
          :.................................................:
          :   RF solver                   davidson          :
          :   write xtbopt.log                true          :
          :   linear?                        false          :
          :   energy convergence         0.5000000E-05 Eh   :
          :   grad. convergence          0.1000000E-02 Eh/α :
          :   maxmium RF displ.          1.0000000          :
          :   Hlow (freq-cutoff)         0.1000000E-01      :
          :   Hmax (freq-cutoff)         5.0000000          :
          :   S6 in model hess.         20.0000000          :
          ...................................................

generating ANC from exact Hessian ...
Using Lindh-Hessian (1995)
 Shifting diagonal of input Hessian by    9.6339465811495356E-003
 Lowest  eigenvalues of input Hessian
    0.000000    0.000000    0.000000    0.000000    0.000000    0.000000
    0.010000    0.010382    0.010556    0.012089    0.012502    0.014026
    0.015899    0.018046    0.019019    0.020019    0.023056    0.026122
 Highest eigenvalues
    2.001240    2.010859    2.095906    2.203161    2.307789    2.368263


........................................................................
.............................. CYCLE    1 ..............................
........................................................................

 iter      E             dE          RMSdq      gap      omega  full diag
   1    -57.2363672 -0.572364E+02  0.101E-04    3.59       0.0  T
   2    -57.2363672 -0.518909E-10  0.584E-05    3.59     293.6  T
   3    -57.2363672 -0.705569E-11  0.373E-05    3.59     459.9  T
     SCC iter.                  ...        0 min,  0.010 sec
     gradient                   ...        0 min,  0.002 sec
 * total energy  :   -56.4791301 Eh     change       -0.7973568E-09 Eh
   gradient norm :     0.0000509 Eh/α   predicted     0.0000000E+00 (-100.00%)
   displ. norm   :     0.0000763 α      lambda        0.0000000E+00
   maximum displ.:     0.0000340 α      in ANC's #28, #21, #40, ...

   *** GEOMETRY OPTIMIZATION CONVERGED AFTER 1 ITERATIONS ***

------------------------------------------------------------------------
 total energy gain   :        -0.0000000 Eh       -0.0000 kcal/mol
 total RMSD          :         0.0000000 a0        0.0000 Å
 total power (kW/mol):        -0.0000021 (step)   -0.0001 (real)
------------------------------------------------------------------------

 ANCopt (total)                0 d,  0 h,  0 min,  0.023 sec
 optimizer setup                ...        0 min,  0.000 sec (  0.780%)
 model hessian                  ...        0 min,  0.005 sec ( 22.806%)
 ANC generation                 ...        0 min,  0.004 sec ( 15.494%)
 coordinate transformation      ...        0 min,  0.000 sec (  0.051%)
 single point calculation       ...        0 min,  0.013 sec ( 58.753%)
 optimization log               ...        0 min,  0.000 sec (  0.353%)
 hessian update                 ...        0 min,  0.000 sec (  0.002%)
 rational function              ...        0 min,  0.000 sec (  0.285%)

================
 final structure:
================
34
 xtb: 6.7.1-6.fc44.fc44
O           -3.32809079040000        1.49283081860000       -2.93095294490000
C           -3.90580674460000        2.28926455330000       -2.05415198210000
O           -4.38148047220000        3.35122402270000       -2.34107764690000
H           -2.95514619550000        0.66939580300000       -2.50786965850000
C           -3.96453767960000        1.73607017930000       -0.61213703020000
H           -4.54864600840000        0.80707921180000       -0.64645623030000
H           -4.47589907880000        2.46292261620000        0.01749796130000
N           -2.65996639890000        1.45391117530000       -0.04665459680000
H           -2.30451995490000        2.01910521880000        0.71312452190000
C           -1.88993578450000        0.42996691090000       -0.43043266510000
O           -2.16715154980000       -0.29813227550000       -1.37819486250000
C           -0.61846569150000        0.25945184180000        0.39195223260000
H            0.18894225610000        0.71988982890000       -0.19144220140000
N           -0.72995613870000        0.99739754300000        1.64284495240000
H            0.18502336950000        1.07873611740000        2.07256195660000
H           -1.31865712710000        0.48170113440000        2.29170676820000
C           -0.30061597460000       -1.24146282980000        0.56461491390000
H           -0.32450737920000       -1.70848661100000       -0.42093302450000
H           -1.07914715820000       -1.69925500890000        1.18088212560000
C            1.03366348390000       -1.42875951330000        1.20150276030000
C            1.29517714080000       -1.74961397240000        2.50162644650000
H            0.60969476440000       -1.97260518310000        3.29801647590000
N            2.64742470500000       -1.78171288620000        2.71824965630000
H            3.09351120120000       -2.02053552840000        3.58694080860000
C            3.28981766590000       -1.47818527840000        1.55239761610000
C            4.64573186290000       -1.38238732290000        1.26573725370000
H            5.39067588010000       -1.56515699900000        2.02633319980000
C            5.00184004020000       -1.04878493080000       -0.02284208870000
H            6.04698239750000       -0.96557014160000       -0.28131047390000
C            4.03699571090000       -0.81752180620000       -1.00777307320000
H            4.36100608240000       -0.56211286510000       -2.00576983110000
C            2.69216249910000       -0.91067244350000       -0.73063716160000
H            1.95388587800000       -0.73788436190000       -1.49958165820000
C            2.30180146680000       -1.24266914890000        0.56681271680000

 Bond Distances (Angstroems)
 ---------------------------
O1-C2=1.3179         O1-H4=0.9981         C2-O1=1.3179         C2-O3=1.1985         C2-C5=1.5456         O3-C2=1.1985         
H4-O1=0.9981         C5-C2=1.5456         C5-H6=1.0979         C5-H7=1.0891         C5-N8=1.4496         H6-C5=1.0979         
H7-C5=1.0891         N8-C5=1.4496         N8-H9=1.0115         N8-C10=1.3374        H9-N8=1.0115         C10-N8=1.3374        
C10-O11=1.2269       C10-C12=1.5238       O11-C10=1.2269       C12-C10=1.5238       C12-H13=1.0974       C12-N14=1.4566       
C12-C17=1.5439       H13-C12=1.0974       N14-C12=1.4566       N14-H15=1.0141       N14-H16=1.0166       H15-N14=1.0141       
H16-N14=1.0166       C17-C12=1.5439       C17-H18=1.0909       C17-H19=1.0934       C17-C20=1.4903       H18-C17=1.0909       
H19-C17=1.0934       C20-C17=1.4903       C20-C21=1.3644       C20-C34=1.4303       C21-C20=1.3644       C21-H22=1.0742       
C21-N23=1.3699       H22-C21=1.0742       N23-C21=1.3699       N23-H24=1.0053       N23-C25=1.3653       H24-N23=1.0053       
C25-N23=1.3653       C25-C26=1.3892       C25-C34=1.4153       C26-C25=1.3892       C26-H27=1.0802       C26-C28=1.3779       
H27-C26=1.0802       C28-C26=1.3779       C28-H29=1.0798       C28-C30=1.3980       H29-C28=1.0798       C30-C28=1.3980       
C30-H31=1.0799       C30-C32=1.3762       H31-C30=1.0799       C32-C30=1.3762       C32-H33=1.0799       C32-C34=1.3950       
H33-C32=1.0799       C34-C20=1.4303       C34-C25=1.4153       C34-C32=1.3950       
 C  H  Rav=1.0863 sigma=0.0080  Rmin=1.0742  Rmax=1.0979    10
 C  C  Rav=1.4375 sigma=0.0659  Rmin=1.3644  Rmax=1.5456    12
 N  H  Rav=1.0119 sigma=0.0042  Rmin=1.0053  Rmax=1.0166     4
 N  C  Rav=1.3958 sigma=0.0482  Rmin=1.3374  Rmax=1.4566     5
 O  H  Rav=0.9981 sigma=0.0000  Rmin=0.9981  Rmax=0.9981     1
 O  C  Rav=1.2477 sigma=0.0509  Rmin=1.1985  Rmax=1.3179     3

 selected bond angles (degree)
 --------------------
H4-O1-C2=112.36                O3-C2-O1=123.38                C5-C2-O1=114.90                C5-C2-O3=121.70                
H6-C5-C2=107.09                H7-C5-C2=108.56                H7-C5-H6=109.45                N8-C5-C2=113.54                
N8-C5-H6=109.04                N8-C5-H7=109.08                H9-N8-C5=120.03                C10-N8-C5=123.73               
C10-N8-H9=116.17               O11-C10-N8=123.09              C12-C10-N8=114.28              C12-C10-O11=122.62             

 selected dihedral angles (degree)
 ---------------------------------
O3-C2-O1-H4=177.56            C5-C2-O1-H4=355.94            H6-C5-C2-O1=299.18            H6-C5-C2-O3=117.59            
H7-C5-C2-O1=181.10            H7-C5-C2-O3=359.51            N8-C5-C2-O1= 59.60            N8-C5-C2-O3=238.01            
H9-N8-C5-C2=111.24            H9-N8-C5-H6=230.55            H9-N8-C5-H7=350.03            C10-N8-C5-C2=288.14           
C10-N8-C5-H6= 47.45           C10-N8-C5-H7=166.93           O11-C10-N8-C5=  6.51          O11-C10-N8-H9=183.52          
C12-C10-N8-C5=185.27          C12-C10-N8-H9=  2.27          
           -------------------------------------------------
          |                Final Singlepoint                |
           -------------------------------------------------

          ...................................................
          :                      SETUP                      :
          :.................................................:
          :  # basis functions                  91          :
          :  # atomic orbitals                  91          :
          :  # shells                           53          :
          :  # electrons                       100          :
          :  max. iterations                   250          :
          :  Hamiltonian                  GFN2-xTB          :
          :  restarted?                      false          :
          :  GBSA solvation                  false          :
          :  PC potential                    false          :
          :  electronic temp.          300.0000000     K    :
          :  accuracy                    1.0000000          :
          :  -> integral cutoff          0.2500000E+02      :
          :  -> integral neglect         0.1000000E-07      :
          :  -> SCF convergence          0.1000000E-05 Eh   :
          :  -> wf. convergence          0.1000000E-03 e    :
          :  Broyden damping             0.4000000          :
          :  net charge                          0          :
          :  unpaired electrons                  0          :
          ...................................................

 iter      E             dE          RMSdq      gap      omega  full diag
   1    -57.2363672 -0.572364E+02  0.118E-05    3.59       0.0  T
   2    -57.2363672 -0.902389E-12  0.848E-06    3.59    2022.9  T
   3    -57.2363672 -0.980549E-12  0.507E-06    3.59    3381.8  T

   *** convergence criteria satisfied after 3 iterations ***

         #    Occupation            Energy/Eh            Energy/eV
      -------------------------------------------------------------
         1        2.0000           -0.7347557             -19.9937
       ...           ...                  ...                  ...
        44        2.0000           -0.4256638             -11.5829
        45        2.0000           -0.4244830             -11.5508
        46        2.0000           -0.4198920             -11.4258
        47        2.0000           -0.4029037             -10.9636
        48        2.0000           -0.3989653             -10.8564
        49        2.0000           -0.3889512             -10.5839
        50        2.0000           -0.3707252             -10.0879 (HOMO)
        51                         -0.2387986              -6.4980 (LUMO)
        52                         -0.2341900              -6.3726
        53                         -0.2298538              -6.2546
        54                         -0.2037595              -5.5446
        55                         -0.1670098              -4.5446
       ...                                ...                  ...
        91                          0.7116788              19.3658
      -------------------------------------------------------------
                  HL-Gap            0.1319266 Eh            3.5899 eV
             Fermi-level           -0.3047619 Eh           -8.2930 eV

 SCC (total)                   0 d,  0 h,  0 min,  0.055 sec
 SCC setup                      ...        0 min,  0.001 sec (  1.405%)
 Dispersion                     ...        0 min,  0.005 sec (  9.050%)
 classical contributions        ...        0 min,  0.004 sec (  7.088%)
 integral evaluation            ...        0 min,  0.004 sec (  6.732%)
 iterations                     ...        0 min,  0.034 sec ( 61.589%)
 molecular gradient             ...        0 min,  0.007 sec ( 13.539%)
 printout                       ...        0 min,  0.000 sec (  0.504%)

         :::::::::::::::::::::::::::::::::::::::::::::::::::::
         ::                     SUMMARY                     ::
         :::::::::::::::::::::::::::::::::::::::::::::::::::::
         :: total energy             -56.479130105150 Eh    ::
         :: gradient norm              0.000050892670 Eh/a0 ::
         :: HOMO-LUMO gap              3.589905776224 eV    ::
         ::.................................................::
         :: SCC energy               -57.236345514602 Eh    ::
         :: -> isotropic ES            0.097905369532 Eh    ::
         :: -> anisotropic ES          0.004266938213 Eh    ::
         :: -> anisotropic XC          0.019233010057 Eh    ::
         :: -> dispersion             -0.033732578034 Eh    ::
         :: repulsion energy           0.757215409452 Eh    ::
         :: add. restraining           0.000000000000 Eh    ::
         :: total charge               0.000000000000 e     ::
         :::::::::::::::::::::::::::::::::::::::::::::::::::::

           -------------------------------------------------
          |                Property Printout                |
           -------------------------------------------------

    * Orbital Energies and Occupations

         #    Occupation            Energy/Eh            Energy/eV
      -------------------------------------------------------------
         1        2.0000           -0.7347557             -19.9937
       ...           ...                  ...                  ...
        38        2.0000           -0.4677403             -12.7279
        39        2.0000           -0.4634289             -12.6105
        40        2.0000           -0.4609602             -12.5434
        41        2.0000           -0.4559132             -12.4060
        42        2.0000           -0.4466635             -12.1543
        43        2.0000           -0.4324029             -11.7663
        44        2.0000           -0.4256638             -11.5829
        45        2.0000           -0.4244830             -11.5508
        46        2.0000           -0.4198920             -11.4258
        47        2.0000           -0.4029037             -10.9636
        48        2.0000           -0.3989653             -10.8564
        49        2.0000           -0.3889512             -10.5839
        50        2.0000           -0.3707252             -10.0879 (HOMO)
        51                         -0.2387986              -6.4980 (LUMO)
        52                         -0.2341900              -6.3726
        53                         -0.2298538              -6.2546
        54                         -0.2037595              -5.5446
        55                         -0.1670098              -4.5446
        56                         -0.0779230              -2.1204
        57                         -0.0218278              -0.5940
        58                          0.0109691               0.2985
        59                          0.0256212               0.6972
        60                          0.0636801               1.7328
        61                          0.0812809               2.2118
       ...                                ...                  ...
        91                          0.7116788              19.3658
      -------------------------------------------------------------
                  HL-Gap            0.1319266 Eh            3.5899 eV
             Fermi-level           -0.3047619 Eh           -8.2930 eV

     #   Z          covCN         q      C6AA      α(0)
     1   8 O        1.655    -0.374    20.357     6.091
     2   6 C        2.684     0.358    20.923     7.486
     3   8 O        0.856    -0.377    21.225     6.177
     4   1 H        0.800     0.365     0.556     1.172
     5   6 C        3.737    -0.040    21.367     6.596
     6   1 H        0.924     0.076     2.026     2.226
     7   1 H        0.925     0.078     2.003     2.213
     8   7 N        2.687    -0.164    24.548     7.359
     9   1 H        0.860     0.204     1.084     1.631
    10   6 C        2.755     0.262    22.592     7.783
    11   8 O        0.859    -0.458    22.884     6.414
    12   6 C        3.789     0.027    20.134     6.390
    13   1 H        0.924     0.063     2.166     2.302
    14   7 N        2.631    -0.355    29.156     8.019
    15   1 H        0.860     0.154     1.376     1.838
    16   1 H        0.860     0.146     1.431     1.874
    17   6 C        3.805    -0.064    21.716     6.634
    18   1 H        0.924     0.067     2.124     2.279
    19   1 H        0.924     0.033     2.550     2.497
    20   6 C        3.056    -0.033    28.755     8.794
    21   6 C        3.032    -0.010    28.238     8.716
    22   1 H        0.926     0.026     2.650     2.546
    23   7 N        2.777    -0.108    23.365     7.179
    24   1 H        0.860     0.157     1.354     1.823
    25   6 C        3.086     0.044    26.914     8.504
    26   6 C        2.908    -0.053    29.322     8.879
    27   1 H        0.926     0.023     2.686     2.563
    28   6 C        2.925    -0.035    28.876     8.812
    29   1 H        0.926     0.029     2.597     2.520
    30   6 C        2.920    -0.040    29.006     8.832
    31   1 H        0.926     0.029     2.600     2.522
    32   6 C        2.911    -0.037    28.916     8.818
    33   1 H        0.926     0.031     2.571     2.507
    34   6 C        3.118    -0.021    28.351     8.721

 Mol. C6AA /au·bohr⁶  :      13327.338157
 Mol. C8AA /au·bohr⁸  :     312369.320442
 Mol. α(0) /au        :        178.715809


Wiberg/Mayer (AO) data.
largest (>0.10) Wiberg bond orders for each atom

 ---------------------------------------------------------------------------
     #   Z sym  total        # sym  WBO       # sym  WBO       # sym  WBO
 ---------------------------------------------------------------------------
     1   8 O    2.234 --     2 C    1.201     4 H    0.771     3 O    0.183
     2   6 C    3.932 --     3 O    1.774     1 O    1.201     5 C    0.924
     3   8 O    2.067 --     2 C    1.774     1 O    0.183
     4   1 H    0.867 --     1 O    0.771
     5   6 C    3.963 --     8 N    0.991     7 H    0.974     6 H    0.953
                             2 C    0.924
     6   1 H    0.994 --     5 C    0.953
     7   1 H    0.994 --     5 C    0.974
     8   7 N    3.477 --    10 C    1.307     5 C    0.991     9 H    0.916
                            11 O    0.192
     9   1 H    0.958 --     8 N    0.916
    10   6 C    3.948 --    11 O    1.605     8 N    1.307    12 C    0.952
    11   8 O    2.009 --    10 C    1.605     8 N    0.192
    12   6 C    3.982 --    14 N    1.018    17 C    0.959    10 C    0.952
                            13 H    0.942
    13   1 H    0.996 --    12 C    0.942
    14   7 N    3.028 --    12 C    1.018    16 H    0.963    15 H    0.960
    15   1 H    0.976 --    14 N    0.960
    16   1 H    0.979 --    14 N    0.963
    17   6 C    3.993 --    20 C    1.019    19 H    0.974    18 H    0.962
                            12 C    0.959
    18   1 H    0.996 --    17 C    0.962
    19   1 H    0.998 --    17 C    0.974
    20   6 C    3.976 --    21 C    1.583    34 C    1.200    17 C    1.019
    21   6 C    3.947 --    20 C    1.583    23 N    1.190    22 H    0.970
    22   1 H    0.999 --    21 C    0.970
    23   7 N    3.538 --    21 C    1.190    25 C    1.175    24 H    0.948
    24   1 H    0.975 --    23 N    0.948
    25   6 C    3.958 --    26 C    1.337    34 C    1.251    23 N    1.175
    26   6 C    3.989 --    28 C    1.495    25 C    1.337    27 H    0.969
                            32 C    0.114
    27   1 H    0.999 --    26 C    0.969
    28   6 C    3.991 --    26 C    1.495    30 C    1.371    29 H    0.972
    29   1 H    0.999 --    28 C    0.972
    30   6 C    3.991 --    32 C    1.506    28 C    1.371    31 H    0.972
    31   1 H    0.999 --    30 C    0.972
    32   6 C    3.992 --    30 C    1.506    34 C    1.331    33 H    0.969
                            26 C    0.114
    33   1 H    0.999 --    32 C    0.969
    34   6 C    3.984 --    32 C    1.331    25 C    1.251    20 C    1.200
 ---------------------------------------------------------------------------

Topologies differ in total number of bonds
Writing topology from bond orders to xtbtopo.mol

molecular dipole:
                 x           y           z       tot (Debye)
 q only:        0.893      -0.725       2.459
   full:        1.292      -1.208       3.292       9.499
molecular quadrupole (traceless):
                xx          xy          yy          xz          yz          zz
 q only:        0.081       9.321      -4.672     -12.823       8.496       4.591
  q+dip:        1.884      13.712     -11.245     -15.030       6.695       9.361
   full:        1.159      13.991      -8.946     -14.985       7.759       7.787

           -------------------------------------------------
          |                Geometry Summary                 |
           -------------------------------------------------

      molecular mass/u    :      261.2770023
   center of mass at/Å    :       -0.0000000       0.0000000      -0.0000000
  moments of inertia/u·Å² :        0.5423845E+03   0.3281994E+04   0.3584867E+04
rotational constants/cm⁻¹ :        0.3108060E-01   0.5136400E-02   0.4702443E-02

 * 32 selected distances

     #   Z          #   Z                                           value/Å
     1   8 O        2   6 C                                       1.3178933
     2   6 C        3   8 O                                       1.1984782
     1   8 O        4   1 H                                       0.9980644 (min)
     5   6 C        6   1 H                                       1.0979002
     5   6 C        7   1 H                                       1.0891489
     5   6 C        8   7 N                                       1.4495829
     8   7 N        9   1 H                                       1.0114598
     8   7 N       10   6 C                                       1.3374210
    10   6 C       11   8 O                                       1.2268783
    12   6 C       13   1 H                                       1.0973878
    12   6 C       14   7 N                                       1.4566149
    14   7 N       15   1 H                                       1.0141303
    14   7 N       16   1 H                                       1.0166285
    17   6 C       18   1 H                                       1.0908652
    17   6 C       19   1 H                                       1.0933755
    17   6 C       20   6 C                                       1.4903048 (max)
    20   6 C       21   6 C                                       1.3644262
    21   6 C       22   1 H                                       1.0741734
    21   6 C       23   7 N                                       1.3698649
    23   7 N       24   1 H                                       1.0053128
    23   7 N       25   6 C                                       1.3652872
    25   6 C       26   6 C                                       1.3891922
    26   6 C       27   1 H                                       1.0802096
    26   6 C       28   6 C                                       1.3778754
    28   6 C       29   1 H                                       1.0798395
    28   6 C       30   6 C                                       1.3980331
    30   6 C       31   1 H                                       1.0799140
    30   6 C       32   6 C                                       1.3762478
    32   6 C       33   1 H                                       1.0799000
    20   6 C       34   6 C                                       1.4302571
    25   6 C       34   6 C                                       1.4152815
    32   6 C       34   6 C                                       1.3949839

 * 6 distinct bonds (by element types)

   Z      Z             #   av. dist./Å        max./Å        min./Å
   1 H    6 C          10     1.0862714     1.0979002     1.0741734
   6 C    6 C           9     1.4040669     1.4903048     1.3644262
   1 H    7 N           4     1.0118829     1.0166285     1.0053128
   6 C    7 N           5     1.3957542     1.4566149     1.3374210
   1 H    8 O           1     0.9980644     0.9980644     0.9980644
   6 C    8 O           3     1.2477499     1.3178933     1.1984782


optimized geometry written to: xtbopt.xyz


           -------------------------------------------------
          | TOTAL ENERGY              -56.479130105150 Eh   |
          | GRADIENT NORM               0.000050892670 Eh/α |
          | HOMO-LUMO GAP               3.589905776224 eV   |
           -------------------------------------------------

------------------------------------------------------------------------
 * finished run on 2026/10/01 at 18:03:22.761     
------------------------------------------------------------------------
 total:
 * wall-time:     0 d,  0 h,  0 min,  0.377 sec
 *  cpu-time:     0 d,  0 h,  0 min,  5.241 sec
 * ratio c/w:    13.907 speedup
 SCF:
 * wall-time:     0 d,  0 h,  0 min,  0.277 sec
 *  cpu-time:     0 d,  0 h,  0 min,  3.821 sec
 * ratio c/w:    13.814 speedup
 ANC optimizer:
 * wall-time:     0 d,  0 h,  0 min,  0.079 sec
 *  cpu-time:     0 d,  0 h,  0 min,  1.124 sec
 * ratio c/w:    14.228 speedup


--- STDERR ---
normal termination of xtb
Note: The following floating-point exceptions are signalling: IEEE_UNDERFLOW_FLAG IEEE_DENORMAL
