68
 energy: -106.573615172961 gnorm: 0.000269327052 xtb: 6.7.1-6.fc44.fc44
O            1.24617202227522       -0.36899293767561        1.64447133366155
O            1.02398461321123       -0.91158107184448       -1.61114788522648
O           -3.39042878329797       -2.62354109023433       -0.16278716822495
O           -3.16251138245752        3.09440679155239        0.33468989987909
O           -1.26701513024879        1.63306802438337       -1.38894839996358
O            2.35908481656712        2.94584144152108        1.20655685113483
N            0.36034187397837       -2.43702751515708       -0.13048404507819
N           -2.16354586355025       -0.90304267132080       -0.96174337266429
N           -3.81014209445242        0.95854556729649        0.24699081171957
N           -0.54111400416372        2.12885635069025        0.68515977383253
N            1.96054902588511        1.74175698545127       -0.66073114710009
N            3.17206277943688       -0.45438690493926        0.50242535592736
C            2.00735806910241       -0.98142523712507        0.91330409032762
C            1.68301971795598       -2.41490154023062        0.49057098896526
C            1.54623902324109       -3.33174165778461        1.70970173207028
C            0.38894327652071       -4.25110217581448        1.32895839295682
C           -0.54914933027374       -3.29550943976136        0.60135014959737
C            0.13170329994187       -1.63486777627817       -1.17708477147811
C           -1.26938515131807       -1.67686280478074       -1.79943186375195
C           -1.24470748338905       -1.09411450975154       -3.20733156770234
C           -3.13895941959702       -1.43239034707169       -0.22117408627751
C           -3.91433513677736       -0.42239930251755        0.65955734445801
C           -5.38570713665150       -0.82932679223180        0.70338946210855
C           -2.94151051472428        1.93376350630185        0.60340058649931
C           -1.67170923049769        1.52405377031286        1.36751157881895
C           -1.73838032642217        2.04865759431736        2.79601478144120
C           -0.41823116087376        2.09965896454209       -0.64248402183357
C            0.92394724733479        2.63166555114196       -1.15620983359701
C            0.95906878677084        2.66843873221080       -2.67546644082655
C            2.54208779791531        1.94846129029271        0.53191405246419
C            3.53983370133170        0.87159400563291        0.97105496135083
C            4.92781737043497        1.10944129832910        0.37185655006270
C            4.89029815251099        0.29169521979158       -0.91647259428881
C            4.07112511474328       -0.94043558205355       -0.52896607797791
H            2.41661780205646       -2.79820817145413       -0.22392590814973
H            2.46946859752756       -3.86660826201683        1.92253980130757
H            1.27316461635691       -2.72980901236904        2.57792933173174
H            0.73202382294107       -5.03243961893742        0.64917282901594
H           -0.08225699902702       -4.71590799265380        2.19142444507523
H           -1.25602439718351       -3.79971082294774       -0.05565182907022
H           -1.11999573225117       -2.70134446763049        1.32320818094912
H           -2.04016279927675        0.11032207258453       -1.03794403327373
H           -1.63685814201745       -2.70860260775664       -1.81385399763317
H           -0.49605170260568       -1.60056437525495       -3.81056222960903
H           -1.00088514638250       -0.03645835800121       -3.15285108651470
H           -2.21968926159288       -1.20917463919124       -3.67302621801928
H           -4.58049599916303        1.29853086757221       -0.31436682142546
H           -3.49517264524306       -0.52887833771377        1.66895552877203
H           -5.84217849840912       -0.68594786690432       -0.27374860739809
H           -5.92570173324330       -0.23936256629995        1.43955313844515
H           -5.45614707039353       -1.88236122707400        0.96105215831120
H            0.20213940430518        2.51341455444465        1.25279453261631
H           -1.53555576818911        0.43569195440839        1.36684437525253
H           -2.56130746491182        1.58208488181985        3.33235553962748
H           -1.89566707596451        3.12445728256747        2.78082963351367
H           -0.80863593531900        1.82457753679487        3.31325889051330
H            1.94574622378283        0.81298433090458       -1.07013526823682
H            1.10900465647153        3.62193949832504       -0.72580078549182
H            0.86299706504291        1.65742384989403       -3.06460522450536
H            1.89411203987701        3.09952475022335       -3.02336674825442
H            0.12870293040388        3.26212676071648       -3.04615283625626
H            3.54838015662026        0.89236399203409        2.06610628909168
H            5.69372116240368        0.72449890575644        1.04614612111957
H            5.11515367940659        2.16691870746814        0.19882374648665
H            5.88375411943731        0.02644356950552       -1.27190852221626
H            4.37643260607605        0.85039095209734       -1.69824728043103
H            3.50703289786767       -1.33110678147261       -1.37814256049885
H            4.71723427440965       -1.72912545419192       -0.12464055957663
