34
frame_0058
O      -3.526034857800000      2.200585589900000     -0.725308836200000
C      -2.361585709600000      2.616065866200000     -1.178915334400000
O      -2.241929003200000      3.459329239300000     -2.022167029200000
H      -3.428836671000000      1.468049857100000     -0.052390810400000
C      -1.133368470200000      1.954154224100000     -0.514357490300000
H      -1.178884429500000      2.182898120000000      0.558523968000000
H      -0.229742534400000      2.387272758600000     -0.941140406900000
N      -1.097352369900000      0.513792405600000     -0.691179751000000
H      -0.320123245000000      0.132949969900000     -1.208695035700000
C      -1.889255178600000     -0.323022470200000      0.002290389800000
O      -2.826922223800000      0.084759382000000      0.678771674400000
C      -1.543103443700000     -1.806426967500000     -0.096620168000000
H      -2.481667134500000     -2.361671471300000      0.015392488300000
N      -0.930143690700000     -2.233821300600000     -1.334850588100000
H      -1.482983002400000     -1.964574775000000     -2.139360499200000
H       0.013341087100000     -1.878945054400000     -1.435759264500000
C      -0.622699907000000     -2.151328002500000      1.100267681300000
H      -0.228862718900000     -3.153866674400000      0.931418528200000
H      -1.226796582800000     -2.153931936800000      2.007865007700000
C       0.489624775800000     -1.166210366000000      1.253426497200000
C       0.477060742000000     -0.059996074800000      2.054148244600000
H      -0.281939888100000      0.263364793800000      2.740927149400000
N       1.625734387500000      0.663324730800000      1.883473045000000
H       1.869860079600000      1.498706697100000      2.387109722000000
C       2.416271966100000      0.029294550600000      0.969522257200000
C       3.665276611100000      0.371411795500000      0.466303568200000
H       4.172568079700000      1.265340231600000      0.797714243300000
C       4.232125785600000     -0.473324488400000     -0.462729888400000
H       5.201645422400000     -0.238318177700000     -0.875275149200000
C       3.580663868400000     -1.639421291800000     -0.876101515400000
H       4.066584281500000     -2.282036360300000     -1.595107184600000
C       2.343115266700000     -1.984813120400000     -0.382534893400000
H       1.859892444600000     -2.898942201600000     -0.695148110800000
C       1.732865085000000     -1.137496446900000      0.545622070800000
