34
 energy: -56.476117777457 gnorm: 0.000107940817 xtb: 6.7.1-6.fc44.fc44
O           -3.52603485780000        2.20058558990000       -0.72530883620000
C           -2.36158570960000        2.61606586620000       -1.17891533440000
O           -2.24192900320000        3.45932923930000       -2.02216702920000
H           -3.42883667100000        1.46804985710000       -0.05239081040000
C           -1.13336847020000        1.95415422410000       -0.51435749030000
H           -1.17888442950000        2.18289812000000        0.55852396800000
H           -0.22974253440000        2.38727275860000       -0.94114040690000
N           -1.09735236990000        0.51379240560000       -0.69117975100000
H           -0.32012324500000        0.13294996990000       -1.20869503570000
C           -1.88925517860000       -0.32302247020000        0.00229038980000
O           -2.82692222380000        0.08475938200000        0.67877167440000
C           -1.54310344370000       -1.80642696750000       -0.09662016800000
H           -2.48166713450000       -2.36167147130000        0.01539248830000
N           -0.93014369070000       -2.23382130060000       -1.33485058810000
H           -1.48298300240000       -1.96457477500000       -2.13936049920000
H            0.01334108710000       -1.87894505440000       -1.43575926450000
C           -0.62269990700000       -2.15132800250000        1.10026768130000
H           -0.22886271890000       -3.15386667440000        0.93141852820000
H           -1.22679658280000       -2.15393193680000        2.00786500770000
C            0.48962477580000       -1.16621036600000        1.25342649720000
C            0.47706074200000       -0.05999607480000        2.05414824460000
H           -0.28193988810000        0.26336479380000        2.74092714940000
N            1.62573438750000        0.66332473080000        1.88347304500000
H            1.86986007960000        1.49870669710000        2.38710972200000
C            2.41627196610000        0.02929455060000        0.96952225720000
C            3.66527661110000        0.37141179550000        0.46630356820000
H            4.17256807970000        1.26534023160000        0.79771424330000
C            4.23212578560000       -0.47332448840000       -0.46272988840000
H            5.20164542240000       -0.23831817770000       -0.87527514920000
C            3.58066386840000       -1.63942129180000       -0.87610151540000
H            4.06658428150000       -2.28203636030000       -1.59510718460000
C            2.34311526670000       -1.98481312040000       -0.38253489340000
H            1.85989244460000       -2.89894220160000       -0.69514811080000
C            1.73286508500000       -1.13749644690000        0.54562207080000
