68
 energy: -106.565657747017 gnorm: 0.000434688810 xtb: 6.7.1-6.fc44.fc44
O            2.06941044005480       -1.59173430723415        1.27650972877509
O           -1.26850641393291       -4.21911907311101        1.36275653176232
O           -0.67433012255122        0.08754152580633       -0.71775048946940
O           -0.96902180758927        2.95615666816655       -2.58202145637160
O           -2.16680705742505        1.34298142114068        1.75624927851415
O            1.84332618742655        2.82478894268181        0.40100506124380
N            0.37486247417252       -3.43436638734086        0.07288067851350
N           -2.09519995134913       -1.30662048287755        0.32944696744738
N           -2.50066468207046        1.40757854557305       -2.07257735898612
N           -0.90876977044892        2.76092550931232        0.53113266732762
N            1.25292484811351        1.07315055075787        1.71884797225791
N            2.29310300436172       -0.35954900702948       -0.58439955806942
C            1.85944944897740       -1.43788600511796        0.07608700849357
C            1.08434533833170       -2.46893399221842       -0.74999927479208
C            2.04463122431395       -3.33365664950948       -1.58760788123832
C            2.26311403103888       -4.56346199331000       -0.71138449672182
C            0.87933530130652       -4.78592534309102       -0.12514075272862
C           -0.68077844867812       -3.26200527414277        0.89135449994101
C           -1.09158404237943       -1.82415813283971        1.24570749835216
C           -1.63493657143566       -1.79219441130209        2.66937771658831
C           -1.81321064262225       -0.27958226208293       -0.48066924544453
C           -3.01193512696813        0.41792306394777       -1.14990949889176
C           -3.91501252124782       -0.55340134854949       -1.90398419502445
C           -1.72787452302663        2.48439558366500       -1.76248162571275
C           -1.95262188162472        3.14834166464327       -0.39417943887445
C           -1.93079004338331        4.66439518619450       -0.57227492271591
C           -1.09861068909849        1.88998141244015        1.52275821736825
C            0.12492103779757        1.65774483218449        2.43157929328670
C            0.51056536509163        2.95485208991793        3.14584007222143
C            1.96961470622707        1.66455788748400        0.75647736359465
C            2.99817584592040        0.71712965579097        0.10555404811983
C            3.74946413087882        1.42011340698049       -1.01693147497934
C            2.75282445632460        1.33474457206474       -2.17147178863695
C            2.08639844174053       -0.03093138761534       -1.98547765023370
H            0.37641688279035       -1.91971823687974       -1.37837103929136
H            1.56776610004851       -3.61819324831952       -2.52673558804315
H            2.97774918166568       -2.81951814635259       -1.80870602743137
H            2.62545782915091       -5.42169427670001       -1.27272229223189
H            2.97053026452693       -4.33045484082397        0.08463417704678
H            0.22796994627581       -5.33011650398468       -0.81953113025424
H            0.87915281681142       -5.31402361114675        0.82895259393395
H           -3.05286496009351       -1.50073888968793        0.57684643771220
H           -0.23064638157080       -1.16331618460406        1.15170330067912
H           -0.83380633475003       -2.00510051240832        3.37190444309037
H           -2.40253856986627       -2.55409864268775        2.78575423458696
H           -2.05252078635530       -0.80940102325603        2.87596201891177
H           -2.25157245750879        1.02180199006642       -2.97756819759211
H           -3.57651246305934        0.91158613751308       -0.35190349806382
H           -4.38892784020024       -1.25680662717608       -1.22564806064141
H           -3.34145912623497       -1.11529252629703       -2.63887220553897
H           -4.69341606081725        0.00245819370507       -2.42150574489720
H            0.03339630790828        3.09502828940652        0.33481348916066
H           -2.90362464619372        2.82697391242515        0.03948576841332
H           -2.00666792376638        5.15503129077925        0.39468105867475
H           -2.76198573443025        4.97775465917515       -1.19833982072817
H           -1.00285760321291        4.95778086793831       -1.05672561773318
H            1.47791118404774        0.10407128318824        1.92286048125735
H           -0.18608921305991        0.91856499870332        3.17593919441773
H            1.29510423234656        2.75394912374676        3.87206196575802
H           -0.35555834336567        3.35658439221213        3.66527755661822
H            0.87428395349782        3.69134201388734        2.43593773535504
H            3.64350514646976        0.29238979292819        0.88101390183806
H            4.67132299247433        0.88572912615638       -1.24905335053122
H            3.98124521358392        2.44881563874989       -0.75229968519867
H            3.23063306471852        1.42429148088924       -3.14461285839386
H            2.01102497533425        2.12569629901938       -2.07253570846969
H            1.01951212546006        0.02002754606995       -2.20704803449702
H            2.55166973739195       -0.78990364057447       -2.62126447414760
