68
frame_0005
O       1.157563930231840     -0.265426167319630      1.746449144675450
O       1.182410088457325     -0.755044536358990     -1.559008270255924
O      -3.229276951232278     -2.486176360745277     -0.216383349718975
O      -3.051187011375892      2.990452132684088      0.257497478555402
O      -1.213598531058030      1.719856032690571     -1.370132848018236
O       2.462379191629865      2.966556383306203      1.236873257051336
N       0.316042001887192     -2.503398892911871     -0.245551150136089
N      -2.200348576697871     -0.904382086849915     -0.939133157210171
N      -3.934200963629121      1.025445815527713      0.346912785613126
N      -0.537598804628261      2.128048816660218      0.640305294246600
N       2.039305323808710      1.743579152435824     -0.671861930958645
N       3.186812449145015     -0.568897943921825      0.553435412594424
C       2.017198764777468     -0.890220303803705      0.930456916575292
C       1.847922689912711     -2.520032173405765      0.620412778269903
C       1.329585035258174     -3.206753135576052      1.812261681601271
C       0.336906035406927     -4.194069950814334      1.473909128069482
C      -0.489685247250394     -3.329501668680253      0.875732229826578
C       0.109424871330260     -1.632069838667050     -1.186838526048912
C      -1.184869003676968     -1.759396733471255     -1.730681068101649
C      -1.260129595870528     -1.231765506749234     -3.006803932509461
C      -3.324542603309596     -1.352391780193657     -0.322162607773166
C      -3.821690922300371     -0.435714854678719      0.562327265386118
C      -5.473850307096000     -0.779693018360651      0.628587302689046
C      -2.956681618785178      1.756498314301838      0.563487415430343
C      -1.700467675231559      1.455497739836134      1.430025852525940
C      -1.766362820031849      1.958262110653358      2.817439673273789
C      -0.525818962161511      1.987586985991027     -0.545789887026253
C       0.828845589022350      2.605217629180664     -1.222950988604290
C       0.787517001473209      2.662468689012595     -2.710896585435272
C       2.526660291146571      1.992791861404632      0.459218114204072
C       3.425458691970392      0.886670810376358      0.997487019840812
C       4.901308232675341      1.037892809691111      0.366284056668558
C       4.907191385974178      0.197057914745479     -1.071633553501104
C       4.051742019429372     -0.793147341514065     -0.535195230223076
H       2.621660443499969     -2.590740226065156     -0.091823325898820
H       2.283738127027293     -3.623018014849365      2.091225193416955
H       1.245535808019285     -2.716353626648839      2.615688964753191
H       0.578157345376403     -4.962063663676223      0.707955614163883
H      -0.272669523228523     -4.525506514674563      2.416997629526697
H      -1.487466161511676     -3.774501889416833      0.054175748638857
H      -1.272207846932139     -2.529726726987986      1.226728034234629
H      -2.096476807668970      0.155731288462426     -1.217160843437592
H      -1.674435549589036     -2.699021533275845     -1.748268730967000
H      -0.247587802086851     -1.731097707110527     -3.778048072261427
H      -0.972543442388212     -0.066411549214222     -3.107911824665588
H      -2.314611848702861     -1.163520056030572     -3.681835471281847
H      -4.524419035862999      1.289446466197829     -0.373518693737100
H      -3.524541513681374     -0.543857281403069      1.535684117496241
H      -5.948057713410834     -0.267249772647729      1.224081641432545
H      -5.690928560121009     -1.895514691234774      0.899469122804102
H      -5.855001923139769     -0.624545718732459     -0.604774143103432
H       0.161958214626338      2.360068750676340      1.224166541834409
H      -1.495496049957985      0.447633266121033      1.325333628325084
H      -2.584302394485932      1.587787240876052      3.217866003869111
H      -1.802182312281584      2.887271019377908      2.925673878680536
H      -0.700641898576434      1.431052329689146      3.306910740861677
H       1.946891010224706      0.831208915272965     -1.088263010056719
H       1.084796604496594      3.610892832952753     -0.655417766524152
H       1.746065833578446      3.042308661995293     -3.100183450354466
H       0.161102148578161      3.247472882426617     -2.896621685509505
H       0.791347345625193      1.548861769198201     -3.173586410429440
H       3.720592632958679      0.896075208393982      2.107336795617068
H       5.809407383204024      0.685696442911857      0.934741840756825
H       5.354026648713205      2.030035967423972      0.107747617228075
H       5.675595364462207      0.005158027027367     -1.332541381903428
H       4.353471634102814      0.747080640108359     -1.628013152105940
H       3.515798031602806     -1.600330304399847     -1.391210110447622
H       4.581085598226595     -1.765487629049548     -0.169663028742993
