37
frame_0006
O      -4.566844149500000      1.312518736100000      1.610387422100000
C      -3.715664530200000      1.246209919000000      0.769734733400000
O      -3.952160447400000      1.445934843200000     -0.513149452600000
H      -3.139022108800000      1.318308698500000     -1.073205261800000
C      -2.239838228400000      0.966139794100000      1.127887567200000
H      -2.167756848300000      0.835272376400000      2.206539141900000
H      -1.663201685600000      1.849030224000000      0.824418789400000
N      -1.694930282600000     -0.212037734600000      0.479357970900000
H      -1.370231023800000     -0.983110825100000      1.064735353300000
C      -1.406360604900000     -0.259344874100000     -0.821943526100000
O      -1.695535343700000      0.625484857300000     -1.619569863900000
C      -0.718291032200000     -1.554530559800000     -1.260390937700000
H      -0.655405496100000     -1.559479453100000     -2.348248231400000
H      -1.336884230000000     -2.394161955100000     -0.923171923800000
N       0.611475286200000     -1.704782095300000     -0.713580932200000
H       1.413162691700000     -1.510526140000000     -1.297442037600000
C       0.864440570000000     -2.002152946400000      0.568543517400000
O      -0.001492215800000     -2.167020785300000      1.413971992400000
C       2.351514365100000     -2.092516340400000      0.890461069900000
N       3.085407532900000     -2.530598015600000     -0.288340241900000
H       2.803924157100000     -3.470192079800000     -0.548686397100000
H       4.080277584300000     -2.553087915900000     -0.089809750200000
H       2.459132380400000     -2.774207035800000      1.751254856600000
C       2.831126716000000     -0.691175575500000      1.334240202500000
H       2.417710889100000     -0.489585755600000      2.323287072500000
H       3.920825022900000     -0.715956482600000      1.415024514500000
C       2.410397413600000      0.391411414600000      0.379121859000000
C       1.426065114500000      1.303423565200000      0.737458148600000
H       0.982148260400000      1.247478131800000      1.721683889300000
C       1.018227560800000      2.285096670500000     -0.149177567400000
H       0.268588945600000      3.004552671900000      0.146913966200000
C       1.574448903800000      2.356329319500000     -1.413816923100000
H       1.246425389600000      3.114776598100000     -2.107763081000000
C       2.556280480500000      1.451967603900000     -1.780055499800000
H       3.000730067400000      1.505919033800000     -2.763055749100000
C       2.978119330300000      0.482677386400000     -0.887241378600000
H       3.749916821400000     -0.215346351900000     -1.174307061100000
