34
frame_0014
O      -0.827964327900000      1.630810341000000     -1.456214728500000
C      -0.542811551900000      2.192945615300000     -0.293789905500000
O       0.347394907900000      2.981336397600000     -0.150540488400000
H      -1.594547393300000      0.998411930400000     -1.382910777200000
C      -1.478416902000000      1.792080714700000      0.865166707600000
H      -2.495139395200000      2.095634528300000      0.586409433500000
H      -1.170953100800000      2.328229401600000      1.761900003200000
N      -1.486943350500000      0.367334683100000      1.147389301800000
H      -0.910925675800000      0.046239345100000      1.908529987200000
C      -2.034458893100000     -0.531890460500000      0.315470760400000
O      -2.574662137200000     -0.205372678300000     -0.737805396200000
C      -1.971847566900000     -1.996269637100000      0.759687682700000
H      -2.428329225300000     -2.081442946700000      1.753507114000000
N      -2.711623608600000     -2.861237590800000     -0.135043510200000
H      -2.349160702600000     -2.754028095900000     -1.077684633000000
H      -3.687335343800000     -2.582935842900000     -0.165054337600000
C      -0.491655413900000     -2.455516077000000      0.818146498600000
H      -0.473414464700000     -3.502321685700000      0.510908423000000
H      -0.124625016500000     -2.399691499800000      1.843126550200000
C       0.388472354700000     -1.626843963400000     -0.063882330700000
C       0.425834534800000     -1.609186008500000     -1.429386901000000
H      -0.112615095900000     -2.217653123300000     -2.130923320900000
N       1.309035997800000     -0.662499215600000     -1.864976550400000
H       1.470648932100000     -0.414395842200000     -2.825552555700000
C       1.853335106000000     -0.029670595800000     -0.786585010200000
C       2.772600992600000      1.009045796900000     -0.717118566100000
H       3.174433561600000      1.455782185300000     -1.613255598900000
C       3.134249000200000      1.458276901100000      0.532560862500000
H       3.835737404700000      2.272798190800000      0.624095217700000
C       2.605670536000000      0.883891606300000      1.691919774400000
H       2.917839019200000      1.264342596100000      2.653487844100000
C       1.697900604300000     -0.147622096200000      1.630508907000000
H       1.309959388200000     -0.591621823700000      2.538474787900000
C       1.302112201500000     -0.618074924000000      0.376448494000000
