34
 energy: -56.480783427142 gnorm: 0.000094509608 xtb: 6.7.1-6.fc44.fc44
O           -0.82796432790000        1.63081034100000       -1.45621472850000
C           -0.54281155190000        2.19294561530000       -0.29378990550000
O            0.34739490790000        2.98133639760000       -0.15054048840000
H           -1.59454739330000        0.99841193040000       -1.38291077720000
C           -1.47841690200000        1.79208071470000        0.86516670760000
H           -2.49513939520000        2.09563452830000        0.58640943350000
H           -1.17095310080000        2.32822940160000        1.76190000320000
N           -1.48694335050000        0.36733468310000        1.14738930180000
H           -0.91092567580000        0.04623934510000        1.90852998720000
C           -2.03445889310000       -0.53189046050000        0.31547076040000
O           -2.57466213720000       -0.20537267830000       -0.73780539620000
C           -1.97184756690000       -1.99626963710000        0.75968768270000
H           -2.42832922530000       -2.08144294670000        1.75350711400000
N           -2.71162360860000       -2.86123759080000       -0.13504351020000
H           -2.34916070260000       -2.75402809590000       -1.07768463300000
H           -3.68733534380000       -2.58293584290000       -0.16505433760000
C           -0.49165541390000       -2.45551607700000        0.81814649860000
H           -0.47341446470000       -3.50232168570000        0.51090842300000
H           -0.12462501650000       -2.39969149980000        1.84312655020000
C            0.38847235470000       -1.62684396340000       -0.06388233070000
C            0.42583453480000       -1.60918600850000       -1.42938690100000
H           -0.11261509590000       -2.21765312330000       -2.13092332090000
N            1.30903599780000       -0.66249921560000       -1.86497655040000
H            1.47064893210000       -0.41439584220000       -2.82555255570000
C            1.85333510600000       -0.02967059580000       -0.78658501020000
C            2.77260099260000        1.00904579690000       -0.71711856610000
H            3.17443356160000        1.45578218530000       -1.61325559890000
C            3.13424900020000        1.45827690110000        0.53256086250000
H            3.83573740470000        2.27279819080000        0.62409521770000
C            2.60567053600000        0.88389160630000        1.69191977440000
H            2.91783901920000        1.26434259610000        2.65348784410000
C            1.69790060430000       -0.14762209620000        1.63050890700000
H            1.30995938820000       -0.59162182370000        2.53847478790000
C            1.30211220150000       -0.61807492400000        0.37644849400000
