34
frame_0000
O      -1.889751430800000      2.214069541400000      0.424586610500000
C      -1.027214760600000      2.225109811000000     -0.573642642500000
O      -0.109369974300000      2.995910987400000     -0.629748816200000
H      -2.527172674500000      1.445557779200000      0.363549953400000
C      -1.298996352800000      1.185964497400000     -1.680200293300000
H      -0.578393124500000      1.332798916100000     -2.483508550500000
H      -2.314369747400000      1.360547861800000     -2.058250721900000
N      -1.198480494500000     -0.178457941700000     -1.203648582100000
H      -0.382811585400000     -0.729285207700000     -1.439352077900000
C      -2.050850414700000     -0.725956241000000     -0.331504766700000
O      -3.017448964000000     -0.130637856700000      0.135771215000000
C      -1.692005314500000     -2.147083754100000      0.070769150100000
H      -2.626964187200000     -2.666612993300000      0.340619041600000
N      -0.965055631600000     -2.794332149500000     -1.010754364300000
H      -0.652668311100000     -3.714008718900000     -0.718810355200000
H      -1.566045928100000     -2.915550970300000     -1.819412321000000
C      -0.805613381400000     -2.050567963100000      1.341070558800000
H      -0.258585535500000     -2.990081917300000      1.447629793200000
H      -1.459825140100000     -1.928840990700000      2.205235478600000
C       0.140830534200000     -0.894694837500000      1.291989786300000
C      -0.014390684500000      0.292687655500000      1.950140415900000
H      -0.780583941500000      0.582833795500000      2.643489768000000
N       0.990739386300000      1.154452213500000      1.618628971000000
H       1.043801668000000      2.119735748100000      1.895990807200000
C       1.807712794600000      0.551855989700000      0.709670918900000
C       2.937514997300000      1.030586126000000      0.058599155300000
H       3.292472744300000      2.034528177500000      0.232962010100000
C       3.574106153400000      0.183233569300000     -0.821069637500000
H       4.453581221300000      0.523029805400000     -1.347592441300000
C       3.104569081600000     -1.114351275900000     -1.047602023600000
H       3.636402674200000     -1.748257709700000     -1.742390973200000
C       1.985227516600000     -1.595314288700000     -0.407526733400000
H       1.626664170800000     -2.595550398600000     -0.594108357600000
C       1.313347598700000     -0.757210254500000      0.484487882800000
