      -----------------------------------------------------------      
     |                   =====================                   |     
     |                           x T B                           |     
     |                   =====================                   |     
     |                         S. Grimme                         |     
     |          Mulliken Center for Theoretical Chemistry        |     
     |                    University of Bonn                     |     
      -----------------------------------------------------------      

   * xtb version 6.7.1-6.fc44.fc44 compiled by Fedora project on Sun Jan 18 23:32:34 UTC 2026

   xtb is free software: you can redistribute it and/or modify it under
   the terms of the GNU Lesser General Public License as published by
   the Free Software Foundation, either version 3 of the License, or
   (at your option) any later version.
   
   xtb is distributed in the hope that it will be useful,
   but WITHOUT ANY WARRANTY; without even the implied warranty of
   MERCHANTABILITY or FITNESS FOR A PARTICULAR PURPOSE.  See the
   GNU Lesser General Public License for more details.
   
   Cite this work as:
   * C. Bannwarth, E. Caldeweyher, S. Ehlert, A. Hansen, P. Pracht,
     J. Seibert, S. Spicher, S. Grimme, WIREs Comput. Mol. Sci., 2020, 11,
     e01493. DOI: 10.1002/wcms.1493
   
   for GFN2-xTB:
   * C. Bannwarth, S. Ehlert and S. Grimme., J. Chem. Theory Comput., 2019,
     15, 1652-1671. DOI: 10.1021/acs.jctc.8b01176
   for GFN1-xTB:
   * S. Grimme, C. Bannwarth, P. Shushkov, J. Chem. Theory Comput., 2017,
     13, 1989-2009. DOI: 10.1021/acs.jctc.7b00118
   for GFN0-xTB:
   * P. Pracht, E. Caldeweyher, S. Ehlert, S. Grimme, ChemRxiv, 2019, preprint.
     DOI: 10.26434/chemrxiv.8326202.v1
   for GFN-FF:
   * S. Spicher and S. Grimme, Angew. Chem. Int. Ed., 2020, 59, 15665-15673.
     DOI: 10.1002/anie.202004239
   
   for ALPB and GBSA implicit solvation:
   * S. Ehlert, M. Stahn, S. Spicher, S. Grimme, J. Chem. Theory Comput.,
     2021, 17, 4250-4261. DOI: 10.1021/acs.jctc.1c00471
   
   for ddCOSMO and CPCM-X implicit solvation:
   * M. Stahn, S. Ehlert, S. Grimme, J. Phys. Chem. A,
     2023, XX, XXXX-XXXX. DOI: 10.1021/acs.jpca.3c04382
   
   for DFT-D4:
   * E. Caldeweyher, C. Bannwarth and S. Grimme, J. Chem. Phys., 2017,
     147, 034112. DOI: 10.1063/1.4993215
   * E. Caldeweyher, S. Ehlert, A. Hansen, H. Neugebauer, S. Spicher,
     C. Bannwarth and S. Grimme, J. Chem. Phys., 2019, 150, 154122.
     DOI: 10.1063/1.5090222
   * E. Caldeweyher, J.-M. Mewes, S. Ehlert and S. Grimme, Phys. Chem. Chem. Phys.
     2020, 22, 8499-8512. DOI: 10.1039/D0CP00502A
   
   for sTDA-xTB:
   * S. Grimme and C. Bannwarth, J. Chem. Phys., 2016, 145, 054103.
     DOI: 10.1063/1.4959605
   
   in the mass-spec context:
   * V. Asgeirsson, C. Bauer and S. Grimme, Chem. Sci., 2017, 8, 4879.
     DOI: 10.1039/c7sc00601b
   * J. Koopman and S. Grimme, ACS Omega 2019, 4, 12, 15120-15133.
     DOI: 10.1021/acsomega.9b02011
   
   for metadynamics refer to:
   * S. Grimme, J. Chem. Theory Comput., 2019, 155, 2847-2862
     DOI: 10.1021/acs.jctc.9b00143
   
   for SPH calculations refer to:
   * S. Spicher and S. Grimme, J. Chem. Theory Comput., 2021, 17, 1701-1714
     DOI: 10.1021/acs.jctc.0c01306
   
   for ONIOM refer to:
   * C. Plett, A. Katbashev, S. Ehlert, S. Grimme, M. Bursch,
     Phys. Chem. Chem. Phys., 2023, 25, 17860-17868. DOI: 10.1039/D3CP02178E
   
   for DIPRO refer to:
   * J. Kohn, N. Gildemeister, S. Grimme, D. Fazzi, A. Hansen,
     J. Chem. Phys., 2023, just accepted.
   
   for PTB refer to:
   * S. Grimme, M. Mueller, A. Hansen, J. Chem. Phys., 2023, 158, 124111.
     DOI: 10.1063/5.0137838
   
   with help from (in alphabetical order)
   P. Atkinson, C. Bannwarth, F. Bohle, G. Brandenburg, E. Caldeweyher
   M. Checinski, S. Dohm, S. Ehlert, S. Ehrlich, I. Gerasimov, C. Hölzer
   A. Katbashev, J. Kohn, J. Koopman, C. Lavigne, S. Lehtola, F. März, M. Müller,
   F. Musil, H. Neugebauer, J. Pisarek, C. Plett, P. Pracht, F. Pultar,
   J. Seibert, P. Shushkov, S. Spicher, M. Stahn, M. Steiner, T. Strunk,
   J. Stückrath, T. Rose, and J. Unsleber
   
 * started run on 2026/10/01 at 18:03:01.504     
   ID    Z sym.   atoms
    1    8 O      1, 3, 11
    2    6 C      2, 5, 10, 12, 17, 20, 21, 25, 26, 28, 30, 32, 34
    3    1 H      4, 6, 7, 9, 13, 15, 16, 18, 19, 22, 24, 27, 29, 31, 33
    4    7 N      8, 14, 23

           -------------------------------------------------
          |                Calculation Setup                |
           -------------------------------------------------

          program call               : /usr/bin/xtb input.xyz --opt --gfn 2 --chrg 0 --uhf 0
          hostname                   : fedora
          coordinate file            : input.xyz
          omp threads                :                    16


           -------------------------------------------------
          |                 G F N 2 - x T B                 |
           -------------------------------------------------

        Reference                      10.1021/acs.jctc.8b01176
      * Hamiltonian:
        H0-scaling (s, p, d)           1.850000    2.230000    2.230000
        zeta-weighting                 0.500000
      * Dispersion:
        s8                             2.700000
        a1                             0.520000
        a2                             5.000000
        s9                             5.000000
      * Repulsion:
        kExp                           1.500000    1.000000
        rExp                           1.000000
      * Coulomb:
        alpha                          2.000000
        third order                    shell-resolved
        anisotropic                    true
        a3                             3.000000
        a5                             4.000000
        cn-shift                       1.200000
        cn-exp                         4.000000
        max-rad                        5.000000


          ...................................................
          :                      SETUP                      :
          :.................................................:
          :  # basis functions                  91          :
          :  # atomic orbitals                  91          :
          :  # shells                           53          :
          :  # electrons                       100          :
          :  max. iterations                   250          :
          :  Hamiltonian                  GFN2-xTB          :
          :  restarted?                      false          :
          :  GBSA solvation                  false          :
          :  PC potential                    false          :
          :  electronic temp.          300.0000000     K    :
          :  accuracy                    1.0000000          :
          :  -> integral cutoff          0.2500000E+02      :
          :  -> integral neglect         0.1000000E-07      :
          :  -> SCF convergence          0.1000000E-05 Eh   :
          :  -> wf. convergence          0.1000000E-03 e    :
          :  Broyden damping             0.4000000          :
          :  net charge                          0          :
          :  unpaired electrons                  0          :
          ...................................................

 iter      E             dE          RMSdq      gap      omega  full diag
   1    -57.0909521 -0.570910E+02  0.404E+00    3.19       0.0  T
   2    -57.2272557 -0.136304E+00  0.233E+00    3.48       1.0  T
   3    -57.2354473 -0.819165E-02  0.128E+00    3.61       1.0  T
   4    -57.2348221  0.625228E-03  0.450E-01    3.33       1.0  T
   5    -57.2410201 -0.619803E-02  0.116E-01    3.36       1.0  T
   6    -57.2411926 -0.172515E-03  0.575E-02    3.36       1.0  T
   7    -57.2412281 -0.354940E-04  0.257E-02    3.36       1.0  T
   8    -57.2412296 -0.147808E-05  0.112E-02    3.36       1.5  T
   9    -57.2412317 -0.204689E-05  0.352E-03    3.36       4.9  T
  10    -57.2412317 -0.607137E-07  0.148E-03    3.36      11.6  T
  11    -57.2412317 -0.144514E-07  0.617E-04    3.36      27.8  T
  12    -57.2412317 -0.365910E-08  0.216E-04    3.36      79.4  T

   *** convergence criteria satisfied after 12 iterations ***

         #    Occupation            Energy/Eh            Energy/eV
      -------------------------------------------------------------
         1        2.0000           -0.7391129             -20.1123
       ...           ...                  ...                  ...
        44        2.0000           -0.4204371             -11.4407
        45        2.0000           -0.4134010             -11.2492
        46        2.0000           -0.4115380             -11.1985
        47        2.0000           -0.4045347             -11.0079
        48        2.0000           -0.3942169             -10.7272
        49        2.0000           -0.3800878             -10.3427
        50        2.0000           -0.3617700              -9.8443 (HOMO)
        51                         -0.2382476              -6.4830 (LUMO)
        52                         -0.2319703              -6.3122
        53                         -0.2280139              -6.2046
        54                         -0.1955800              -5.3220
        55                         -0.1586514              -4.3171
       ...                                ...                  ...
        91                          0.7187505              19.5582
      -------------------------------------------------------------
                  HL-Gap            0.1235224 Eh            3.3612 eV
             Fermi-level           -0.3000088 Eh           -8.1637 eV

 SCC (total)                   0 d,  0 h,  0 min,  0.827 sec
 SCC setup                      ...        0 min,  0.004 sec (  0.520%)
 Dispersion                     ...        0 min,  0.008 sec (  0.991%)
 classical contributions        ...        0 min,  0.010 sec (  1.157%)
 integral evaluation            ...        0 min,  0.015 sec (  1.756%)
 iterations                     ...        0 min,  0.752 sec ( 90.904%)
 molecular gradient             ...        0 min,  0.038 sec (  4.620%)
 printout                       ...        0 min,  0.000 sec (  0.049%)

         :::::::::::::::::::::::::::::::::::::::::::::::::::::
         ::                     SUMMARY                     ::
         :::::::::::::::::::::::::::::::::::::::::::::::::::::
         :: total energy             -56.484053646996 Eh    ::
         :: gradient norm              0.000044275381 Eh/a0 ::
         :: HOMO-LUMO gap              3.361215966078 eV    ::
         ::.................................................::
         :: SCC energy               -57.240164384944 Eh    ::
         :: -> isotropic ES            0.097773509302 Eh    ::
         :: -> anisotropic ES          0.003396176923 Eh    ::
         :: -> anisotropic XC          0.019423951883 Eh    ::
         :: -> dispersion             -0.041010181894 Eh    ::
         :: repulsion energy           0.756110737948 Eh    ::
         :: add. restraining           0.000000000000 Eh    ::
         :: total charge               0.000000000000 e     ::
         :::::::::::::::::::::::::::::::::::::::::::::::::::::

      ----------------------------------------------------------- 
     |                   =====================                   |
     |                        A N C O P T                        |
     |                   =====================                   |
     |               Approximate Normal Coordinate               |
     |                Rational Function Optimizer                |
      ----------------------------------------------------------- 
      ----------------------------------------------------------- 
     |                   =====================                   |
     |                        A N C O P T                        |
     |                   =====================                   |
     |               Approximate Normal Coordinate               |
     |                Rational Function Optimizer                |
      ----------------------------------------------------------- 

          ...................................................
          :                      SETUP                      :
          :.................................................:
          :   optimization level            normal          :
          :   max. optcycles                   200          :
          :   ANC micro-cycles                  20          :
          :   degrees of freedom                96          :
          :.................................................:
          :   RF solver                   davidson          :
          :   write xtbopt.log                true          :
          :   linear?                        false          :
          :   energy convergence         0.5000000E-05 Eh   :
          :   grad. convergence          0.1000000E-02 Eh/α :
          :   maxmium RF displ.          1.0000000          :
          :   Hlow (freq-cutoff)         0.1000000E-01      :
          :   Hmax (freq-cutoff)         5.0000000          :
          :   S6 in model hess.         20.0000000          :
          ...................................................

generating ANC from exact Hessian ...
Using Lindh-Hessian (1995)
 Shifting diagonal of input Hessian by    9.5106354719683601E-003
 Lowest  eigenvalues of input Hessian
    0.000000    0.000000    0.000000    0.000000    0.000000    0.000000
    0.010000    0.010662    0.011347    0.012202    0.012653    0.014925
    0.016521    0.019376    0.019545    0.021463    0.024664    0.025388
 Highest eigenvalues
    2.000068    2.008634    2.101772    2.208753    2.314594    2.357693


........................................................................
.............................. CYCLE    1 ..............................
........................................................................

 iter      E             dE          RMSdq      gap      omega  full diag
   1    -57.2412317 -0.572412E+02  0.100E-04    3.36       0.0  T
   2    -57.2412317 -0.585203E-10  0.590E-05    3.36     290.9  T
   3    -57.2412317 -0.149853E-10  0.378E-05    3.36     453.5  T
     SCC iter.                  ...        0 min,  0.078 sec
     gradient                   ...        0 min,  0.030 sec
 * total energy  :   -56.4840536 Eh     change       -0.5621530E-09 Eh
   gradient norm :     0.0000439 Eh/α   predicted     0.0000000E+00 (-100.00%)
   displ. norm   :     0.0000658 α      lambda        0.0000000E+00
   maximum displ.:     0.0000332 α      in ANC's #46, #53, #42, ...

   *** GEOMETRY OPTIMIZATION CONVERGED AFTER 1 ITERATIONS ***

------------------------------------------------------------------------
 total energy gain   :        -0.0000000 Eh       -0.0000 kcal/mol
 total RMSD          :         0.0000000 a0        0.0000 Å
 total power (kW/mol):        -0.0000015 (step)   -0.0000 (real)
------------------------------------------------------------------------

 ANCopt (total)                0 d,  0 h,  0 min,  0.172 sec
 optimizer setup                ...        0 min,  0.000 sec (  0.090%)
 model hessian                  ...        0 min,  0.011 sec (  6.219%)
 ANC generation                 ...        0 min,  0.042 sec ( 24.685%)
 coordinate transformation      ...        0 min,  0.000 sec (  0.011%)
 single point calculation       ...        0 min,  0.118 sec ( 68.684%)
 optimization log               ...        0 min,  0.000 sec (  0.051%)
 hessian update                 ...        0 min,  0.000 sec (  0.000%)
 rational function              ...        0 min,  0.000 sec (  0.042%)

================
 final structure:
================
34
 xtb: 6.7.1-6.fc44.fc44
O           -1.88975143080000        2.21406954140000        0.42458661050000
C           -1.02721476060000        2.22510981100000       -0.57364264250000
O           -0.10936997430000        2.99591098740000       -0.62974881620000
H           -2.52717267450000        1.44555777920000        0.36354995340000
C           -1.29899635280000        1.18596449740000       -1.68020029330000
H           -0.57839312450000        1.33279891610000       -2.48350855050000
H           -2.31436974740000        1.36054786180000       -2.05825072190000
N           -1.19848049450000       -0.17845794170000       -1.20364858210000
H           -0.38281158540000       -0.72928520770000       -1.43935207790000
C           -2.05085041470000       -0.72595624100000       -0.33150476670000
O           -3.01744896400000       -0.13063785670000        0.13577121500000
C           -1.69200531450000       -2.14708375410000        0.07076915010000
H           -2.62696418720000       -2.66661299330000        0.34061904160000
N           -0.96505563160000       -2.79433214950000       -1.01075436430000
H           -0.65266831110000       -3.71400871890000       -0.71881035520000
H           -1.56604592810000       -2.91555097030000       -1.81941232100000
C           -0.80561338140000       -2.05056796310000        1.34107055880000
H           -0.25858553550000       -2.99008191730000        1.44762979320000
H           -1.45982514010000       -1.92884099070000        2.20523547860000
C            0.14083053420000       -0.89469483750000        1.29198978630000
C           -0.01439068450000        0.29268765550000        1.95014041590000
H           -0.78058394150000        0.58283379550000        2.64348976800000
N            0.99073938630000        1.15445221350000        1.61862897100000
H            1.04380166800000        2.11973574810000        1.89599080720000
C            1.80771279460000        0.55185598970000        0.70967091890000
C            2.93751499730000        1.03058612600000        0.05859915530000
H            3.29247274430000        2.03452817750000        0.23296201010000
C            3.57410615340000        0.18323356930000       -0.82106963750000
H            4.45358122130000        0.52302980540000       -1.34759244130000
C            3.10456908160000       -1.11435127590000       -1.04760202360000
H            3.63640267420000       -1.74825770970000       -1.74239097320000
C            1.98522751660000       -1.59531428870000       -0.40752673340000
H            1.62666417080000       -2.59555039860000       -0.59410835760000
C            1.31334759870000       -0.75721025450000        0.48448788280000

 Bond Distances (Angstroems)
 ---------------------------
O1-C2=1.3193         O1-H4=1.0003         C2-O1=1.3193         C2-O3=1.1999         C2-C5=1.5421         O3-C2=1.1999         
H4-O1=1.0003         C5-C2=1.5421         C5-H6=1.0891         C5-H7=1.0974         C5-N8=1.4487         H6-C5=1.0891         
H7-C5=1.0974         N8-C5=1.4487         N8-H9=1.0121         N8-C10=1.3368        H9-N8=1.0121         C10-N8=1.3368        
C10-O11=1.2276       C10-C12=1.5199       O11-C10=1.2276       C12-C10=1.5199       C12-H13=1.1031       C12-N14=1.4550       
C12-C17=1.5520       H13-C12=1.1031       N14-C12=1.4550       N14-H15=1.0142       N14-H16=1.0148       H15-N14=1.0142       
H16-N14=1.0148       C17-C12=1.5520       C17-H18=1.0924       C17-H19=1.0907       C17-C20=1.4947       H18-C17=1.0924       
H19-C17=1.0907       C20-C17=1.4947       C20-C21=1.3664       C20-C34=1.4303       C21-C20=1.3664       C21-H22=1.0733       
C21-N23=1.3649       H22-C21=1.0733       N23-C21=1.3649       N23-H24=1.0057       N23-C25=1.3626       H24-N23=1.0057       
C25-N23=1.3626       C25-C26=1.3891       C25-C34=1.4173       C26-C25=1.3891       C26-H27=1.0790       C26-C28=1.3773       
H27-C26=1.0790       C28-C26=1.3773       C28-H29=1.0799       C28-C30=1.3984       H29-C28=1.0799       C30-C28=1.3984       
C30-H31=1.0805       C30-C32=1.3762       H31-C30=1.0805       C32-C30=1.3762       C32-H33=1.0788       C32-C34=1.3963       
H33-C32=1.0788       C34-C20=1.4303       C34-C25=1.4173       C34-C32=1.3963       
 C  H  Rav=1.0864 sigma=0.0091  Rmin=1.0733  Rmax=1.1031    10
 C  C  Rav=1.4383 sigma=0.0662  Rmin=1.3664  Rmax=1.5520    12
 N  H  Rav=1.0117 sigma=0.0036  Rmin=1.0057  Rmax=1.0148     4
 N  C  Rav=1.3936 sigma=0.0486  Rmin=1.3368  Rmax=1.4550     5
 O  H  Rav=1.0003 sigma=0.0000  Rmin=1.0003  Rmax=1.0003     1
 O  C  Rav=1.2489 sigma=0.0510  Rmin=1.1999  Rmax=1.3193     3

 selected bond angles (degree)
 --------------------
H4-O1-C2=112.14                O3-C2-O1=122.74                C5-C2-O1=114.97                C5-C2-O3=122.29                
H6-C5-C2=108.77                H7-C5-C2=107.64                H7-C5-H6=109.67                N8-C5-C2=112.73                
N8-C5-H6=108.89                N8-C5-H7=109.11                H9-N8-C5=119.46                C10-N8-C5=123.79               
C10-N8-H9=116.29               O11-C10-N8=123.49              C12-C10-N8=113.90              C12-C10-O11=122.59             

 selected dihedral angles (degree)
 ---------------------------------
O3-C2-O1-H4=186.37            C5-C2-O1-H4=  7.35            H6-C5-C2-O1=175.74            H6-C5-C2-O3=356.71            
H7-C5-C2-O1= 56.98            H7-C5-C2-O3=237.95            N8-C5-C2-O1=296.61            N8-C5-C2-O3=117.57            
H9-N8-C5-C2=255.45            H9-N8-C5-H6= 16.25            H9-N8-C5-H7=135.92            C10-N8-C5-C2= 67.40           
C10-N8-C5-H6=188.20           C10-N8-C5-H7=307.87           O11-C10-N8-C5=  1.21          O11-C10-N8-H9=173.39          
C12-C10-N8-C5=183.11          C12-C10-N8-H9=355.30          
           -------------------------------------------------
          |                Final Singlepoint                |
           -------------------------------------------------

          ...................................................
          :                      SETUP                      :
          :.................................................:
          :  # basis functions                  91          :
          :  # atomic orbitals                  91          :
          :  # shells                           53          :
          :  # electrons                       100          :
          :  max. iterations                   250          :
          :  Hamiltonian                  GFN2-xTB          :
          :  restarted?                      false          :
          :  GBSA solvation                  false          :
          :  PC potential                    false          :
          :  electronic temp.          300.0000000     K    :
          :  accuracy                    1.0000000          :
          :  -> integral cutoff          0.2500000E+02      :
          :  -> integral neglect         0.1000000E-07      :
          :  -> SCF convergence          0.1000000E-05 Eh   :
          :  -> wf. convergence          0.1000000E-03 e    :
          :  Broyden damping             0.4000000          :
          :  net charge                          0          :
          :  unpaired electrons                  0          :
          ...................................................

 iter      E             dE          RMSdq      gap      omega  full diag
   1    -57.2412317 -0.572412E+02  0.113E-05    3.36       0.0  T
   2    -57.2412317 -0.561329E-12  0.797E-06    3.36    2151.7  T
   3    -57.2412317 -0.124345E-11  0.478E-06    3.36    3588.8  T

   *** convergence criteria satisfied after 3 iterations ***

         #    Occupation            Energy/Eh            Energy/eV
      -------------------------------------------------------------
         1        2.0000           -0.7391138             -20.1123
       ...           ...                  ...                  ...
        44        2.0000           -0.4204373             -11.4407
        45        2.0000           -0.4134007             -11.2492
        46        2.0000           -0.4115377             -11.1985
        47        2.0000           -0.4045345             -11.0079
        48        2.0000           -0.3942177             -10.7272
        49        2.0000           -0.3800873             -10.3427
        50        2.0000           -0.3617697              -9.8443 (HOMO)
        51                         -0.2382479              -6.4831 (LUMO)
        52                         -0.2319703              -6.3122
        53                         -0.2280135              -6.2046
        54                         -0.1955792              -5.3220
        55                         -0.1586512              -4.3171
       ...                                ...                  ...
        91                          0.7187505              19.5582
      -------------------------------------------------------------
                  HL-Gap            0.1235218 Eh            3.3612 eV
             Fermi-level           -0.3000088 Eh           -8.1637 eV

 SCC (total)                   0 d,  0 h,  0 min,  0.066 sec
 SCC setup                      ...        0 min,  0.001 sec (  1.330%)
 Dispersion                     ...        0 min,  0.010 sec ( 15.194%)
 classical contributions        ...        0 min,  0.007 sec ( 10.249%)
 integral evaluation            ...        0 min,  0.001 sec (  1.026%)
 iterations                     ...        0 min,  0.020 sec ( 30.262%)
 molecular gradient             ...        0 min,  0.027 sec ( 41.338%)
 printout                       ...        0 min,  0.000 sec (  0.578%)

         :::::::::::::::::::::::::::::::::::::::::::::::::::::
         ::                     SUMMARY                     ::
         :::::::::::::::::::::::::::::::::::::::::::::::::::::
         :: total energy             -56.484053647579 Eh    ::
         :: gradient norm              0.000043974417 Eh/a0 ::
         :: HOMO-LUMO gap              3.361199128709 eV    ::
         ::.................................................::
         :: SCC energy               -57.240164385527 Eh    ::
         :: -> isotropic ES            0.097772660207 Eh    ::
         :: -> anisotropic ES          0.003396391541 Eh    ::
         :: -> anisotropic XC          0.019423839106 Eh    ::
         :: -> dispersion             -0.041010206251 Eh    ::
         :: repulsion energy           0.756110737948 Eh    ::
         :: add. restraining           0.000000000000 Eh    ::
         :: total charge              -0.000000000000 e     ::
         :::::::::::::::::::::::::::::::::::::::::::::::::::::

           -------------------------------------------------
          |                Property Printout                |
           -------------------------------------------------

    * Orbital Energies and Occupations

         #    Occupation            Energy/Eh            Energy/eV
      -------------------------------------------------------------
         1        2.0000           -0.7391138             -20.1123
       ...           ...                  ...                  ...
        38        2.0000           -0.4685433             -12.7497
        39        2.0000           -0.4617696             -12.5654
        40        2.0000           -0.4527663             -12.3204
        41        2.0000           -0.4497043             -12.2371
        42        2.0000           -0.4483029             -12.1989
        43        2.0000           -0.4259833             -11.5916
        44        2.0000           -0.4204373             -11.4407
        45        2.0000           -0.4134007             -11.2492
        46        2.0000           -0.4115377             -11.1985
        47        2.0000           -0.4045345             -11.0079
        48        2.0000           -0.3942177             -10.7272
        49        2.0000           -0.3800873             -10.3427
        50        2.0000           -0.3617697              -9.8443 (HOMO)
        51                         -0.2382479              -6.4831 (LUMO)
        52                         -0.2319703              -6.3122
        53                         -0.2280135              -6.2046
        54                         -0.1955792              -5.3220
        55                         -0.1586512              -4.3171
        56                         -0.0703353              -1.9139
        57                         -0.0144600              -0.3935
        58                          0.0239033               0.6504
        59                          0.0310341               0.8445
        60                          0.0631232               1.7177
        61                          0.0789559               2.1485
       ...                                ...                  ...
        91                          0.7187505              19.5582
      -------------------------------------------------------------
                  HL-Gap            0.1235218 Eh            3.3612 eV
             Fermi-level           -0.3000088 Eh           -8.1637 eV

     #   Z          covCN         q      C6AA      α(0)
     1   8 O        1.654    -0.381    20.486     6.110
     2   6 C        2.685     0.358    20.919     7.485
     3   8 O        0.856    -0.385    21.385     6.200
     4   1 H        0.799     0.366     0.552     1.168
     5   6 C        3.737    -0.039    21.350     6.594
     6   1 H        0.925     0.078     2.000     2.212
     7   1 H        0.924     0.077     2.015     2.220
     8   7 N        2.688    -0.164    24.547     7.358
     9   1 H        0.860     0.212     1.045     1.601
    10   6 C        2.758     0.268    22.474     7.763
    11   8 O        0.858    -0.463    22.974     6.426
    12   6 C        3.787     0.033    20.027     6.374
    13   1 H        0.923     0.030     2.584     2.514
    14   7 N        2.633    -0.347    28.925     7.988
    15   1 H        0.860     0.151     1.392     1.848
    16   1 H        0.860     0.140     1.468     1.898
    17   6 C        3.809    -0.061    21.662     6.625
    18   1 H        0.924     0.051     2.313     2.378
    19   1 H        0.924     0.048     2.349     2.397
    20   6 C        3.055    -0.043    29.017     8.834
    21   6 C        3.039    -0.007    28.155     8.703
    22   1 H        0.926     0.038     2.472     2.459
    23   7 N        2.777    -0.098    23.163     7.148
    24   1 H        0.860     0.173     1.252     1.753
    25   6 C        3.093     0.046    26.866     8.495
    26   6 C        2.908    -0.049    29.210     8.862
    27   1 H        0.926     0.032     2.552     2.498
    28   6 C        2.924    -0.037    28.929     8.820
    29   1 H        0.926     0.028     2.617     2.530
    30   6 C        2.919    -0.045    29.106     8.847
    31   1 H        0.926     0.023     2.683     2.562
    32   6 C        2.911    -0.044    29.100     8.846
    33   1 H        0.926     0.032     2.561     2.502
    34   6 C        3.116    -0.024    28.435     8.735

 Mol. C6AA /au·bohr⁶  :      13332.950394
 Mol. C8AA /au·bohr⁸  :     312469.816690
 Mol. α(0) /au        :        178.752489


Wiberg/Mayer (AO) data.
largest (>0.10) Wiberg bond orders for each atom

 ---------------------------------------------------------------------------
     #   Z sym  total        # sym  WBO       # sym  WBO       # sym  WBO
 ---------------------------------------------------------------------------
     1   8 O    2.226 --     2 C    1.199     4 H    0.764     3 O    0.181
     2   6 C    3.930 --     3 O    1.768     1 O    1.199     5 C    0.928
     3   8 O    2.058 --     2 C    1.768     1 O    0.181
     4   1 H    0.866 --     1 O    0.764
     5   6 C    3.966 --     8 N    0.991     6 H    0.974     7 H    0.954
                             2 C    0.928
     6   1 H    0.994 --     5 C    0.974
     7   1 H    0.994 --     5 C    0.954
     8   7 N    3.479 --    10 C    1.310     5 C    0.991     9 H    0.911
                            11 O    0.191
     9   1 H    0.955 --     8 N    0.911
    10   6 C    3.947 --    11 O    1.600     8 N    1.310    12 C    0.954
    11   8 O    2.004 --    10 C    1.600     8 N    0.191
    12   6 C    3.983 --    14 N    1.016    13 H    0.955    10 C    0.954
                            17 C    0.951
    13   1 H    0.998 --    12 C    0.955
    14   7 N    3.017 --    12 C    1.016    16 H    0.965    15 H    0.959
    15   1 H    0.977 --    14 N    0.959
    16   1 H    0.980 --    14 N    0.965
    17   6 C    3.992 --    20 C    1.016    19 H    0.975    18 H    0.964
                            12 C    0.951
    18   1 H    0.997 --    17 C    0.964
    19   1 H    0.997 --    17 C    0.975
    20   6 C    3.972 --    21 C    1.574    34 C    1.204    17 C    1.016
    21   6 C    3.954 --    20 C    1.574    23 N    1.209    22 H    0.969
    22   1 H    0.998 --    21 C    0.969
    23   7 N    3.557 --    21 C    1.209    25 C    1.182    24 H    0.941
    24   1 H    0.969 --    23 N    0.941
    25   6 C    3.959 --    26 C    1.337    34 C    1.245    23 N    1.182
    26   6 C    3.990 --    28 C    1.497    25 C    1.337    27 H    0.968
                            32 C    0.113
    27   1 H    0.998 --    26 C    0.968
    28   6 C    3.991 --    26 C    1.497    30 C    1.369    29 H    0.972
    29   1 H    0.999 --    28 C    0.972
    30   6 C    3.991 --    32 C    1.506    28 C    1.369    31 H    0.972
    31   1 H    0.999 --    30 C    0.972
    32   6 C    3.992 --    30 C    1.506    34 C    1.326    33 H    0.967
                            26 C    0.113
    33   1 H    0.998 --    32 C    0.967
    34   6 C    3.984 --    32 C    1.326    25 C    1.245    20 C    1.204
 ---------------------------------------------------------------------------

Topologies differ in total number of bonds
Writing topology from bond orders to xtbtopo.mol

molecular dipole:
                 x           y           z       tot (Debye)
 q only:        0.128      -1.257      -0.410
   full:       -0.190      -1.701      -0.488       4.525
molecular quadrupole (traceless):
                xx          xy          yy          xz          yz          zz
 q only:       -6.986       2.640      -2.016       4.807       2.863       9.003
  q+dip:       -7.738       7.268       0.824       4.448       5.964       6.914
   full:       -8.063       6.211      -0.161       6.900       4.676       8.224

           -------------------------------------------------
          |                Geometry Summary                 |
           -------------------------------------------------

      molecular mass/u    :      261.2770023
   center of mass at/Å    :       -0.0000000       0.0000000       0.0000000
  moments of inertia/u·Å² :        0.9663063E+03   0.1208184E+04   0.1616016E+04
rotational constants/cm⁻¹ :        0.1744543E-01   0.1395287E-01   0.1043160E-01

 * 31 selected distances

     #   Z          #   Z                                           value/Å
     1   8 O        2   6 C                                       1.3193003
     2   6 C        3   8 O                                       1.1998840
     1   8 O        4   1 H                                       1.0003209 (min)
     5   6 C        6   1 H                                       1.0890977
     5   6 C        7   1 H                                       1.0974447
     5   6 C        8   7 N                                       1.4487422
     8   7 N        9   1 H                                       1.0120686
     8   7 N       10   6 C                                       1.3367588
    10   6 C       11   8 O                                       1.2276253
    12   6 C       13   1 H                                       1.1031219
    12   6 C       14   7 N                                       1.4550188 (max)
    14   7 N       15   1 H                                       1.0142102
    14   7 N       16   1 H                                       1.0147961
    17   6 C       18   1 H                                       1.0923740
    17   6 C       19   1 H                                       1.0906841
    20   6 C       21   6 C                                       1.3664309
    21   6 C       22   1 H                                       1.0732989
    21   6 C       23   7 N                                       1.3648534
    23   7 N       24   1 H                                       1.0057424
    23   7 N       25   6 C                                       1.3626345
    25   6 C       26   6 C                                       1.3890754
    26   6 C       27   1 H                                       1.0790261
    26   6 C       28   6 C                                       1.3773424
    28   6 C       29   1 H                                       1.0798909
    28   6 C       30   6 C                                       1.3983951
    30   6 C       31   1 H                                       1.0804704
    30   6 C       32   6 C                                       1.3762077
    32   6 C       33   1 H                                       1.0788201
    20   6 C       34   6 C                                       1.4303000
    25   6 C       34   6 C                                       1.4173070
    32   6 C       34   6 C                                       1.3962562

 * 6 distinct bonds (by element types)

   Z      Z             #   av. dist./Å        max./Å        min./Å
   1 H    6 C          10     1.0864229     1.1031219     1.0732989
   6 C    6 C           8     1.3939143     1.4303000     1.3664309
   1 H    7 N           4     1.0117043     1.0147961     1.0057424
   6 C    7 N           5     1.3936015     1.4550188     1.3367588
   1 H    8 O           1     1.0003209     1.0003209     1.0003209
   6 C    8 O           3     1.2489365     1.3193003     1.1998840


optimized geometry written to: xtbopt.xyz


           -------------------------------------------------
          | TOTAL ENERGY              -56.484053647579 Eh   |
          | GRADIENT NORM               0.000043974417 Eh/α |
          | HOMO-LUMO GAP               3.361199128709 eV   |
           -------------------------------------------------

------------------------------------------------------------------------
 * finished run on 2026/10/01 at 18:03:02.610     
------------------------------------------------------------------------
 total:
 * wall-time:     0 d,  0 h,  0 min,  1.105 sec
 *  cpu-time:     0 d,  0 h,  0 min, 15.087 sec
 * ratio c/w:    13.649 speedup
 SCF:
 * wall-time:     0 d,  0 h,  0 min,  0.828 sec
 *  cpu-time:     0 d,  0 h,  0 min, 11.359 sec
 * ratio c/w:    13.723 speedup
 ANC optimizer:
 * wall-time:     0 d,  0 h,  0 min,  0.239 sec
 *  cpu-time:     0 d,  0 h,  0 min,  3.213 sec
 * ratio c/w:    13.459 speedup


--- STDERR ---
normal termination of xtb
Note: The following floating-point exceptions are signalling: IEEE_UNDERFLOW_FLAG IEEE_DENORMAL
