34
frame_0029
O      -3.359171862100000      2.324438115500000     -0.072410310400000
C      -2.148289225200000      2.843978226000000     -0.082374306000000
O      -1.913041702100000      3.976806702100000      0.229447887300000
H      -3.356403366200000      1.360892747600000     -0.335114323600000
C      -1.036055379700000      1.887033845300000     -0.567004182800000
H      -0.085997920900000      2.418952752600000     -0.548407923400000
H      -1.277329133500000      1.603479560600000     -1.599957226900000
N      -0.919593540300000      0.684897005100000      0.241687769700000
H      -0.051478343700000      0.542853704400000      0.735189445300000
C      -1.790736491500000     -0.333842112600000      0.157007629100000
O      -2.858507586500000     -0.236406343700000     -0.440673041600000
C      -1.368140379600000     -1.625439130100000      0.851400171200000
H      -0.799148404600000     -1.375759115500000      1.752838490200000
N      -2.492130882700000     -2.453157235900000      1.233286929200000
H      -3.096046650500000     -2.590374647700000      0.427721748100000
H      -3.047315012400000     -1.994046568800000      1.947611324600000
C      -0.465803109100000     -2.422766676800000     -0.120514586800000
H      -1.081391657300000     -2.766726347100000     -0.953671499600000
H      -0.101005926900000     -3.298958329500000      0.417965981700000
C       0.668977621800000     -1.609479670600000     -0.643111670300000
C       0.839911332500000     -1.173059122800000     -1.924676665800000
H       0.233309365800000     -1.365530309600000     -2.788946697500000
N       1.964408858800000     -0.398363685900000     -2.017337961600000
H       2.321601861400000      0.012515290600000     -2.862595343800000
C       2.550557807000000     -0.319259900300000     -0.787738815300000
C       3.695351061300000      0.350680333300000     -0.373973138500000
H       4.288594770600000      0.922447492800000     -1.071947650000000
C       4.045218736300000      0.255008582300000      0.955233726500000
H       4.928879301500000      0.762534653000000      1.311259592600000
C       3.281631856200000     -0.494045820000000      1.855660723500000
H       3.596300812700000     -0.549377235300000      2.887038431500000
C       2.146612266000000     -1.160310485800000      1.452992696400000
H       1.572148357800000     -1.747339251600000      2.154183427700000
C       1.760032902300000     -1.073975771200000      0.113792968900000
