34
 energy: -56.478965994082 gnorm: 0.000127744450 xtb: 6.7.1-6.fc44.fc44
O           -3.35917186210000        2.32443811550000       -0.07241031040000
C           -2.14828922520000        2.84397822600000       -0.08237430600000
O           -1.91304170210000        3.97680670210000        0.22944788730000
H           -3.35640336620000        1.36089274760000       -0.33511432360000
C           -1.03605537970000        1.88703384530000       -0.56700418280000
H           -0.08599792090000        2.41895275260000       -0.54840792340000
H           -1.27732913350000        1.60347956060000       -1.59995722690000
N           -0.91959354030000        0.68489700510000        0.24168776970000
H           -0.05147834370000        0.54285370440000        0.73518944530000
C           -1.79073649150000       -0.33384211260000        0.15700762910000
O           -2.85850758650000       -0.23640634370000       -0.44067304160000
C           -1.36814037960000       -1.62543913010000        0.85140017120000
H           -0.79914840460000       -1.37575911550000        1.75283849020000
N           -2.49213088270000       -2.45315723590000        1.23328692920000
H           -3.09604665050000       -2.59037464770000        0.42772174810000
H           -3.04731501240000       -1.99404656880000        1.94761132460000
C           -0.46580310910000       -2.42276667680000       -0.12051458680000
H           -1.08139165730000       -2.76672634710000       -0.95367149960000
H           -0.10100592690000       -3.29895832950000        0.41796598170000
C            0.66897762180000       -1.60947967060000       -0.64311167030000
C            0.83991133250000       -1.17305912280000       -1.92467666580000
H            0.23330936580000       -1.36553030960000       -2.78894669750000
N            1.96440885880000       -0.39836368590000       -2.01733796160000
H            2.32160186140000        0.01251529060000       -2.86259534380000
C            2.55055780700000       -0.31925990030000       -0.78773881530000
C            3.69535106130000        0.35068033330000       -0.37397313850000
H            4.28859477060000        0.92244749280000       -1.07194765000000
C            4.04521873630000        0.25500858230000        0.95523372650000
H            4.92887930150000        0.76253465300000        1.31125959260000
C            3.28163185620000       -0.49404582000000        1.85566072350000
H            3.59630081270000       -0.54937723530000        2.88703843150000
C            2.14661226600000       -1.16031048580000        1.45299269640000
H            1.57214835780000       -1.74733925160000        2.15418342770000
C            1.76003290230000       -1.07397577120000        0.11379296890000
