34
frame_0025
O      -3.025749198700000      2.325256471200000     -0.763448467100000
C      -1.864335628800000      2.492516461200000     -1.362502886400000
O      -1.695329384500000      3.259105857900000     -2.268601396300000
H      -2.987490012900000      1.622320918400000     -0.052462701500000
C      -0.705438923200000      1.651175009800000     -0.783220929300000
H      -0.560517665100000      1.974724298000000      0.256460311100000
H       0.198564438400000      1.859811728500000     -1.353534937100000
N      -0.958397204800000      0.224732979300000     -0.810343446800000
H      -0.324476264300000     -0.375766223100000     -1.321770258700000
C      -1.800676865400000     -0.390460761400000      0.026029811600000
O      -2.604496835300000      0.205298573600000      0.735863009700000
C      -1.665306796000000     -1.906198346700000      0.039380603800000
H      -2.658549482500000     -2.329654842800000      0.263627346700000
N      -1.124947718600000     -2.360066242600000     -1.234057786600000
H      -0.960398782000000     -3.360690730000000     -1.204956724200000
H      -1.786982882000000     -2.180361449800000     -1.982294253100000
C      -0.706932002800000     -2.273077993800000      1.201131944700000
H      -0.274925608500000     -3.254705452500000      0.993089950500000
H      -1.290429062000000     -2.338033673200000      2.120105825600000
C       0.375381988000000     -1.261872035100000      1.400306243600000
C       0.439691518800000     -0.354203449600000      2.417244109000000
H      -0.228206560400000     -0.224771996400000      3.247263509700000
N       1.533162185200000      0.453564376600000      2.264291143200000
H       1.812144696600000      1.183523578500000      2.897016988200000
C       2.203671831500000      0.080856401200000      1.135601884500000
C       3.354961070600000      0.601221279300000      0.557964576900000
H       3.880180437200000      1.428828780700000      1.011422799100000
C       3.799444527000000      0.023342879500000     -0.611149013300000
H       4.690827232400000      0.402786434500000     -1.087753860300000
C       3.117436871000000     -1.048034457800000     -1.195430398600000
H       3.500131886700000     -1.471696205700000     -2.112263049600000
C       1.976710235800000     -1.569159494900000     -0.628171336700000
H       1.452165518700000     -2.391612054000000     -1.088711695800000
C       1.500891435500000     -1.003729481100000      0.556002565600000
