      -----------------------------------------------------------      
     |                   =====================                   |     
     |                           x T B                           |     
     |                   =====================                   |     
     |                         S. Grimme                         |     
     |          Mulliken Center for Theoretical Chemistry        |     
     |                    University of Bonn                     |     
      -----------------------------------------------------------      

   * xtb version 6.7.1-6.fc44.fc44 compiled by Fedora project on Sun Jan 18 23:32:34 UTC 2026

   xtb is free software: you can redistribute it and/or modify it under
   the terms of the GNU Lesser General Public License as published by
   the Free Software Foundation, either version 3 of the License, or
   (at your option) any later version.
   
   xtb is distributed in the hope that it will be useful,
   but WITHOUT ANY WARRANTY; without even the implied warranty of
   MERCHANTABILITY or FITNESS FOR A PARTICULAR PURPOSE.  See the
   GNU Lesser General Public License for more details.
   
   Cite this work as:
   * C. Bannwarth, E. Caldeweyher, S. Ehlert, A. Hansen, P. Pracht,
     J. Seibert, S. Spicher, S. Grimme, WIREs Comput. Mol. Sci., 2020, 11,
     e01493. DOI: 10.1002/wcms.1493
   
   for GFN2-xTB:
   * C. Bannwarth, S. Ehlert and S. Grimme., J. Chem. Theory Comput., 2019,
     15, 1652-1671. DOI: 10.1021/acs.jctc.8b01176
   for GFN1-xTB:
   * S. Grimme, C. Bannwarth, P. Shushkov, J. Chem. Theory Comput., 2017,
     13, 1989-2009. DOI: 10.1021/acs.jctc.7b00118
   for GFN0-xTB:
   * P. Pracht, E. Caldeweyher, S. Ehlert, S. Grimme, ChemRxiv, 2019, preprint.
     DOI: 10.26434/chemrxiv.8326202.v1
   for GFN-FF:
   * S. Spicher and S. Grimme, Angew. Chem. Int. Ed., 2020, 59, 15665-15673.
     DOI: 10.1002/anie.202004239
   
   for ALPB and GBSA implicit solvation:
   * S. Ehlert, M. Stahn, S. Spicher, S. Grimme, J. Chem. Theory Comput.,
     2021, 17, 4250-4261. DOI: 10.1021/acs.jctc.1c00471
   
   for ddCOSMO and CPCM-X implicit solvation:
   * M. Stahn, S. Ehlert, S. Grimme, J. Phys. Chem. A,
     2023, XX, XXXX-XXXX. DOI: 10.1021/acs.jpca.3c04382
   
   for DFT-D4:
   * E. Caldeweyher, C. Bannwarth and S. Grimme, J. Chem. Phys., 2017,
     147, 034112. DOI: 10.1063/1.4993215
   * E. Caldeweyher, S. Ehlert, A. Hansen, H. Neugebauer, S. Spicher,
     C. Bannwarth and S. Grimme, J. Chem. Phys., 2019, 150, 154122.
     DOI: 10.1063/1.5090222
   * E. Caldeweyher, J.-M. Mewes, S. Ehlert and S. Grimme, Phys. Chem. Chem. Phys.
     2020, 22, 8499-8512. DOI: 10.1039/D0CP00502A
   
   for sTDA-xTB:
   * S. Grimme and C. Bannwarth, J. Chem. Phys., 2016, 145, 054103.
     DOI: 10.1063/1.4959605
   
   in the mass-spec context:
   * V. Asgeirsson, C. Bauer and S. Grimme, Chem. Sci., 2017, 8, 4879.
     DOI: 10.1039/c7sc00601b
   * J. Koopman and S. Grimme, ACS Omega 2019, 4, 12, 15120-15133.
     DOI: 10.1021/acsomega.9b02011
   
   for metadynamics refer to:
   * S. Grimme, J. Chem. Theory Comput., 2019, 155, 2847-2862
     DOI: 10.1021/acs.jctc.9b00143
   
   for SPH calculations refer to:
   * S. Spicher and S. Grimme, J. Chem. Theory Comput., 2021, 17, 1701-1714
     DOI: 10.1021/acs.jctc.0c01306
   
   for ONIOM refer to:
   * C. Plett, A. Katbashev, S. Ehlert, S. Grimme, M. Bursch,
     Phys. Chem. Chem. Phys., 2023, 25, 17860-17868. DOI: 10.1039/D3CP02178E
   
   for DIPRO refer to:
   * J. Kohn, N. Gildemeister, S. Grimme, D. Fazzi, A. Hansen,
     J. Chem. Phys., 2023, just accepted.
   
   for PTB refer to:
   * S. Grimme, M. Mueller, A. Hansen, J. Chem. Phys., 2023, 158, 124111.
     DOI: 10.1063/5.0137838
   
   with help from (in alphabetical order)
   P. Atkinson, C. Bannwarth, F. Bohle, G. Brandenburg, E. Caldeweyher
   M. Checinski, S. Dohm, S. Ehlert, S. Ehrlich, I. Gerasimov, C. Hölzer
   A. Katbashev, J. Kohn, J. Koopman, C. Lavigne, S. Lehtola, F. März, M. Müller,
   F. Musil, H. Neugebauer, J. Pisarek, C. Plett, P. Pracht, F. Pultar,
   J. Seibert, P. Shushkov, S. Spicher, M. Stahn, M. Steiner, T. Strunk,
   J. Stückrath, T. Rose, and J. Unsleber
   
 * started run on 2026/10/01 at 18:03:21.164     
   ID    Z sym.   atoms
    1    8 O      1, 3, 11
    2    6 C      2, 5, 10, 12, 17, 20, 21, 25, 26, 28, 30, 32, 34
    3    1 H      4, 6, 7, 9, 13, 15, 16, 18, 19, 22, 24, 27, 29, 31, 33
    4    7 N      8, 14, 23

           -------------------------------------------------
          |                Calculation Setup                |
           -------------------------------------------------

          program call               : /usr/bin/xtb input.xyz --opt --gfn 2 --chrg 0 --uhf 0
          hostname                   : fedora
          coordinate file            : input.xyz
          omp threads                :                    16


           -------------------------------------------------
          |                 G F N 2 - x T B                 |
           -------------------------------------------------

        Reference                      10.1021/acs.jctc.8b01176
      * Hamiltonian:
        H0-scaling (s, p, d)           1.850000    2.230000    2.230000
        zeta-weighting                 0.500000
      * Dispersion:
        s8                             2.700000
        a1                             0.520000
        a2                             5.000000
        s9                             5.000000
      * Repulsion:
        kExp                           1.500000    1.000000
        rExp                           1.000000
      * Coulomb:
        alpha                          2.000000
        third order                    shell-resolved
        anisotropic                    true
        a3                             3.000000
        a5                             4.000000
        cn-shift                       1.200000
        cn-exp                         4.000000
        max-rad                        5.000000


          ...................................................
          :                      SETUP                      :
          :.................................................:
          :  # basis functions                  91          :
          :  # atomic orbitals                  91          :
          :  # shells                           53          :
          :  # electrons                       100          :
          :  max. iterations                   250          :
          :  Hamiltonian                  GFN2-xTB          :
          :  restarted?                      false          :
          :  GBSA solvation                  false          :
          :  PC potential                    false          :
          :  electronic temp.          300.0000000     K    :
          :  accuracy                    1.0000000          :
          :  -> integral cutoff          0.2500000E+02      :
          :  -> integral neglect         0.1000000E-07      :
          :  -> SCF convergence          0.1000000E-05 Eh   :
          :  -> wf. convergence          0.1000000E-03 e    :
          :  Broyden damping             0.4000000          :
          :  net charge                          0          :
          :  unpaired electrons                  0          :
          ...................................................

 iter      E             dE          RMSdq      gap      omega  full diag
   1    -57.0886339 -0.570886E+02  0.401E+00    3.17       0.0  T
   2    -57.2219046 -0.133271E+00  0.232E+00    3.57       1.0  T
   3    -57.2298993 -0.799470E-02  0.127E+00    3.65       1.0  T
   4    -57.2290777  0.821546E-03  0.475E-01    3.57       1.0  T
   5    -57.2361799 -0.710216E-02  0.118E-01    3.61       1.0  T
   6    -57.2363712 -0.191332E-03  0.582E-02    3.61       1.0  T
   7    -57.2364069 -0.356837E-04  0.255E-02    3.61       1.0  T
   8    -57.2364078 -0.865044E-06  0.110E-02    3.61       1.6  T
   9    -57.2364098 -0.202767E-05  0.340E-03    3.61       5.0  T
  10    -57.2364098 -0.492557E-07  0.150E-03    3.61      11.4  T
  11    -57.2364098 -0.171902E-07  0.625E-04    3.61      27.5  T
  12    -57.2364099 -0.410546E-08  0.216E-04    3.61      79.4  T

   *** convergence criteria satisfied after 12 iterations ***

         #    Occupation            Energy/Eh            Energy/eV
      -------------------------------------------------------------
         1        2.0000           -0.7332985             -19.9541
       ...           ...                  ...                  ...
        44        2.0000           -0.4258329             -11.5875
        45        2.0000           -0.4242427             -11.5442
        46        2.0000           -0.4180424             -11.3755
        47        2.0000           -0.4016338             -10.9290
        48        2.0000           -0.3975230             -10.8172
        49        2.0000           -0.3912880             -10.6475
        50        2.0000           -0.3727448             -10.1429 (HOMO)
        51                         -0.2400994              -6.5334 (LUMO)
        52                         -0.2343338              -6.3765
        53                         -0.2287637              -6.2250
        54                         -0.2065996              -5.6219
        55                         -0.1688681              -4.5951
       ...                                ...                  ...
        91                          0.7084264              19.2773
      -------------------------------------------------------------
                  HL-Gap            0.1326454 Eh            3.6095 eV
             Fermi-level           -0.3064221 Eh           -8.3382 eV

 SCC (total)                   0 d,  0 h,  0 min,  0.433 sec
 SCC setup                      ...        0 min,  0.005 sec (  1.256%)
 Dispersion                     ...        0 min,  0.011 sec (  2.464%)
 classical contributions        ...        0 min,  0.004 sec (  0.854%)
 integral evaluation            ...        0 min,  0.002 sec (  0.391%)
 iterations                     ...        0 min,  0.373 sec ( 86.169%)
 molecular gradient             ...        0 min,  0.038 sec (  8.741%)
 printout                       ...        0 min,  0.001 sec (  0.120%)

         :::::::::::::::::::::::::::::::::::::::::::::::::::::
         ::                     SUMMARY                     ::
         :::::::::::::::::::::::::::::::::::::::::::::::::::::
         :: total energy             -56.479352680977 Eh    ::
         :: gradient norm              0.000064066491 Eh/a0 ::
         :: HOMO-LUMO gap              3.609465190455 eV    ::
         ::.................................................::
         :: SCC energy               -57.235500881170 Eh    ::
         :: -> isotropic ES            0.097970701909 Eh    ::
         :: -> anisotropic ES          0.004167035283 Eh    ::
         :: -> anisotropic XC          0.019414149068 Eh    ::
         :: -> dispersion             -0.038301090219 Eh    ::
         :: repulsion energy           0.756148200193 Eh    ::
         :: add. restraining           0.000000000000 Eh    ::
         :: total charge               0.000000000000 e     ::
         :::::::::::::::::::::::::::::::::::::::::::::::::::::

      ----------------------------------------------------------- 
     |                   =====================                   |
     |                        A N C O P T                        |
     |                   =====================                   |
     |               Approximate Normal Coordinate               |
     |                Rational Function Optimizer                |
      ----------------------------------------------------------- 
      ----------------------------------------------------------- 
     |                   =====================                   |
     |                        A N C O P T                        |
     |                   =====================                   |
     |               Approximate Normal Coordinate               |
     |                Rational Function Optimizer                |
      ----------------------------------------------------------- 

          ...................................................
          :                      SETUP                      :
          :.................................................:
          :   optimization level            normal          :
          :   max. optcycles                   200          :
          :   ANC micro-cycles                  20          :
          :   degrees of freedom                96          :
          :.................................................:
          :   RF solver                   davidson          :
          :   write xtbopt.log                true          :
          :   linear?                        false          :
          :   energy convergence         0.5000000E-05 Eh   :
          :   grad. convergence          0.1000000E-02 Eh/α :
          :   maxmium RF displ.          1.0000000          :
          :   Hlow (freq-cutoff)         0.1000000E-01      :
          :   Hmax (freq-cutoff)         5.0000000          :
          :   S6 in model hess.         20.0000000          :
          ...................................................

generating ANC from exact Hessian ...
Using Lindh-Hessian (1995)
 Shifting diagonal of input Hessian by    9.5194353592089435E-003
 Lowest  eigenvalues of input Hessian
    0.000000    0.000000    0.000000    0.000000    0.000000    0.000000
    0.010000    0.010292    0.010778    0.011702    0.012411    0.014471
    0.017692    0.018385    0.019204    0.020899    0.022549    0.025609
 Highest eigenvalues
    2.000455    2.008586    2.097850    2.204004    2.314258    2.366881


........................................................................
.............................. CYCLE    1 ..............................
........................................................................

 iter      E             dE          RMSdq      gap      omega  full diag
   1    -57.2364099 -0.572364E+02  0.101E-04    3.61       0.0  T
   2    -57.2364099 -0.506546E-10  0.591E-05    3.61     290.4  T
   3    -57.2364099 -0.454037E-11  0.378E-05    3.61     453.9  T
     SCC iter.                  ...        0 min,  0.043 sec
     gradient                   ...        0 min,  0.005 sec
 * total energy  :   -56.4793527 Eh     change       -0.5827658E-09 Eh
   gradient norm :     0.0000647 Eh/α   predicted     0.0000000E+00 (-100.00%)
   displ. norm   :     0.0000970 α      lambda        0.0000000E+00
   maximum displ.:     0.0000319 α      in ANC's #80, #96, #41, ...

   *** GEOMETRY OPTIMIZATION CONVERGED AFTER 1 ITERATIONS ***

------------------------------------------------------------------------
 total energy gain   :        -0.0000000 Eh       -0.0000 kcal/mol
 total RMSD          :         0.0000000 a0        0.0000 Å
 total power (kW/mol):        -0.0000015 (step)   -0.0000 (real)
------------------------------------------------------------------------

 ANCopt (total)                0 d,  0 h,  0 min,  0.085 sec
 optimizer setup                ...        0 min,  0.000 sec (  0.264%)
 model hessian                  ...        0 min,  0.014 sec ( 15.977%)
 ANC generation                 ...        0 min,  0.017 sec ( 20.582%)
 coordinate transformation      ...        0 min,  0.000 sec (  0.023%)
 single point calculation       ...        0 min,  0.053 sec ( 62.379%)
 optimization log               ...        0 min,  0.000 sec (  0.139%)
 hessian update                 ...        0 min,  0.000 sec (  0.001%)
 rational function              ...        0 min,  0.000 sec (  0.124%)

================
 final structure:
================
34
 xtb: 6.7.1-6.fc44.fc44
O           -3.02574919870000        2.32525647120000       -0.76344846710000
C           -1.86433562880000        2.49251646120000       -1.36250288640000
O           -1.69532938450000        3.25910585790000       -2.26860139630000
H           -2.98749001290000        1.62232091840000       -0.05246270150000
C           -0.70543892320000        1.65117500980000       -0.78322092930000
H           -0.56051766510000        1.97472429800000        0.25646031110000
H            0.19856443840000        1.85981172850000       -1.35353493710000
N           -0.95839720480000        0.22473297930000       -0.81034344680000
H           -0.32447626430000       -0.37576622310000       -1.32177025870000
C           -1.80067686540000       -0.39046076140000        0.02602981160000
O           -2.60449683530000        0.20529857360000        0.73586300970000
C           -1.66530679600000       -1.90619834670000        0.03938060380000
H           -2.65854948250000       -2.32965484280000        0.26362734670000
N           -1.12494771860000       -2.36006624260000       -1.23405778660000
H           -0.96039878200000       -3.36069073000000       -1.20495672420000
H           -1.78698288200000       -2.18036144980000       -1.98229425310000
C           -0.70693200280000       -2.27307799380000        1.20113194470000
H           -0.27492560850000       -3.25470545250000        0.99308995050000
H           -1.29042906200000       -2.33803367320000        2.12010582560000
C            0.37538198800000       -1.26187203510000        1.40030624360000
C            0.43969151880000       -0.35420344960000        2.41724410900000
H           -0.22820656040000       -0.22477199640000        3.24726350970000
N            1.53316218520000        0.45356437660000        2.26429114320000
H            1.81214469660000        1.18352357850000        2.89701698820000
C            2.20367183150000        0.08085640120000        1.13560188450000
C            3.35496107060000        0.60122127930000        0.55796457690000
H            3.88018043720000        1.42882878070000        1.01142279910000
C            3.79944452700000        0.02334287950000       -0.61114901330000
H            4.69082723240000        0.40278643450000       -1.08775386030000
C            3.11743687100000       -1.04803445780000       -1.19543039860000
H            3.50013188670000       -1.47169620570000       -2.11226304960000
C            1.97671023580000       -1.56915949490000       -0.62817133670000
H            1.45216551870000       -2.39161205400000       -1.08871169580000
C            1.50089143550000       -1.00372948110000        0.55600256560000

 Bond Distances (Angstroems)
 ---------------------------
O1-C2=1.3175         O1-H4=1.0005         C2-O1=1.3175         C2-O3=1.1988         C2-C5=1.5448         O3-C2=1.1988         
H4-O1=1.0005         C5-C2=1.5448         C5-H6=1.0985         C5-H7=1.0890         C5-N8=1.4490         H6-C5=1.0985         
H7-C5=1.0890         N8-C5=1.4490         N8-H9=1.0119         N8-C10=1.3369        H9-N8=1.0119         C10-N8=1.3369        
C10-O11=1.2268       C10-C12=1.5218       O11-C10=1.2268       C12-C10=1.5218       C12-H13=1.1028       C12-N14=1.4559       
C12-C17=1.5501       H13-C12=1.1028       N14-C12=1.4559       N14-H15=1.0145       N14-H16=1.0151       H15-N14=1.0145       
H16-N14=1.0151       C17-C12=1.5501       C17-H18=1.0925       C17-H19=1.0905       C17-C20=1.4945       H18-C17=1.0925       
H19-C17=1.0905       C20-C17=1.4945       C20-C21=1.3646       C20-C34=1.4305       C21-C20=1.3646       C21-H22=1.0732       
C21-N23=1.3681       H22-C21=1.0732       N23-C21=1.3681       N23-H24=1.0055       N23-C25=1.3647       H24-N23=1.0055       
C25-N23=1.3647       C25-C26=1.3892       C25-C34=1.4164       C26-C25=1.3892       C26-H27=1.0800       C26-C28=1.3778       
H27-C26=1.0800       C28-C26=1.3778       C28-H29=1.0797       C28-C30=1.3980       H29-C28=1.0797       C30-C28=1.3980       
C30-H31=1.0801       C30-C32=1.3764       H31-C30=1.0801       C32-C30=1.3764       C32-H33=1.0787       C32-C34=1.3958       
H33-C32=1.0787       C34-C20=1.4305       C34-C25=1.4164       C34-C32=1.3958       
 C  H  Rav=1.0865 sigma=0.0091  Rmin=1.0732  Rmax=1.1028    10
 C  C  Rav=1.4383 sigma=0.0666  Rmin=1.3646  Rmax=1.5501    12
 N  H  Rav=1.0118 sigma=0.0038  Rmin=1.0055  Rmax=1.0151     4
 N  C  Rav=1.3949 sigma=0.0482  Rmin=1.3369  Rmax=1.4559     5
 O  H  Rav=1.0005 sigma=0.0000  Rmin=1.0005  Rmax=1.0005     1
 O  C  Rav=1.2477 sigma=0.0506  Rmin=1.1988  Rmax=1.3175     3

 selected bond angles (degree)
 --------------------
H4-O1-C2=112.25                O3-C2-O1=123.31                C5-C2-O1=114.94                C5-C2-O3=121.73                
H6-C5-C2=107.07                H7-C5-C2=108.78                H7-C5-H6=109.25                N8-C5-C2=113.46                
N8-C5-H6=109.31                N8-C5-H7=108.89                H9-N8-C5=118.97                C10-N8-C5=123.45               
C10-N8-H9=115.96               O11-C10-N8=123.46              C12-C10-N8=114.06              C12-C10-O11=122.47             

 selected dihedral angles (degree)
 ---------------------------------
O3-C2-O1-H4=177.94            C5-C2-O1-H4=356.22            H6-C5-C2-O1=297.51            H6-C5-C2-O3=115.82            
H7-C5-C2-O1=179.56            H7-C5-C2-O3=357.86            N8-C5-C2-O1= 58.20            N8-C5-C2-O3=236.51            
H9-N8-C5-C2=120.79            H9-N8-C5-H6=240.20            H9-N8-C5-H7=359.49            C10-N8-C5-C2=285.69           
C10-N8-C5-H6= 45.10           C10-N8-C5-H7=164.39           O11-C10-N8-C5= 12.91          O11-C10-N8-H9=178.23          
C12-C10-N8-C5=193.73          C12-C10-N8-H9=359.05          
           -------------------------------------------------
          |                Final Singlepoint                |
           -------------------------------------------------

          ...................................................
          :                      SETUP                      :
          :.................................................:
          :  # basis functions                  91          :
          :  # atomic orbitals                  91          :
          :  # shells                           53          :
          :  # electrons                       100          :
          :  max. iterations                   250          :
          :  Hamiltonian                  GFN2-xTB          :
          :  restarted?                      false          :
          :  GBSA solvation                  false          :
          :  PC potential                    false          :
          :  electronic temp.          300.0000000     K    :
          :  accuracy                    1.0000000          :
          :  -> integral cutoff          0.2500000E+02      :
          :  -> integral neglect         0.1000000E-07      :
          :  -> SCF convergence          0.1000000E-05 Eh   :
          :  -> wf. convergence          0.1000000E-03 e    :
          :  Broyden damping             0.4000000          :
          :  net charge                          0          :
          :  unpaired electrons                  0          :
          ...................................................

 iter      E             dE          RMSdq      gap      omega  full diag
   1    -57.2364099 -0.572364E+02  0.117E-05    3.61       0.0  T
   2    -57.2364099 -0.895284E-12  0.831E-06    3.61    2062.6  T
   3    -57.2364099 -0.129319E-11  0.482E-06    3.61    3556.1  T

   *** convergence criteria satisfied after 3 iterations ***

         #    Occupation            Energy/Eh            Energy/eV
      -------------------------------------------------------------
         1        2.0000           -0.7332999             -19.9541
       ...           ...                  ...                  ...
        44        2.0000           -0.4258329             -11.5875
        45        2.0000           -0.4242425             -11.5442
        46        2.0000           -0.4180426             -11.3755
        47        2.0000           -0.4016339             -10.9290
        48        2.0000           -0.3975235             -10.8172
        49        2.0000           -0.3912878             -10.6475
        50        2.0000           -0.3727447             -10.1429 (HOMO)
        51                         -0.2400991              -6.5334 (LUMO)
        52                         -0.2343338              -6.3765
        53                         -0.2287648              -6.2250
        54                         -0.2065993              -5.6219
        55                         -0.1688680              -4.5951
       ...                                ...                  ...
        91                          0.7084263              19.2773
      -------------------------------------------------------------
                  HL-Gap            0.1326455 Eh            3.6095 eV
             Fermi-level           -0.3064219 Eh           -8.3382 eV

 SCC (total)                   0 d,  0 h,  0 min,  0.199 sec
 SCC setup                      ...        0 min,  0.000 sec (  0.230%)
 Dispersion                     ...        0 min,  0.009 sec (  4.695%)
 classical contributions        ...        0 min,  0.006 sec (  3.052%)
 integral evaluation            ...        0 min,  0.012 sec (  5.857%)
 iterations                     ...        0 min,  0.142 sec ( 71.426%)
 molecular gradient             ...        0 min,  0.029 sec ( 14.509%)
 printout                       ...        0 min,  0.000 sec (  0.196%)

         :::::::::::::::::::::::::::::::::::::::::::::::::::::
         ::                     SUMMARY                     ::
         :::::::::::::::::::::::::::::::::::::::::::::::::::::
         :: total energy             -56.479352681584 Eh    ::
         :: gradient norm              0.000064561868 Eh/a0 ::
         :: HOMO-LUMO gap              3.609468890237 eV    ::
         ::.................................................::
         :: SCC energy               -57.235500881777 Eh    ::
         :: -> isotropic ES            0.097969823387 Eh    ::
         :: -> anisotropic ES          0.004167257181 Eh    ::
         :: -> anisotropic XC          0.019414022210 Eh    ::
         :: -> dispersion             -0.038301110941 Eh    ::
         :: repulsion energy           0.756148200193 Eh    ::
         :: add. restraining           0.000000000000 Eh    ::
         :: total charge               0.000000000000 e     ::
         :::::::::::::::::::::::::::::::::::::::::::::::::::::

           -------------------------------------------------
          |                Property Printout                |
           -------------------------------------------------

    * Orbital Energies and Occupations

         #    Occupation            Energy/Eh            Energy/eV
      -------------------------------------------------------------
         1        2.0000           -0.7332999             -19.9541
       ...           ...                  ...                  ...
        38        2.0000           -0.4691166             -12.7653
        39        2.0000           -0.4637384             -12.6190
        40        2.0000           -0.4619297             -12.5697
        41        2.0000           -0.4591542             -12.4942
        42        2.0000           -0.4445092             -12.0957
        43        2.0000           -0.4351798             -11.8418
        44        2.0000           -0.4258329             -11.5875
        45        2.0000           -0.4242425             -11.5442
        46        2.0000           -0.4180426             -11.3755
        47        2.0000           -0.4016339             -10.9290
        48        2.0000           -0.3975235             -10.8172
        49        2.0000           -0.3912878             -10.6475
        50        2.0000           -0.3727447             -10.1429 (HOMO)
        51                         -0.2400991              -6.5334 (LUMO)
        52                         -0.2343338              -6.3765
        53                         -0.2287648              -6.2250
        54                         -0.2065993              -5.6219
        55                         -0.1688680              -4.5951
        56                         -0.0810738              -2.2061
        57                         -0.0167783              -0.4566
        58                          0.0118408               0.3222
        59                          0.0212891               0.5793
        60                          0.0580139               1.5786
        61                          0.0837090               2.2778
       ...                                ...                  ...
        91                          0.7084263              19.2773
      -------------------------------------------------------------
                  HL-Gap            0.1326455 Eh            3.6095 eV
             Fermi-level           -0.3064219 Eh           -8.3382 eV

     #   Z          covCN         q      C6AA      α(0)
     1   8 O        1.654    -0.377    20.402     6.098
     2   6 C        2.684     0.358    20.916     7.484
     3   8 O        0.856    -0.379    21.266     6.183
     4   1 H        0.799     0.365     0.555     1.171
     5   6 C        3.737    -0.037    21.316     6.588
     6   1 H        0.923     0.069     2.099     2.266
     7   1 H        0.925     0.077     2.006     2.215
     8   7 N        2.687    -0.166    24.582     7.364
     9   1 H        0.860     0.211     1.050     1.605
    10   6 C        2.758     0.269    22.465     7.762
    11   8 O        0.859    -0.458    22.881     6.413
    12   6 C        3.786     0.034    20.021     6.373
    13   1 H        0.923     0.031     2.575     2.509
    14   7 N        2.633    -0.348    28.958     7.992
    15   1 H        0.860     0.152     1.391     1.847
    16   1 H        0.860     0.143     1.448     1.885
    17   6 C        3.809    -0.061    21.660     6.625
    18   1 H        0.924     0.052     2.295     2.369
    19   1 H        0.924     0.049     2.330     2.387
    20   6 C        3.054    -0.036    28.841     8.807
    21   6 C        3.035    -0.007    28.158     8.704
    22   1 H        0.926     0.036     2.501     2.473
    23   7 N        2.777    -0.105    23.305     7.170
    24   1 H        0.860     0.160     1.334     1.809
    25   6 C        3.088     0.043    26.947     8.509
    26   6 C        2.908    -0.054    29.330     8.880
    27   1 H        0.926     0.025     2.654     2.548
    28   6 C        2.924    -0.037    28.910     8.818
    29   1 H        0.926     0.030     2.584     2.514
    30   6 C        2.920    -0.043    29.068     8.841
    31   1 H        0.926     0.028     2.620     2.531
    32   6 C        2.911    -0.043    29.072     8.841
    33   1 H        0.926     0.038     2.473     2.459
    34   6 C        3.116    -0.021    28.359     8.723

 Mol. C6AA /au·bohr⁶  :      13333.753793
 Mol. C8AA /au·bohr⁸  :     312438.135645
 Mol. α(0) /au        :        178.763801


Wiberg/Mayer (AO) data.
largest (>0.10) Wiberg bond orders for each atom

 ---------------------------------------------------------------------------
     #   Z sym  total        # sym  WBO       # sym  WBO       # sym  WBO
 ---------------------------------------------------------------------------
     1   8 O    2.232 --     2 C    1.202     4 H    0.765     3 O    0.183
     2   6 C    3.932 --     3 O    1.772     1 O    1.202     5 C    0.926
     3   8 O    2.063 --     2 C    1.772     1 O    0.183
     4   1 H    0.867 --     1 O    0.765
     5   6 C    3.965 --     8 N    0.991     7 H    0.974     6 H    0.952
                             2 C    0.926
     6   1 H    0.995 --     5 C    0.952
     7   1 H    0.994 --     5 C    0.974
     8   7 N    3.475 --    10 C    1.309     5 C    0.991     9 H    0.911
                            11 O    0.192
     9   1 H    0.955 --     8 N    0.911
    10   6 C    3.948 --    11 O    1.606     8 N    1.309    12 C    0.952
    11   8 O    2.014 --    10 C    1.606     8 N    0.192
    12   6 C    3.983 --    14 N    1.016    13 H    0.956    17 C    0.954
                            10 C    0.952
    13   1 H    0.998 --    12 C    0.956
    14   7 N    3.019 --    12 C    1.016    16 H    0.964    15 H    0.959
    15   1 H    0.977 --    14 N    0.959
    16   1 H    0.979 --    14 N    0.964
    17   6 C    3.992 --    20 C    1.016    19 H    0.975    18 H    0.963
                            12 C    0.954
    18   1 H    0.997 --    17 C    0.963
    19   1 H    0.997 --    17 C    0.975
    20   6 C    3.975 --    21 C    1.583    34 C    1.202    17 C    1.016
    21   6 C    3.952 --    20 C    1.583    23 N    1.197    22 H    0.969
    22   1 H    0.998 --    21 C    0.969
    23   7 N    3.543 --    21 C    1.197    25 C    1.175    24 H    0.947
    24   1 H    0.974 --    23 N    0.947
    25   6 C    3.958 --    26 C    1.338    34 C    1.248    23 N    1.175
    26   6 C    3.989 --    28 C    1.494    25 C    1.338    27 H    0.968
                            32 C    0.113
    27   1 H    0.999 --    26 C    0.968
    28   6 C    3.991 --    26 C    1.494    30 C    1.371    29 H    0.972
    29   1 H    0.999 --    28 C    0.972
    30   6 C    3.991 --    32 C    1.505    28 C    1.371    31 H    0.972
    31   1 H    0.999 --    30 C    0.972
    32   6 C    3.992 --    30 C    1.505    34 C    1.328    33 H    0.966
                            26 C    0.113
    33   1 H    0.998 --    32 C    0.966
    34   6 C    3.984 --    32 C    1.328    25 C    1.248    20 C    1.202
 ---------------------------------------------------------------------------

Topologies differ in total number of bonds
Writing topology from bond orders to xtbtopo.mol

molecular dipole:
                 x           y           z       tot (Debye)
 q only:        1.253      -1.519       0.827
   full:        1.283      -1.979       1.162       6.683
molecular quadrupole (traceless):
                xx          xy          yy          xz          yz          zz
 q only:       -5.086      14.649      -0.600      -0.604      14.571       5.686
  q+dip:       -5.773      23.455      -1.042      -1.080      22.119       6.815
   full:       -6.161      22.147      -0.636       0.795      21.009       6.796

           -------------------------------------------------
          |                Geometry Summary                 |
           -------------------------------------------------

      molecular mass/u    :      261.2770023
   center of mass at/Å    :        0.0000000       0.0000000      -0.0000000
  moments of inertia/u·Å² :        0.9699707E+03   0.1626702E+04   0.1918257E+04
rotational constants/cm⁻¹ :        0.1737953E-01   0.1036307E-01   0.8787993E-02

 * 31 selected distances

     #   Z          #   Z                                           value/Å
     1   8 O        2   6 C                                       1.3174687
     2   6 C        3   8 O                                       1.1988483
     1   8 O        4   1 H                                       1.0005414 (min)
     5   6 C        6   1 H                                       1.0984642
     5   6 C        7   1 H                                       1.0890407
     5   6 C        8   7 N                                       1.4489516
     8   7 N        9   1 H                                       1.0119351
     8   7 N       10   6 C                                       1.3369439
    10   6 C       11   8 O                                       1.2267515
    12   6 C       13   1 H                                       1.1027843
    12   6 C       14   7 N                                       1.4558948 (max)
    14   7 N       15   1 H                                       1.0144815
    14   7 N       16   1 H                                       1.0151071
    17   6 C       18   1 H                                       1.0924759
    17   6 C       19   1 H                                       1.0905051
    20   6 C       21   6 C                                       1.3646102
    21   6 C       22   1 H                                       1.0732068
    21   6 C       23   7 N                                       1.3680504
    23   7 N       24   1 H                                       1.0054919
    23   7 N       25   6 C                                       1.3647103
    25   6 C       26   6 C                                       1.3892126
    26   6 C       27   1 H                                       1.0800065
    26   6 C       28   6 C                                       1.3778011
    28   6 C       29   1 H                                       1.0796726
    28   6 C       30   6 C                                       1.3979875
    30   6 C       31   1 H                                       1.0800588
    30   6 C       32   6 C                                       1.3764490
    32   6 C       33   1 H                                       1.0787368
    20   6 C       34   6 C                                       1.4304748
    25   6 C       34   6 C                                       1.4163907
    32   6 C       34   6 C                                       1.3958448

 * 6 distinct bonds (by element types)

   Z      Z             #   av. dist./Å        max./Å        min./Å
   1 H    6 C          10     1.0864952     1.1027843     1.0732068
   6 C    6 C           8     1.3935963     1.4304748     1.3646102
   1 H    7 N           4     1.0117539     1.0151071     1.0054919
   6 C    7 N           5     1.3949102     1.4558948     1.3369439
   1 H    8 O           1     1.0005414     1.0005414     1.0005414
   6 C    8 O           3     1.2476895     1.3174687     1.1988483


optimized geometry written to: xtbopt.xyz


           -------------------------------------------------
          | TOTAL ENERGY              -56.479352681584 Eh   |
          | GRADIENT NORM               0.000064561868 Eh/α |
          | HOMO-LUMO GAP               3.609468890237 eV   |
           -------------------------------------------------

------------------------------------------------------------------------
 * finished run on 2026/10/01 at 18:03:21.908     
------------------------------------------------------------------------
 total:
 * wall-time:     0 d,  0 h,  0 min,  0.743 sec
 *  cpu-time:     0 d,  0 h,  0 min, 10.162 sec
 * ratio c/w:    13.670 speedup
 SCF:
 * wall-time:     0 d,  0 h,  0 min,  0.434 sec
 *  cpu-time:     0 d,  0 h,  0 min,  6.094 sec
 * ratio c/w:    14.050 speedup
 ANC optimizer:
 * wall-time:     0 d,  0 h,  0 min,  0.286 sec
 *  cpu-time:     0 d,  0 h,  0 min,  3.729 sec
 * ratio c/w:    13.044 speedup


--- STDERR ---
normal termination of xtb
Note: The following floating-point exceptions are signalling: IEEE_UNDERFLOW_FLAG IEEE_DENORMAL
