68
frame_0001
O       1.037904030000000     -0.510890629300000      1.549302687300000
O       0.906779001500000     -0.827933803000000     -1.498888006300000
O      -3.118281188200000     -2.555165126700000      0.246240070000000
O      -3.232550155200000      3.185346768700000      0.098393357400000
O      -1.232866967200000      1.640305510500000     -1.431472664200000
O       2.248622829300000      2.936598520600000      1.216722914100000
N       0.426958625300000     -2.653488667200000     -0.316674097700000
N      -2.157582074900000     -0.894808864200000     -0.946263805900000
N      -3.756945758100000      1.018030935500000      0.234362160600000
N      -0.567819087600000      2.391422351300000      0.589044057900000
N       1.940835604000000      1.729588251100000     -0.668255955500000
N       3.048121382400000     -0.498175834600000      0.554551336000000
C       1.875116461600000     -1.077450393000000      0.868235475600000
C       1.671678753800000     -2.531011500800000      0.432566074300000
C       1.436311774600000     -3.436146525000000      1.641824236800000
C       0.584537798900000     -4.559091725100000      1.059303268900000
C      -0.335309870300000     -3.827815538500000      0.081532640200000
C       0.100563829700000     -1.704586150000000     -1.198382803400000
C      -1.318036344200000     -1.736987767600000     -1.779455413800000
C      -1.321562010100000     -1.196158352900000     -3.203669043200000
C      -2.979396132100000     -1.369703647100000     -0.009904988400000
C      -3.774747527600000     -0.314068019000000      0.790162452900000
C      -5.221904695300000     -0.789279644900000      0.920901854800000
C      -2.952227183500000      2.074757326100000      0.493675357800000
C      -1.683433854200000      1.819022081300000      1.320526157800000
C      -1.808605629600000      2.506471061200000      2.674346373400000
C      -0.406731925000000      2.192302917400000     -0.720284594700000
C       0.963148701000000      2.643170010800000     -1.240960774500000
C       1.031686210300000      2.582424149200000     -2.757357047500000
C       2.436663595600000      1.923928590000000      0.562817940300000
C       3.358189836100000      0.817908924600000      1.086814960500000
C       4.805087411700000      1.059622800600000      0.649344829700000
C       4.885185400400000      0.303112546200000     -0.673583640200000
C       4.034389817700000     -0.941231606800000     -0.415049338600000
H       2.508120774300000     -2.891046968500000     -0.175581954900000
H       2.367180413200000     -3.786428242600000      2.083256175700000
H       0.870312644700000     -2.877935521100000      2.389123627000000
H       1.218772981400000     -5.270062066000000      0.526881841000000
H       0.023513072700000     -5.096044926300000      1.820338186800000
H      -0.564156799800000     -4.443784341300000     -0.792585150500000
H      -1.276239087900000     -3.535689909600000      0.555051338100000
H      -2.025612067600000      0.110967541200000     -1.082119901400000
H      -1.724858230200000     -2.751113234100000     -1.737215224300000
H      -0.997090826400000     -0.158913683900000     -3.189877994900000
H      -2.324019630100000     -1.247704626200000     -3.619687969100000
H      -0.644634529500000     -1.773357387800000     -3.828468003100000
H      -4.534860792800000      1.244604111600000     -0.371799785500000
H      -3.327034368600000     -0.297115143100000      1.791432995700000
H      -5.774349521700000     -0.147909009700000      1.602864074800000
H      -5.230247003800000     -1.808491067400000      1.296835050500000
H      -5.709137526500000     -0.778460668400000     -0.052012873400000
H       0.177249818800000      2.820366894400000      1.124479015800000
H      -1.493337991300000      0.746314407400000      1.449712071600000
H      -2.613283119900000      2.058254889100000      3.252305250400000
H      -2.028695132400000      3.561189224200000      2.526378235800000
H      -0.878675985400000      2.405042934500000      3.228947550400000
H       1.889063576900000      0.788268455700000     -1.045435121500000
H       1.186856355700000      3.647477026300000     -0.866104183800000
H       2.000450549100000      2.927623211300000     -3.109169089500000
H       0.250829064700000      3.204925264900000     -3.184351691700000
H       0.874738823800000      1.557055700400000     -3.083342426400000
H       3.243885199800000      0.815515954800000      2.175952431800000
H       5.491653235400000      0.628088284100000      1.378686324500000
H       5.022972023700000      2.120491527600000      0.548298187200000
H       5.906377055100000      0.049939112500000     -0.950640860900000
H       4.442217162500000      0.899993878900000     -1.470385574000000
H       3.546899939100000     -1.295840941700000     -1.325858062900000
H       4.645673311500000     -1.747988287600000      0.008213761800000
