68
 energy: -106.574032345779 gnorm: 0.000100231098 xtb: 6.7.1-6.fc44.fc44
O            1.03790403000000       -0.51089062930000        1.54930268730000
O            0.90677900150000       -0.82793380300000       -1.49888800630000
O           -3.11828118820000       -2.55516512670000        0.24624007000000
O           -3.23255015520000        3.18534676870000        0.09839335740000
O           -1.23286696720000        1.64030551050000       -1.43147266420000
O            2.24862282930000        2.93659852060000        1.21672291410000
N            0.42695862530000       -2.65348866720000       -0.31667409770000
N           -2.15758207490000       -0.89480886420000       -0.94626380590000
N           -3.75694575810000        1.01803093550000        0.23436216060000
N           -0.56781908760000        2.39142235130000        0.58904405790000
N            1.94083560400000        1.72958825110000       -0.66825595550000
N            3.04812138240000       -0.49817583460000        0.55455133600000
C            1.87511646160000       -1.07745039300000        0.86823547560000
C            1.67167875380000       -2.53101150080000        0.43256607430000
C            1.43631177460000       -3.43614652500000        1.64182423680000
C            0.58453779890000       -4.55909172510000        1.05930326890000
C           -0.33530987030000       -3.82781553850000        0.08153264020000
C            0.10056382970000       -1.70458615000000       -1.19838280340000
C           -1.31803634420000       -1.73698776760000       -1.77945541380000
C           -1.32156201010000       -1.19615835290000       -3.20366904320000
C           -2.97939613210000       -1.36970364710000       -0.00990498840000
C           -3.77474752760000       -0.31406801900000        0.79016245290000
C           -5.22190469530000       -0.78927964490000        0.92090185480000
C           -2.95222718350000        2.07475732610000        0.49367535780000
C           -1.68343385420000        1.81902208130000        1.32052615780000
C           -1.80860562960000        2.50647106120000        2.67434637340000
C           -0.40673192500000        2.19230291740000       -0.72028459470000
C            0.96314870100000        2.64317001080000       -1.24096077450000
C            1.03168621030000        2.58242414920000       -2.75735704750000
C            2.43666359560000        1.92392859000000        0.56281794030000
C            3.35818983610000        0.81790892460000        1.08681496050000
C            4.80508741170000        1.05962280060000        0.64934482970000
C            4.88518540040000        0.30311254620000       -0.67358364020000
C            4.03438981770000       -0.94123160680000       -0.41504933860000
H            2.50812077430000       -2.89104696850000       -0.17558195490000
H            2.36718041320000       -3.78642824260000        2.08325617570000
H            0.87031264470000       -2.87793552110000        2.38912362700000
H            1.21877298140000       -5.27006206600000        0.52688184100000
H            0.02351307270000       -5.09604492630000        1.82033818680000
H           -0.56415679980000       -4.44378434130000       -0.79258515050000
H           -1.27623908790000       -3.53568990960000        0.55505133810000
H           -2.02561206760000        0.11096754120000       -1.08211990140000
H           -1.72485823020000       -2.75111323410000       -1.73721522430000
H           -0.99709082640000       -0.15891368390000       -3.18987799490000
H           -2.32401963010000       -1.24770462620000       -3.61968796910000
H           -0.64463452950000       -1.77335738780000       -3.82846800310000
H           -4.53486079280000        1.24460411160000       -0.37179978550000
H           -3.32703436860000       -0.29711514310000        1.79143299570000
H           -5.77434952170000       -0.14790900970000        1.60286407480000
H           -5.23024700380000       -1.80849106740000        1.29683505050000
H           -5.70913752650000       -0.77846066840000       -0.05201287340000
H            0.17724981880000        2.82036689440000        1.12447901580000
H           -1.49333799130000        0.74631440740000        1.44971207160000
H           -2.61328311990000        2.05825488910000        3.25230525040000
H           -2.02869513240000        3.56118922420000        2.52637823580000
H           -0.87867598540000        2.40504293450000        3.22894755040000
H            1.88906357690000        0.78826845570000       -1.04543512150000
H            1.18685635570000        3.64747702630000       -0.86610418380000
H            2.00045054910000        2.92762321130000       -3.10916908950000
H            0.25082906470000        3.20492526490000       -3.18435169170000
H            0.87473882380000        1.55705570040000       -3.08334242640000
H            3.24388519980000        0.81551595480000        2.17595243180000
H            5.49165323540000        0.62808828410000        1.37868632450000
H            5.02297202370000        2.12049152760000        0.54829818720000
H            5.90637705510000        0.04993911250000       -0.95064086090000
H            4.44221716250000        0.89999387890000       -1.47038557400000
H            3.54689993910000       -1.29584094170000       -1.32585806290000
H            4.64567331150000       -1.74798828760000        0.00821376180000
