34
frame_0052
O      -2.345503296764662      3.180261613005909     -0.263665985638445
C      -3.459829207031377      2.621931867841573      0.108568261714513
O      -4.093523665287877      3.334572835849320      0.713452937432643
H      -1.774890145490093      2.014890014766785     -0.837979820518804
C      -3.925913907230496      1.183761161850985     -0.386544699140266
H      -3.921819224847398      0.933672994430844     -1.327011306075903
H      -4.852601404812881      0.978870105473310      0.183308386337890
N      -3.076032860442601      0.267269153645147      0.148546739245979
H      -3.271413772526079     -0.572244944065653      0.811882758060184
C      -1.725098968287773     -0.093997142645347     -0.475748746555257
O      -1.142494173734705      0.751327854181407     -1.262202964177407
C      -1.237235919028115     -1.191189381041734      0.336498676569378
H      -0.492443534760182     -1.214216916747457      1.199217275985394
N      -2.149308261925208     -2.247686404672422      0.392287295654148
H      -1.502555905927591     -2.934402288987114      1.161265555289817
H      -2.757272582219986     -2.752490188389090     -0.051266302563616
C      -0.044019543287549     -1.930906714179968     -1.089306121544596
H      -0.470511200401326     -1.813385109327475     -1.863695490092323
H       0.307038121681968     -2.911570121023198     -0.627627509709176
C       1.166687550012922     -1.259004723090951     -0.772502534712445
C       1.684867207795590     -0.216415053182050     -1.796487780846634
H       1.088158633672940      0.087128211344307     -2.759986421528001
N       2.880933874792440      0.270429086915709     -1.465239034595670
H       3.225617706611974      1.150436228149019     -1.778349561419605
C       3.174599765471791     -0.259515428783273     -0.282148840129470
C       4.316497896514210     -0.041134515297251      0.685054086972407
H       5.089188299066844      0.738433145579525      0.316351563522267
C       4.454895407465945     -0.713428106661262      1.591555725189938
H       5.257751149126229     -0.463343943621377      2.423157821306142
C       3.456596953546862     -1.720464449717221      2.102178573804407
H       3.539001424343755     -2.179264042356833      2.986140356383168
C       2.328824890276847     -1.894681158233667      1.372884336816748
H       1.784633635937313     -2.527365171247028      1.638090446945874
C       2.115010928060941     -1.178069607290671      0.047592409205188
