      -----------------------------------------------------------      
     |                   =====================                   |     
     |                           x T B                           |     
     |                   =====================                   |     
     |                         S. Grimme                         |     
     |          Mulliken Center for Theoretical Chemistry        |     
     |                    University of Bonn                     |     
      -----------------------------------------------------------      

   * xtb version 6.7.1-6.fc44.fc44 compiled by Fedora project on Sun Jan 18 23:32:34 UTC 2026

   xtb is free software: you can redistribute it and/or modify it under
   the terms of the GNU Lesser General Public License as published by
   the Free Software Foundation, either version 3 of the License, or
   (at your option) any later version.
   
   xtb is distributed in the hope that it will be useful,
   but WITHOUT ANY WARRANTY; without even the implied warranty of
   MERCHANTABILITY or FITNESS FOR A PARTICULAR PURPOSE.  See the
   GNU Lesser General Public License for more details.
   
   Cite this work as:
   * C. Bannwarth, E. Caldeweyher, S. Ehlert, A. Hansen, P. Pracht,
     J. Seibert, S. Spicher, S. Grimme, WIREs Comput. Mol. Sci., 2020, 11,
     e01493. DOI: 10.1002/wcms.1493
   
   for GFN2-xTB:
   * C. Bannwarth, S. Ehlert and S. Grimme., J. Chem. Theory Comput., 2019,
     15, 1652-1671. DOI: 10.1021/acs.jctc.8b01176
   for GFN1-xTB:
   * S. Grimme, C. Bannwarth, P. Shushkov, J. Chem. Theory Comput., 2017,
     13, 1989-2009. DOI: 10.1021/acs.jctc.7b00118
   for GFN0-xTB:
   * P. Pracht, E. Caldeweyher, S. Ehlert, S. Grimme, ChemRxiv, 2019, preprint.
     DOI: 10.26434/chemrxiv.8326202.v1
   for GFN-FF:
   * S. Spicher and S. Grimme, Angew. Chem. Int. Ed., 2020, 59, 15665-15673.
     DOI: 10.1002/anie.202004239
   
   for ALPB and GBSA implicit solvation:
   * S. Ehlert, M. Stahn, S. Spicher, S. Grimme, J. Chem. Theory Comput.,
     2021, 17, 4250-4261. DOI: 10.1021/acs.jctc.1c00471
   
   for ddCOSMO and CPCM-X implicit solvation:
   * M. Stahn, S. Ehlert, S. Grimme, J. Phys. Chem. A,
     2023, XX, XXXX-XXXX. DOI: 10.1021/acs.jpca.3c04382
   
   for DFT-D4:
   * E. Caldeweyher, C. Bannwarth and S. Grimme, J. Chem. Phys., 2017,
     147, 034112. DOI: 10.1063/1.4993215
   * E. Caldeweyher, S. Ehlert, A. Hansen, H. Neugebauer, S. Spicher,
     C. Bannwarth and S. Grimme, J. Chem. Phys., 2019, 150, 154122.
     DOI: 10.1063/1.5090222
   * E. Caldeweyher, J.-M. Mewes, S. Ehlert and S. Grimme, Phys. Chem. Chem. Phys.
     2020, 22, 8499-8512. DOI: 10.1039/D0CP00502A
   
   for sTDA-xTB:
   * S. Grimme and C. Bannwarth, J. Chem. Phys., 2016, 145, 054103.
     DOI: 10.1063/1.4959605
   
   in the mass-spec context:
   * V. Asgeirsson, C. Bauer and S. Grimme, Chem. Sci., 2017, 8, 4879.
     DOI: 10.1039/c7sc00601b
   * J. Koopman and S. Grimme, ACS Omega 2019, 4, 12, 15120-15133.
     DOI: 10.1021/acsomega.9b02011
   
   for metadynamics refer to:
   * S. Grimme, J. Chem. Theory Comput., 2019, 155, 2847-2862
     DOI: 10.1021/acs.jctc.9b00143
   
   for SPH calculations refer to:
   * S. Spicher and S. Grimme, J. Chem. Theory Comput., 2021, 17, 1701-1714
     DOI: 10.1021/acs.jctc.0c01306
   
   for ONIOM refer to:
   * C. Plett, A. Katbashev, S. Ehlert, S. Grimme, M. Bursch,
     Phys. Chem. Chem. Phys., 2023, 25, 17860-17868. DOI: 10.1039/D3CP02178E
   
   for DIPRO refer to:
   * J. Kohn, N. Gildemeister, S. Grimme, D. Fazzi, A. Hansen,
     J. Chem. Phys., 2023, just accepted.
   
   for PTB refer to:
   * S. Grimme, M. Mueller, A. Hansen, J. Chem. Phys., 2023, 158, 124111.
     DOI: 10.1063/5.0137838
   
   with help from (in alphabetical order)
   P. Atkinson, C. Bannwarth, F. Bohle, G. Brandenburg, E. Caldeweyher
   M. Checinski, S. Dohm, S. Ehlert, S. Ehrlich, I. Gerasimov, C. Hölzer
   A. Katbashev, J. Kohn, J. Koopman, C. Lavigne, S. Lehtola, F. März, M. Müller,
   F. Musil, H. Neugebauer, J. Pisarek, C. Plett, P. Pracht, F. Pultar,
   J. Seibert, P. Shushkov, S. Spicher, M. Stahn, M. Steiner, T. Strunk,
   J. Stückrath, T. Rose, and J. Unsleber
   
 * started run on 2026/10/01 at 18:04:21.902     
   ID    Z sym.   atoms
    1    8 O      1, 3, 11
    2    6 C      2, 5, 10, 12, 17, 20, 21, 25, 26, 28, 30, 32, 34
    3    1 H      4, 6, 7, 9, 13, 15, 16, 18, 19, 22, 24, 27, 29, 31, 33
    4    7 N      8, 14, 23

           -------------------------------------------------
          |                Calculation Setup                |
           -------------------------------------------------

          program call               : /usr/bin/xtb input.xyz --opt --gfn 2 --chrg 0 --uhf 0
          hostname                   : fedora
          coordinate file            : input.xyz
          omp threads                :                    16


molecular fragmentation (1/2 indicates fragments):
1112111111111111222222222222222222
# atoms in fragment 1/2:    15    19
 fragment masses (1/2) :      130.10      131.17
CMA distance (Bohr)    :  10.180
constraining FC (au)   :  0.0500

           -------------------------------------------------
          |                 G F N 2 - x T B                 |
           -------------------------------------------------

        Reference                      10.1021/acs.jctc.8b01176
      * Hamiltonian:
        H0-scaling (s, p, d)           1.850000    2.230000    2.230000
        zeta-weighting                 0.500000
      * Dispersion:
        s8                             2.700000
        a1                             0.520000
        a2                             5.000000
        s9                             5.000000
      * Repulsion:
        kExp                           1.500000    1.000000
        rExp                           1.000000
      * Coulomb:
        alpha                          2.000000
        third order                    shell-resolved
        anisotropic                    true
        a3                             3.000000
        a5                             4.000000
        cn-shift                       1.200000
        cn-exp                         4.000000
        max-rad                        5.000000


          ...................................................
          :                      SETUP                      :
          :.................................................:
          :  # basis functions                  91          :
          :  # atomic orbitals                  91          :
          :  # shells                           53          :
          :  # electrons                       100          :
          :  max. iterations                   250          :
          :  Hamiltonian                  GFN2-xTB          :
          :  restarted?                      false          :
          :  GBSA solvation                  false          :
          :  PC potential                    false          :
          :  electronic temp.          300.0000000     K    :
          :  accuracy                    1.0000000          :
          :  -> integral cutoff          0.2500000E+02      :
          :  -> integral neglect         0.1000000E-07      :
          :  -> SCF convergence          0.1000000E-05 Eh   :
          :  -> wf. convergence          0.1000000E-03 e    :
          :  Broyden damping             0.4000000          :
          :  net charge                          0          :
          :  unpaired electrons                  0          :
          ...................................................

 iter      E             dE          RMSdq      gap      omega  full diag
   1    -56.7602435 -0.567602E+02  0.427E+00    1.80       0.0  T
   2    -56.9057041 -0.145461E+00  0.273E+00    0.92       1.0  T
   3    -56.9400611 -0.343570E-01  0.166E+00    1.60       1.0  T
   4    -56.9454017 -0.534053E-02  0.103E+00    1.13       1.0  T
   5    -56.9746388 -0.292372E-01  0.226E-01    1.23       1.0  T
   6    -56.9758300 -0.119119E-02  0.110E-01    1.19       1.0  T
   7    -56.9760631 -0.233088E-03  0.455E-02    1.21       1.0  T
   8    -56.9760847 -0.216202E-04  0.204E-02    1.20       1.0  T
   9    -56.9760865 -0.179540E-05  0.633E-03    1.21       2.7  T
  10    -56.9760874 -0.823706E-06  0.333E-03    1.21       5.1  T
  11    -56.9760875 -0.129503E-06  0.130E-03    1.21      13.2  T
  12    -56.9760875 -0.143163E-07  0.611E-04    1.21      28.1  T
  13    -56.9760875 -0.897895E-08  0.246E-04    1.21      69.7  T

   *** convergence criteria satisfied after 13 iterations ***

         #    Occupation            Energy/Eh            Energy/eV
      -------------------------------------------------------------
         1        2.0000           -0.7224317             -19.6584
       ...           ...                  ...                  ...
        44        2.0000           -0.4191633             -11.4060
        45        2.0000           -0.4056546             -11.0384
        46        2.0000           -0.4031275             -10.9697
        47        2.0000           -0.3922003             -10.6723
        48        2.0000           -0.3823054             -10.4031
        49        2.0000           -0.3717842             -10.1168
        50        2.0000           -0.3427492              -9.3267 (HOMO)
        51                         -0.2984450              -8.1211 (LUMO)
        52                         -0.2343859              -6.3780
        53                         -0.2107423              -5.7346
        54                         -0.2057873              -5.5998
        55                         -0.1807846              -4.9194
       ...                                ...                  ...
        91                          1.4810288              40.3008
      -------------------------------------------------------------
                  HL-Gap            0.0443042 Eh            1.2056 eV
             Fermi-level           -0.3205971 Eh           -8.7239 eV

 SCC (total)                   0 d,  0 h,  0 min,  0.578 sec
 SCC setup                      ...        0 min,  0.005 sec (  0.818%)
 Dispersion                     ...        0 min,  0.010 sec (  1.719%)
 classical contributions        ...        0 min,  0.005 sec (  0.860%)
 integral evaluation            ...        0 min,  0.016 sec (  2.850%)
 iterations                     ...        0 min,  0.519 sec ( 89.861%)
 molecular gradient             ...        0 min,  0.022 sec (  3.793%)
 printout                       ...        0 min,  0.001 sec (  0.094%)

         :::::::::::::::::::::::::::::::::::::::::::::::::::::
         ::                     SUMMARY                     ::
         :::::::::::::::::::::::::::::::::::::::::::::::::::::
         :: total energy             -55.973123600942 Eh    ::
         :: gradient norm              1.021096545999 Eh/a0 ::
         :: HOMO-LUMO gap              1.205577646549 eV    ::
         ::.................................................::
         :: SCC energy               -56.975719776257 Eh    ::
         :: -> isotropic ES            0.103414173503 Eh    ::
         :: -> anisotropic ES          0.006373897624 Eh    ::
         :: -> anisotropic XC          0.019437206360 Eh    ::
         :: -> dispersion             -0.034546294459 Eh    ::
         :: repulsion energy           1.002596175315 Eh    ::
         :: add. restraining           0.000000000000 Eh    ::
         :: total charge               0.000000000000 e     ::
         :::::::::::::::::::::::::::::::::::::::::::::::::::::

      ----------------------------------------------------------- 
     |                   =====================                   |
     |                        A N C O P T                        |
     |                   =====================                   |
     |               Approximate Normal Coordinate               |
     |                Rational Function Optimizer                |
      ----------------------------------------------------------- 
      ----------------------------------------------------------- 
     |                   =====================                   |
     |                        A N C O P T                        |
     |                   =====================                   |
     |               Approximate Normal Coordinate               |
     |                Rational Function Optimizer                |
      ----------------------------------------------------------- 

          ...................................................
          :                      SETUP                      :
          :.................................................:
          :   optimization level            normal          :
          :   max. optcycles                   200          :
          :   ANC micro-cycles                  20          :
          :   degrees of freedom                96          :
          :.................................................:
          :   RF solver                   davidson          :
          :   write xtbopt.log                true          :
          :   linear?                        false          :
          :   energy convergence         0.5000000E-05 Eh   :
          :   grad. convergence          0.1000000E-02 Eh/α :
          :   maxmium RF displ.          1.0000000          :
          :   Hlow (freq-cutoff)         0.1000000E-01      :
          :   Hmax (freq-cutoff)         5.0000000          :
          :   S6 in model hess.         20.0000000          :
          ...................................................

generating ANC from exact Hessian ...
Using Lindh-Hessian (1995)
 Shifting diagonal of input Hessian by    9.8561923335707801E-003
 Lowest  eigenvalues of input Hessian
    0.000000    0.000000    0.000000    0.000000    0.000000    0.000000
    0.010000    0.010369    0.010474    0.011012    0.011942    0.012255
    0.013488    0.015641    0.015879    0.018488    0.018831    0.021125
 Highest eigenvalues
    2.030411    2.085783    2.095641    2.411955    2.573735    2.690943


........................................................................
.............................. CYCLE    1 ..............................
........................................................................

 iter      E             dE          RMSdq      gap      omega  full diag
   1    -56.9760875 -0.569761E+02  0.112E-04    1.21       0.0  T
   2    -56.9760875 -0.559766E-10  0.668E-05    1.21     256.7  T
   3    -56.9760875 -0.330118E-10  0.483E-05    1.21     354.8  T
     SCC iter.                  ...        0 min,  0.185 sec
     gradient                   ...        0 min,  0.021 sec
 * total energy  :   -55.9731236 Eh     change       -0.6916068E-09 Eh
   gradient norm :     1.0210955 Eh/α   predicted     0.0000000E+00 (-100.00%)
   displ. norm   :     0.5171965 α      lambda       -0.4673397E+00
   maximum displ.:     0.1915220 α      in ANC's #96, #92, #72, ...

........................................................................
.............................. CYCLE    2 ..............................
........................................................................

 iter      E             dE          RMSdq      gap      omega  full diag
   1    -57.0522881 -0.570523E+02  0.619E-01    1.88       0.0  T
   2    -57.0561379 -0.384978E-02  0.360E-01    1.67       1.0  T
   3    -57.0567574 -0.619559E-03  0.217E-01    1.68       1.0  T
   4    -57.0568725 -0.115014E-03  0.944E-02    1.66       1.0  T
   5    -57.0570973 -0.224888E-03  0.297E-02    1.64       1.0  T
   6    -57.0571216 -0.242740E-04  0.122E-02    1.65       1.4  T
   7    -57.0571229 -0.125924E-05  0.535E-03    1.65       3.2  T
   8    -57.0571232 -0.287424E-06  0.187E-03    1.65       9.2  T
   9    -57.0571232 -0.293440E-07  0.823E-04    1.65      20.8  T
  10    -57.0571232 -0.951060E-08  0.397E-04    1.65      43.2  T
     SCC iter.                  ...        0 min,  0.231 sec
     gradient                   ...        0 min,  0.028 sec
 * total energy  :   -56.2891732 Eh     change       -0.3160496E+00 Eh
   gradient norm :     0.4064309 Eh/α   predicted    -0.2961904E+00 (  -6.28%)
   displ. norm   :     0.5749854 α      lambda       -0.1983550E+00
   maximum displ.:     0.1788073 α      in ANC's #46, #58, #51, ...

........................................................................
.............................. CYCLE    3 ..............................
........................................................................

 iter      E             dE          RMSdq      gap      omega  full diag
   1    -57.1814068 -0.571814E+02  0.643E-01    2.79       0.0  T
   2    -57.1835378 -0.213097E-02  0.358E-01    2.70       1.0  T
   3    -57.1835980 -0.602235E-04  0.184E-01    2.71       1.0  T
   4    -57.1837264 -0.128411E-03  0.562E-02    2.68       1.0  T
   5    -57.1838106 -0.842000E-04  0.177E-02    2.68       1.0  T
   6    -57.1838122 -0.153013E-05  0.979E-03    2.68       1.8  T
   7    -57.1838130 -0.804444E-06  0.376E-03    2.68       4.6  T
   8    -57.1838132 -0.237544E-06  0.171E-03    2.68      10.0  T
   9    -57.1838132 -0.301846E-07  0.741E-04    2.68      23.1  T
  10    -57.1838132 -0.405074E-08  0.246E-04    2.68      69.8  T
     SCC iter.                  ...        0 min,  0.141 sec
     gradient                   ...        0 min,  0.029 sec
 * total energy  :   -56.4324602 Eh     change       -0.1432870E+00 Eh
   gradient norm :     0.1589992 Eh/α   predicted    -0.1319665E+00 (  -7.90%)
   displ. norm   :     0.5142935 α      lambda       -0.6927820E-01
   maximum displ.:     0.2241392 α      in ANC's #58, #51, #39, ...

........................................................................
.............................. CYCLE    4 ..............................
........................................................................

 iter      E             dE          RMSdq      gap      omega  full diag
   1    -57.2262374 -0.572262E+02  0.501E-01    3.37       0.0  T
   2    -57.2269616 -0.724197E-03  0.289E-01    3.39       1.0  T
   3    -57.2269536  0.803603E-05  0.114E-01    3.43       1.0  T
   4    -57.2270411 -0.875287E-04  0.376E-02    3.41       1.0  T
   5    -57.2270762 -0.350853E-04  0.166E-02    3.41       1.0  T
   6    -57.2270773 -0.111837E-05  0.692E-03    3.41       2.5  T
   7    -57.2270781 -0.753440E-06  0.297E-03    3.41       5.8  T
   8    -57.2270781 -0.786580E-07  0.132E-03    3.41      13.0  T
   9    -57.2270782 -0.194263E-07  0.522E-04    3.41      32.8  T
  10    -57.2270782 -0.128576E-08  0.195E-04    3.41      88.1  T
     SCC iter.                  ...        0 min,  0.386 sec
     gradient                   ...        0 min,  0.005 sec
 * total energy  :   -56.4649218 Eh     change       -0.3246161E-01 Eh
   gradient norm :     0.0790247 Eh/α   predicted    -0.4380107E-01 (  34.93%)
   displ. norm   :     0.3440375 α      lambda       -0.1530985E-01
   maximum displ.:     0.1234089 α      in ANC's #33, #23, #22, ...

........................................................................
.............................. CYCLE    5 ..............................
........................................................................

 iter      E             dE          RMSdq      gap      omega  full diag
   1    -57.2167404 -0.572167E+02  0.236E-01    3.34       0.0  T
   2    -57.2168374 -0.969706E-04  0.141E-01    3.34       1.0  T
   3    -57.2168044  0.329697E-04  0.466E-02    3.35       1.0  T
   4    -57.2168435 -0.390639E-04  0.164E-02    3.34       1.0  T
   5    -57.2168524 -0.895168E-05  0.414E-03    3.34       4.1  T
   6    -57.2168526 -0.190553E-06  0.195E-03    3.34       8.8  T
   7    -57.2168526 -0.159466E-07  0.603E-04    3.34      28.5  T
   8    -57.2168526 -0.186934E-08  0.195E-04    3.34      87.8  T
     SCC iter.                  ...        0 min,  0.176 sec
     gradient                   ...        0 min,  0.028 sec
 * total energy  :   -56.4721422 Eh     change       -0.7220389E-02 Eh
   gradient norm :     0.0426687 Eh/α   predicted    -0.8560999E-02 (  18.57%)
   displ. norm   :     0.2328658 α      lambda       -0.4360499E-02
   maximum displ.:     0.0684360 α      in ANC's #22, #6, #9, ...

........................................................................
.............................. CYCLE    6 ..............................
........................................................................

 iter      E             dE          RMSdq      gap      omega  full diag
   1    -57.2190340 -0.572190E+02  0.155E-01    3.31       0.0  T
   2    -57.2190891 -0.551151E-04  0.922E-02    3.31       1.0  T
   3    -57.2190822  0.690614E-05  0.319E-02    3.32       1.0  T
   4    -57.2190912 -0.896716E-05  0.116E-02    3.32       1.5  T
   5    -57.2190957 -0.449974E-05  0.311E-03    3.32       5.5  T
   6    -57.2190958 -0.677608E-07  0.113E-03    3.32      15.2  T
   7    -57.2190958 -0.944630E-08  0.453E-04    3.32      37.9  T
   8    -57.2190958 -0.150403E-08  0.180E-04    3.32      95.2  T
     SCC iter.                  ...        0 min,  0.580 sec
     gradient                   ...        0 min,  0.040 sec
 * total energy  :   -56.4746756 Eh     change       -0.2533383E-02 Eh
   gradient norm :     0.0303375 Eh/α   predicted    -0.2298483E-02 (  -9.27%)
   displ. norm   :     0.2298258 α      lambda       -0.2689369E-02
   maximum displ.:     0.0851216 α      in ANC's #6, #9, #2, ...

........................................................................
.............................. CYCLE    7 ..............................
........................................................................

 iter      E             dE          RMSdq      gap      omega  full diag
   1    -57.2254480 -0.572254E+02  0.143E-01    3.36       0.0  T
   2    -57.2254658 -0.177595E-04  0.839E-02    3.38       1.0  T
   3    -57.2254650  0.758847E-06  0.158E-02    3.39       1.1  T
   4    -57.2254692 -0.411216E-05  0.602E-03    3.39       2.8  T
   5    -57.2254695 -0.356071E-06  0.284E-03    3.39       6.0  T
   6    -57.2254696 -0.102327E-06  0.133E-03    3.39      12.9  T
   7    -57.2254696 -0.156915E-07  0.540E-04    3.39      31.8  T
   8    -57.2254696 -0.410903E-08  0.226E-04    3.39      75.8  T
     SCC iter.                  ...        0 min,  0.319 sec
     gradient                   ...        0 min,  0.048 sec
 * total energy  :   -56.4757743 Eh     change       -0.1098693E-02 Eh
   gradient norm :     0.0234036 Eh/α   predicted    -0.1415712E-02 (  28.85%)
   displ. norm   :     0.1495786 α      lambda       -0.1463463E-02
   maximum displ.:     0.0691600 α      in ANC's #19, #11, #7, ...

........................................................................
.............................. CYCLE    8 ..............................
........................................................................

 iter      E             dE          RMSdq      gap      omega  full diag
   1    -57.2334770 -0.572335E+02  0.109E-01    3.41       0.0  T
   2    -57.2335135 -0.365195E-04  0.636E-02    3.42       1.0  T
   3    -57.2335127  0.775262E-06  0.235E-02    3.42       1.0  T
   4    -57.2335165 -0.377644E-05  0.431E-03    3.42       4.0  T
   5    -57.2335172 -0.710476E-06  0.172E-03    3.42      10.0  T
   6    -57.2335172 -0.206880E-07  0.851E-04    3.42      20.1  T
   7    -57.2335173 -0.903456E-08  0.309E-04    3.42      55.4  T
     SCC iter.                  ...        0 min,  0.593 sec
     gradient                   ...        0 min,  0.002 sec
 * total energy  :   -56.4763802 Eh     change       -0.6059541E-03 Eh
   gradient norm :     0.0126180 Eh/α   predicted    -0.7481078E-03 (  23.46%)
   displ. norm   :     0.0955398 α      lambda       -0.5192683E-03
   maximum displ.:     0.0378833 α      in ANC's #11, #9, #16, ...

........................................................................
.............................. CYCLE    9 ..............................
........................................................................

 iter      E             dE          RMSdq      gap      omega  full diag
   1    -57.2351235 -0.572351E+02  0.614E-02    3.41       0.0  T
   2    -57.2351273 -0.386928E-05  0.355E-02    3.40       1.0  T
   3    -57.2351266  0.753797E-06  0.875E-03    3.40       2.0  T
   4    -57.2351280 -0.142024E-05  0.239E-03    3.39       7.2  T
   5    -57.2351280 -0.592812E-07  0.141E-03    3.40      12.2  T
   6    -57.2351281 -0.313946E-07  0.618E-04    3.40      27.8  T
   7    -57.2351281 -0.291268E-08  0.179E-04    3.40      96.0  T
     SCC iter.                  ...        0 min,  0.062 sec
     gradient                   ...        0 min,  0.006 sec
 * total energy  :   -56.4766208 Eh     change       -0.2405686E-03 Eh
   gradient norm :     0.0096791 Eh/α   predicted    -0.2620078E-03 (   8.91%)
   displ. norm   :     0.0622651 α      lambda       -0.2614740E-03
   maximum displ.:     0.0267678 α      in ANC's #12, #8, #4, ...

........................................................................
.............................. CYCLE   10 ..............................
........................................................................

 iter      E             dE          RMSdq      gap      omega  full diag
   1    -57.2336015 -0.572336E+02  0.470E-02    3.39       0.0  T
   2    -57.2336076 -0.613952E-05  0.267E-02    3.39       1.0  T
   3    -57.2336062  0.142768E-05  0.128E-02    3.39       1.3  T
   4    -57.2336084 -0.221143E-05  0.407E-03    3.39       4.2  T
   5    -57.2336089 -0.518204E-06  0.990E-04    3.39      17.3  T
   6    -57.2336089 -0.667134E-08  0.443E-04    3.39      38.7  T
     SCC iter.                  ...        0 min,  0.164 sec
     gradient                   ...        0 min,  0.053 sec
 * total energy  :   -56.4767530 Eh     change       -0.1321738E-03 Eh
   gradient norm :     0.0069051 Eh/α   predicted    -0.1312470E-03 (  -0.70%)
   displ. norm   :     0.0717527 α      lambda       -0.1528335E-03
   maximum displ.:     0.0296469 α      in ANC's #5, #12, #13, ...

........................................................................
.............................. CYCLE   11 ..............................
........................................................................

 iter      E             dE          RMSdq      gap      omega  full diag
   1    -57.2332871 -0.572333E+02  0.352E-02    3.39       0.0  T
   2    -57.2332887 -0.161142E-05  0.205E-02    3.39       1.0  T
   3    -57.2332884  0.241448E-06  0.499E-03    3.39       3.4  T
   4    -57.2332888 -0.387422E-06  0.207E-03    3.39       8.3  T
   5    -57.2332889 -0.111875E-06  0.868E-04    3.39      19.8  T
   6    -57.2332889 -0.409504E-08  0.388E-04    3.39      44.2  T
     SCC iter.                  ...        0 min,  0.834 sec
     gradient                   ...        0 min,  0.005 sec
 * total energy  :   -56.4768247 Eh     change       -0.7174055E-04 Eh
   gradient norm :     0.0055049 Eh/α   predicted    -0.7681326E-04 (   7.07%)
   displ. norm   :     0.0650779 α      lambda       -0.9937081E-04
   maximum displ.:     0.0365819 α      in ANC's #4, #12, #15, ...

........................................................................
.............................. CYCLE   12 ..............................
........................................................................

 iter      E             dE          RMSdq      gap      omega  full diag
   1    -57.2344310 -0.572344E+02  0.293E-02    3.40       0.0  T
   2    -57.2344314 -0.443727E-06  0.171E-02    3.40       1.0  T
   3    -57.2344314  0.773421E-08  0.230E-03    3.40       7.5  T
   4    -57.2344315 -0.101939E-06  0.828E-04    3.40      20.7  T
   5    -57.2344315 -0.223654E-08  0.427E-04    3.40      40.2  T
     SCC iter.                  ...        0 min,  0.321 sec
     gradient                   ...        0 min,  0.034 sec
 * total energy  :   -56.4768793 Eh     change       -0.5462967E-04 Eh
   gradient norm :     0.0036358 Eh/α   predicted    -0.4989753E-04 (  -8.66%)
   displ. norm   :     0.0698642 α      lambda       -0.5897346E-04
   maximum displ.:     0.0423639 α      in ANC's #4, #16, #2, ...

........................................................................
.............................. CYCLE   13 ..............................
........................................................................

 iter      E             dE          RMSdq      gap      omega  full diag
   1    -57.2348929 -0.572349E+02  0.213E-02    3.41       0.0  T
   2    -57.2348933 -0.387401E-06  0.124E-02    3.41       1.4  T
   3    -57.2348932  0.114949E-06  0.290E-03    3.41       5.9  T
   4    -57.2348934 -0.194221E-06  0.883E-04    3.41      19.4  T
   5    -57.2348934 -0.107964E-07  0.430E-04    3.41      39.9  T
     SCC iter.                  ...        0 min,  0.320 sec
     gradient                   ...        0 min,  0.016 sec
 * total energy  :   -56.4769115 Eh     change       -0.3215213E-04 Eh
   gradient norm :     0.0035524 Eh/α   predicted    -0.2963137E-04 (  -7.84%)
   displ. norm   :     0.0829396 α      lambda       -0.5043559E-04
   maximum displ.:     0.0515078 α      in ANC's #4, #2, #3, ...

........................................................................
.............................. CYCLE   14 ..............................
........................................................................

 iter      E             dE          RMSdq      gap      omega  full diag
   1    -57.2345735 -0.572346E+02  0.228E-02    3.40       0.0  T
   2    -57.2345738 -0.245102E-06  0.133E-02    3.40       1.3  T
   3    -57.2345736  0.143857E-06  0.266E-03    3.40       6.4  T
   4    -57.2345738 -0.198571E-06  0.865E-04    3.40      19.8  T
   5    -57.2345739 -0.150259E-07  0.410E-04    3.40      41.9  T
     SCC iter.                  ...        0 min,  0.548 sec
     gradient                   ...        0 min,  0.023 sec
 * total energy  :   -56.4769426 Eh     change       -0.3110260E-04 Eh
   gradient norm :     0.0028119 Eh/α   predicted    -0.2539532E-04 ( -18.35%)
   displ. norm   :     0.0787463 α      lambda       -0.3250590E-04
   maximum displ.:     0.0503825 α      in ANC's #4, #2, #3, ...

........................................................................
.............................. CYCLE   15 ..............................
........................................................................

 iter      E             dE          RMSdq      gap      omega  full diag
   1    -57.2345242 -0.572345E+02  0.210E-02    3.40       0.0  T
   2    -57.2345244 -0.142351E-06  0.123E-02    3.40       1.4  T
   3    -57.2345242  0.200380E-06  0.280E-03    3.39       6.1  T
   4    -57.2345244 -0.256159E-06  0.683E-04    3.39      25.1  T
   5    -57.2345244 -0.584968E-08  0.352E-04    3.39      48.7  T
     SCC iter.                  ...        0 min,  0.234 sec
     gradient                   ...        0 min,  0.015 sec
 * total energy  :   -56.4769585 Eh     change       -0.1593300E-04 Eh
   gradient norm :     0.0025632 Eh/α   predicted    -0.1635854E-04 (   2.67%)
   displ. norm   :     0.0430326 α      lambda       -0.1622961E-04
   maximum displ.:     0.0291256 α      in ANC's #4, #3, #2, ...

........................................................................
.............................. CYCLE   16 ..............................
........................................................................

 iter      E             dE          RMSdq      gap      omega  full diag
   1    -57.2344000 -0.572344E+02  0.144E-02    3.40       0.0  T
   2    -57.2344000 -0.776300E-07  0.853E-03    3.40       2.0  T
   3    -57.2343999  0.155635E-06  0.240E-03    3.40       7.1  T
   4    -57.2344001 -0.182127E-06  0.466E-04    3.40      36.8  T
   5    -57.2344001 -0.480772E-08  0.190E-04    3.40      90.2  T
     SCC iter.                  ...        0 min,  1.075 sec
     gradient                   ...        0 min,  0.001 sec
 * total energy  :   -56.4769687 Eh     change       -0.1014644E-04 Eh
   gradient norm :     0.0019323 Eh/α   predicted    -0.8134474E-05 ( -19.83%)
   displ. norm   :     0.0669074 α      lambda       -0.1382742E-04
   maximum displ.:     0.0452671 α      in ANC's #4, #3, #7, ...

........................................................................
.............................. CYCLE   17 ..............................
........................................................................

 iter      E             dE          RMSdq      gap      omega  full diag
   1    -57.2349448 -0.572349E+02  0.233E-02    3.40       0.0  T
   2    -57.2349450 -0.160108E-06  0.137E-02    3.40       1.3  T
   3    -57.2349449  0.491110E-07  0.177E-03    3.40       9.7  T
   4    -57.2349450 -0.843172E-07  0.463E-04    3.40      37.1  T
   5    -57.2349450 -0.135132E-08  0.267E-04    3.40      64.2  T
     SCC iter.                  ...        0 min,  0.544 sec
     gradient                   ...        0 min,  0.005 sec
 * total energy  :   -56.4769775 Eh     change       -0.8840330E-05 Eh
   gradient norm :     0.0015069 Eh/α   predicted    -0.6931363E-05 ( -21.59%)
   displ. norm   :     0.0310109 α      lambda       -0.6879214E-05
   maximum displ.:     0.0175099 α      in ANC's #4, #3, #7, ...

........................................................................
.............................. CYCLE   18 ..............................
........................................................................

 iter      E             dE          RMSdq      gap      omega  full diag
   1    -57.2346204 -0.572346E+02  0.127E-02    3.40       0.0  T
   2    -57.2346206 -0.108891E-06  0.752E-03    3.40       2.3  T
   3    -57.2346204  0.125407E-06  0.233E-03    3.40       7.4  T
   4    -57.2346206 -0.146512E-06  0.547E-04    3.40      31.4  T
   5    -57.2346206 -0.779087E-08  0.171E-04    3.40     100.0  T
     SCC iter.                  ...        0 min,  0.075 sec
     gradient                   ...        0 min,  0.043 sec
 * total energy  :   -56.4769820 Eh     change       -0.4495308E-05 Eh
   gradient norm :     0.0017289 Eh/α   predicted    -0.3442728E-05 ( -23.42%)
   displ. norm   :     0.0155837 α      lambda       -0.3386424E-05
   maximum displ.:     0.0087391 α      in ANC's #3, #4, #11, ...

........................................................................
.............................. CYCLE   19 ..............................
........................................................................

 iter      E             dE          RMSdq      gap      omega  full diag
   1    -57.2346823 -0.572347E+02  0.668E-03    3.40       0.0  T
   2    -57.2346824 -0.330248E-07  0.391E-03    3.40       4.4  T
   3    -57.2346823  0.523599E-07  0.150E-03    3.40      11.5  T
   4    -57.2346824 -0.630131E-07  0.244E-04    3.40      70.4  T
   5    -57.2346824 -0.127839E-08  0.100E-04    3.40     171.2  T
     SCC iter.                  ...        0 min,  0.118 sec
     gradient                   ...        0 min,  0.017 sec
 * total energy  :   -56.4769849 Eh     change       -0.2878410E-05 Eh
   gradient norm :     0.0009470 Eh/α   predicted    -0.1696772E-05 ( -41.05%)
   displ. norm   :     0.0270925 α      lambda       -0.3327871E-05
   maximum displ.:     0.0176017 α      in ANC's #3, #4, #11, ...

   *** GEOMETRY OPTIMIZATION CONVERGED AFTER 19 ITERATIONS ***

------------------------------------------------------------------------
 total energy gain   :        -0.5038613 Eh     -316.1777 kcal/mol
 total RMSD          :         0.3034969 a0        0.1606 Å
 total power (kW/mol):       -69.6256649 (step) -169.3229 (real)
------------------------------------------------------------------------

 ANCopt (total)                0 d,  0 h,  0 min,  7.813 sec
 optimizer setup                ...        0 min,  0.000 sec (  0.001%)
 model hessian                  ...        0 min,  0.005 sec (  0.060%)
 ANC generation                 ...        0 min,  0.012 sec (  0.155%)
 coordinate transformation      ...        0 min,  0.000 sec (  0.003%)
 single point calculation       ...        0 min,  7.724 sec ( 98.867%)
 optimization log               ...        0 min,  0.002 sec (  0.025%)
 hessian update                 ...        0 min,  0.059 sec (  0.750%)
 rational function              ...        0 min,  0.005 sec (  0.065%)

================
 final structure:
================
34
 xtb: 6.7.1-6.fc44.fc44
O           -2.25005331453519        2.94394364360434       -0.38687639881730
C           -3.43081832630588        2.59689748859479        0.08571235345322
O           -4.12409760642216        3.33056383360250        0.73171901855816
H           -1.80270283810499        2.19346212715372       -0.87033200534379
C           -3.88889139197221        1.16920557812996       -0.28907730464718
H           -3.96437479319455        1.13427711738340       -1.38430752067854
H           -4.87187969597735        0.99714367540474        0.14674321276210
N           -2.98168438234801        0.13149090677456        0.16155711379649
H           -3.29823860975353       -0.54595035379668        0.84182495312805
C           -1.78211912625308       -0.09653233941680       -0.38952571516321
O           -1.28928660625593        0.64286455070546       -1.23364893918045
C           -1.08883689126815       -1.34060866560732        0.15513363245769
H           -0.54315253587152       -1.01868430325658        1.05216818355548
N           -2.10583631199738       -2.29374792336934        0.58524097998454
H           -1.68221172419799       -3.03668976574000        1.13005808525499
H           -2.54505874072769       -2.72371802551223       -0.22391399398776
C           -0.06671686616961       -1.89548934392906       -0.86222885759891
H           -0.50721832486152       -1.88467390980262       -1.86088907549338
H            0.15592208439796       -2.93194288113197       -0.58949140432679
C            1.19558962315358       -1.10083869646808       -0.85399925181909
C            1.60388746909046       -0.17534769377699       -1.76777455710823
H            1.11128209772902        0.14695889721922       -2.66385414616874
N            2.80297455036164        0.36159150818487       -1.39008582233275
H            3.30435540012928        1.07403105983452       -1.89145498306825
C            3.19447051171286       -0.20535979348953       -0.21279362806781
C            4.32754496769554        0.00675770913180        0.56204801486804
H            5.07861742269768        0.72438590120548        0.26591456819773
C            4.45705987654622       -0.72881225485595        1.72009680142064
H            5.32449167456063       -0.58801275764741        2.34722783525773
C            3.48596867169110       -1.65846236339197        2.10210165836885
H            3.62763332896771       -2.21588083114914        3.01663278802842
C            2.36121007981820       -1.87386136861198        1.33860573773667
H            1.62009840684602       -2.59915063293020        1.64355942460312
C            2.19990779119179       -1.14160123057285        0.16217932955870

 Bond Distances (Angstroems)
 ---------------------------
O1-C2=1.3183         O1-H4=0.9985         C2-O1=1.3183         C2-O3=1.1984         C2-C5=1.5455         O3-C2=1.1984         
H4-O1=0.9985         C5-C2=1.5455         C5-H6=1.0984         C5-H7=1.0889         C5-N8=1.4502         H6-C5=1.0984         
H7-C5=1.0889         N8-C5=1.4502         N8-H9=1.0109         N8-C10=1.3396        H9-N8=1.0109         C10-N8=1.3396        
C10-O11=1.2256       C10-C12=1.5248       O11-C10=1.2256       C12-C10=1.5248       C12-H13=1.0982       C12-N14=1.4587       
C12-C17=1.5452       H13-C12=1.0982       N14-C12=1.4587       N14-H15=1.0140       N14-H16=1.0161       H15-N14=1.0140       
H16-N14=1.0161       C17-C12=1.5452       C17-H18=1.0915       C17-H19=1.0946       C17-C20=1.4916       H18-C17=1.0915       
H19-C17=1.0946       C20-C17=1.4916       C20-C21=1.3632       C20-C34=1.4293       C21-C20=1.3632       C21-H22=1.0721       
C21-N23=1.3670       H22-C21=1.0721       N23-C21=1.3670       N23-H24=1.0051       N23-C25=1.3641       H24-N23=1.0051       
C25-N23=1.3641       C25-C26=1.3890       C25-C34=1.4164       C26-C25=1.3890       C26-H27=1.0802       C26-C28=1.3780       
H27-C26=1.0802       C28-C26=1.3780       C28-H29=1.0796       C28-C30=1.3976       H29-C28=1.0796       C30-C28=1.3976       
C30-H31=1.0803       C30-C32=1.3764       H31-C30=1.0803       C32-C30=1.3764       C32-H33=1.0809       C32-C34=1.3951       
H33-C32=1.0809       C34-C20=1.4293       C34-C25=1.4164       C34-C32=1.3951       
 C  H  Rav=1.0865 sigma=0.0086  Rmin=1.0721  Rmax=1.0984    10
 C  C  Rav=1.4377 sigma=0.0664  Rmin=1.3632  Rmax=1.5455    12
 N  H  Rav=1.0115 sigma=0.0041  Rmin=1.0051  Rmax=1.0161     4
 N  C  Rav=1.3959 sigma=0.0488  Rmin=1.3396  Rmax=1.4587     5
 O  H  Rav=0.9985 sigma=0.0000  Rmin=0.9985  Rmax=0.9985     1
 O  C  Rav=1.2475 sigma=0.0513  Rmin=1.1984  Rmax=1.3183     3

 selected bond angles (degree)
 --------------------
H4-O1-C2=112.15                O3-C2-O1=123.38                C5-C2-O1=114.94                C5-C2-O3=121.65                
H6-C5-C2=106.95                H7-C5-C2=108.45                H7-C5-H6=109.39                N8-C5-C2=113.59                
N8-C5-H6=109.27                N8-C5-H7=109.10                H9-N8-C5=119.52                C10-N8-C5=123.65               
C10-N8-H9=116.31               O11-C10-N8=122.73              C12-C10-N8=113.52              C12-C10-O11=123.74             

 selected dihedral angles (degree)
 ---------------------------------
O3-C2-O1-H4=177.80            C5-C2-O1-H4=356.09            H6-C5-C2-O1=298.25            H6-C5-C2-O3=116.57            
H7-C5-C2-O1=180.37            H7-C5-C2-O3=358.69            N8-C5-C2-O1= 58.89            N8-C5-C2-O3=237.21            
H9-N8-C5-C2=116.15            H9-N8-C5-H6=235.48            H9-N8-C5-H7=355.04            C10-N8-C5-C2=287.56           
C10-N8-C5-H6= 46.89           C10-N8-C5-H7=166.45           O11-C10-N8-C5=  7.78          O11-C10-N8-H9=179.45          
C12-C10-N8-C5=186.64          C12-C10-N8-H9=358.31          

 CMA Distance (Angstroems)
 ---------------------------
R(CMA):  5.3308
           -------------------------------------------------
          |                Final Singlepoint                |
           -------------------------------------------------

          ...................................................
          :                      SETUP                      :
          :.................................................:
          :  # basis functions                  91          :
          :  # atomic orbitals                  91          :
          :  # shells                           53          :
          :  # electrons                       100          :
          :  max. iterations                   250          :
          :  Hamiltonian                  GFN2-xTB          :
          :  restarted?                      false          :
          :  GBSA solvation                  false          :
          :  PC potential                    false          :
          :  electronic temp.          300.0000000     K    :
          :  accuracy                    1.0000000          :
          :  -> integral cutoff          0.2500000E+02      :
          :  -> integral neglect         0.1000000E-07      :
          :  -> SCF convergence          0.1000000E-05 Eh   :
          :  -> wf. convergence          0.1000000E-03 e    :
          :  Broyden damping             0.4000000          :
          :  net charge                          0          :
          :  unpaired electrons                  0          :
          ...................................................

 iter      E             dE          RMSdq      gap      omega  full diag
   1    -57.2346824 -0.572347E+02  0.484E-05    3.40       0.0  T
   2    -57.2346824 -0.153122E-10  0.322E-05    3.40     532.7  T
   3    -57.2346824 -0.144453E-10  0.199E-05    3.40     862.3  T

   *** convergence criteria satisfied after 3 iterations ***

         #    Occupation            Energy/Eh            Energy/eV
      -------------------------------------------------------------
         1        2.0000           -0.7353947             -20.0111
       ...           ...                  ...                  ...
        44        2.0000           -0.4223679             -11.4932
        45        2.0000           -0.4174736             -11.3600
        46        2.0000           -0.4156823             -11.3113
        47        2.0000           -0.4036367             -10.9835
        48        2.0000           -0.3996380             -10.8747
        49        2.0000           -0.3808345             -10.3630
        50        2.0000           -0.3611435              -9.8272 (HOMO)
        51                         -0.2363339              -6.4310 (LUMO)
        52                         -0.2309954              -6.2857
        53                         -0.2292056              -6.2370
        54                         -0.1967849              -5.3548
        55                         -0.1567480              -4.2653
       ...                                ...                  ...
        91                          0.7203805              19.6026
      -------------------------------------------------------------
                  HL-Gap            0.1248096 Eh            3.3962 eV
             Fermi-level           -0.2987387 Eh           -8.1291 eV

 SCC (total)                   0 d,  0 h,  0 min,  0.230 sec
 SCC setup                      ...        0 min,  0.002 sec (  0.802%)
 Dispersion                     ...        0 min,  0.000 sec (  0.054%)
 classical contributions        ...        0 min,  0.000 sec (  0.011%)
 integral evaluation            ...        0 min,  0.001 sec (  0.277%)
 iterations                     ...        0 min,  0.220 sec ( 95.903%)
 molecular gradient             ...        0 min,  0.006 sec (  2.756%)
 printout                       ...        0 min,  0.000 sec (  0.192%)

         :::::::::::::::::::::::::::::::::::::::::::::::::::::
         ::                     SUMMARY                     ::
         :::::::::::::::::::::::::::::::::::::::::::::::::::::
         :: total energy             -56.476984889804 Eh    ::
         :: gradient norm              0.000946973232 Eh/a0 ::
         :: HOMO-LUMO gap              3.396242382512 eV    ::
         ::.................................................::
         :: SCC energy               -57.234360305829 Eh    ::
         :: -> isotropic ES            0.097443638517 Eh    ::
         :: -> anisotropic ES          0.005506860598 Eh    ::
         :: -> anisotropic XC          0.019167259286 Eh    ::
         :: -> dispersion             -0.033998936993 Eh    ::
         :: repulsion energy           0.757375416024 Eh    ::
         :: add. restraining           0.000000000000 Eh    ::
         :: total charge              -0.000000000000 e     ::
         :::::::::::::::::::::::::::::::::::::::::::::::::::::

           -------------------------------------------------
          |                Property Printout                |
           -------------------------------------------------

    * Orbital Energies and Occupations

         #    Occupation            Energy/Eh            Energy/eV
      -------------------------------------------------------------
         1        2.0000           -0.7353947             -20.0111
       ...           ...                  ...                  ...
        38        2.0000           -0.4642627             -12.6332
        39        2.0000           -0.4628802             -12.5956
        40        2.0000           -0.4538293             -12.3493
        41        2.0000           -0.4504863             -12.2584
        42        2.0000           -0.4459996             -12.1363
        43        2.0000           -0.4280606             -11.6481
        44        2.0000           -0.4223679             -11.4932
        45        2.0000           -0.4174736             -11.3600
        46        2.0000           -0.4156823             -11.3113
        47        2.0000           -0.4036367             -10.9835
        48        2.0000           -0.3996380             -10.8747
        49        2.0000           -0.3808345             -10.3630
        50        2.0000           -0.3611435              -9.8272 (HOMO)
        51                         -0.2363339              -6.4310 (LUMO)
        52                         -0.2309954              -6.2857
        53                         -0.2292056              -6.2370
        54                         -0.1967849              -5.3548
        55                         -0.1567480              -4.2653
        56                         -0.0711120              -1.9351
        57                         -0.0230899              -0.6283
        58                          0.0140489               0.3823
        59                          0.0314706               0.8564
        60                          0.0570748               1.5531
        61                          0.0809242               2.2021
       ...                                ...                  ...
        91                          0.7203805              19.6026
      -------------------------------------------------------------
                  HL-Gap            0.1248096 Eh            3.3962 eV
             Fermi-level           -0.2987387 Eh           -8.1291 eV

     #   Z          covCN         q      C6AA      α(0)
     1   8 O        1.655    -0.376    20.392     6.096
     2   6 C        2.684     0.358    20.919     7.485
     3   8 O        0.856    -0.377    21.223     6.176
     4   1 H        0.800     0.364     0.557     1.173
     5   6 C        3.737    -0.039    21.361     6.595
     6   1 H        0.923     0.074     2.044     2.236
     7   1 H        0.925     0.078     1.999     2.211
     8   7 N        2.688    -0.165    24.577     7.363
     9   1 H        0.860     0.203     1.090     1.636
    10   6 C        2.754     0.264    22.548     7.776
    11   8 O        0.859    -0.453    22.779     6.399
    12   6 C        3.789     0.026    20.146     6.393
    13   1 H        0.923     0.062     2.174     2.306
    14   7 N        2.632    -0.354    29.135     8.017
    15   1 H        0.860     0.152     1.385     1.844
    16   1 H        0.860     0.146     1.432     1.874
    17   6 C        3.804    -0.058    21.617     6.619
    18   1 H        0.924     0.040     2.454     2.450
    19   1 H        0.924     0.038     2.478     2.462
    20   6 C        3.059    -0.032    28.729     8.790
    21   6 C        3.033     0.001    27.975     8.675
    22   1 H        0.926     0.045     2.389     2.417
    23   7 N        2.780    -0.101    23.213     7.156
    24   1 H        0.860     0.160     1.337     1.811
    25   6 C        3.087     0.044    26.905     8.503
    26   6 C        2.908    -0.052    29.295     8.875
    27   1 H        0.926     0.023     2.681     2.561
    28   6 C        2.924    -0.037    28.922     8.819
    29   1 H        0.926     0.027     2.628     2.535
    30   6 C        2.919    -0.042    29.055     8.839
    31   1 H        0.926     0.024     2.671     2.556
    32   6 C        2.912    -0.039    28.960     8.824
    33   1 H        0.926     0.019     2.754     2.595
    34   6 C        3.118    -0.022    28.379     8.725

 Mol. C6AA /au·bohr⁶  :      13337.986981
 Mol. C8AA /au·bohr⁸  :     312456.257076
 Mol. α(0) /au        :        178.790534


Wiberg/Mayer (AO) data.
largest (>0.10) Wiberg bond orders for each atom

 ---------------------------------------------------------------------------
     #   Z sym  total        # sym  WBO       # sym  WBO       # sym  WBO
 ---------------------------------------------------------------------------
     1   8 O    2.232 --     2 C    1.200     4 H    0.769     3 O    0.183
     2   6 C    3.932 --     3 O    1.774     1 O    1.200     5 C    0.925
     3   8 O    2.067 --     2 C    1.774     1 O    0.183
     4   1 H    0.867 --     1 O    0.769
     5   6 C    3.963 --     8 N    0.991     7 H    0.974     6 H    0.952
                             2 C    0.925
     6   1 H    0.995 --     5 C    0.952
     7   1 H    0.994 --     5 C    0.974
     8   7 N    3.474 --    10 C    1.303     5 C    0.991     9 H    0.919
                            11 O    0.193
     9   1 H    0.959 --     8 N    0.919
    10   6 C    3.947 --    11 O    1.612     8 N    1.303    12 C    0.952
    11   8 O    2.017 --    10 C    1.612     8 N    0.193
    12   6 C    3.980 --    14 N    1.014    17 C    0.963    10 C    0.952
                            13 H    0.942
    13   1 H    0.996 --    12 C    0.942
    14   7 N    3.026 --    12 C    1.014    16 H    0.965    15 H    0.962
    15   1 H    0.977 --    14 N    0.962
    16   1 H    0.979 --    14 N    0.965
    17   6 C    3.995 --    20 C    1.016    18 H    0.975    19 H    0.968
                            12 C    0.963
    18   1 H    0.998 --    17 C    0.975
    19   1 H    0.998 --    17 C    0.968
    20   6 C    3.974 --    21 C    1.583    34 C    1.204    17 C    1.016
    21   6 C    3.953 --    20 C    1.583    23 N    1.200    22 H    0.969
    22   1 H    0.997 --    21 C    0.969
    23   7 N    3.546 --    21 C    1.200    25 C    1.178    24 H    0.947
    24   1 H    0.974 --    23 N    0.947
    25   6 C    3.959 --    26 C    1.340    34 C    1.244    23 N    1.178
    26   6 C    3.989 --    28 C    1.492    25 C    1.340    27 H    0.969
                            32 C    0.112
    27   1 H    0.999 --    26 C    0.969
    28   6 C    3.991 --    26 C    1.492    30 C    1.372    29 H    0.972
    29   1 H    0.999 --    28 C    0.972
    30   6 C    3.991 --    32 C    1.503    28 C    1.372    31 H    0.972
    31   1 H    0.999 --    30 C    0.972
    32   6 C    3.992 --    30 C    1.503    34 C    1.332    33 H    0.969
                            26 C    0.112
    33   1 H    0.999 --    32 C    0.969
    34   6 C    3.984 --    32 C    1.332    25 C    1.244    20 C    1.204
 ---------------------------------------------------------------------------

Topologies differ in total number of bonds
Writing topology from bond orders to xtbtopo.mol

molecular dipole:
                 x           y           z       tot (Debye)
 q only:        0.153      -1.749      -0.507
   full:        0.391      -2.325      -0.794       6.322
molecular quadrupole (traceless):
                xx          xy          yy          xz          yz          zz
 q only:        5.674      23.120     -10.358      -0.676      -6.119       4.684
  q+dip:        4.567      31.775     -12.195       2.889      -9.746       7.628
   full:        4.404      30.508     -11.651       2.377      -8.173       7.246

           -------------------------------------------------
          |                Geometry Summary                 |
           -------------------------------------------------

      molecular mass/u    :      261.2770023
   center of mass at/Å    :       -0.0101036      -0.0126660      -0.0047408
  moments of inertia/u·Å² :        0.7462859E+03   0.2620907E+04   0.2847281E+04
rotational constants/cm⁻¹ :        0.2258870E-01   0.6431985E-02   0.5920607E-02

 * 32 selected distances

     #   Z          #   Z                                           value/Å
     1   8 O        2   6 C                                       1.3183275
     2   6 C        3   8 O                                       1.1984270
     1   8 O        4   1 H                                       0.9985362 (min)
     5   6 C        6   1 H                                       1.0983839
     5   6 C        7   1 H                                       1.0889495
     5   6 C        8   7 N                                       1.4501545
     8   7 N        9   1 H                                       1.0108896
     8   7 N       10   6 C                                       1.3396432
    10   6 C       11   8 O                                       1.2256166
    12   6 C       13   1 H                                       1.0982158
    12   6 C       14   7 N                                       1.4586826
    14   7 N       15   1 H                                       1.0140248
    14   7 N       16   1 H                                       1.0161312
    17   6 C       18   1 H                                       1.0915498
    17   6 C       19   1 H                                       1.0946186
    17   6 C       20   6 C                                       1.4916285 (max)
    20   6 C       21   6 C                                       1.3631678
    21   6 C       22   1 H                                       1.0721476
    21   6 C       23   7 N                                       1.3670269
    23   7 N       24   1 H                                       1.0051488
    23   7 N       25   6 C                                       1.3640822
    25   6 C       26   6 C                                       1.3889678
    26   6 C       27   1 H                                       1.0801830
    26   6 C       28   6 C                                       1.3780111
    28   6 C       29   1 H                                       1.0796092
    28   6 C       30   6 C                                       1.3975677
    30   6 C       31   1 H                                       1.0803479
    30   6 C       32   6 C                                       1.3763739
    32   6 C       33   1 H                                       1.0808737
    20   6 C       34   6 C                                       1.4293131
    25   6 C       34   6 C                                       1.4164421
    32   6 C       34   6 C                                       1.3950637

 * 6 distinct bonds (by element types)

   Z      Z             #   av. dist./Å        max./Å        min./Å
   1 H    6 C          10     1.0864879     1.0983839     1.0721476
   6 C    6 C           9     1.4040595     1.4916285     1.3631678
   1 H    7 N           4     1.0115486     1.0161312     1.0051488
   6 C    7 N           5     1.3959179     1.4586826     1.3396432
   1 H    8 O           1     0.9985362     0.9985362     0.9985362
   6 C    8 O           3     1.2474570     1.3183275     1.1984270


optimized geometry written to: xtbopt.xyz


           -------------------------------------------------
          | TOTAL ENERGY              -56.476984889804 Eh   |
          | GRADIENT NORM               0.000946973232 Eh/α |
          | HOMO-LUMO GAP               3.396242382512 eV   |
           -------------------------------------------------

------------------------------------------------------------------------
 * finished run on 2026/10/01 at 18:04:30.568     
------------------------------------------------------------------------
 total:
 * wall-time:     0 d,  0 h,  0 min,  8.666 sec
 *  cpu-time:     0 d,  0 h,  1 min, 56.574 sec
 * ratio c/w:    13.452 speedup
 SCF:
 * wall-time:     0 d,  0 h,  0 min,  0.578 sec
 *  cpu-time:     0 d,  0 h,  0 min,  7.672 sec
 * ratio c/w:    13.266 speedup
 ANC optimizer:
 * wall-time:     0 d,  0 h,  0 min,  8.045 sec
 *  cpu-time:     0 d,  0 h,  1 min, 48.346 sec
 * ratio c/w:    13.468 speedup


--- STDERR ---
normal termination of xtb
Note: The following floating-point exceptions are signalling: IEEE_UNDERFLOW_FLAG IEEE_DENORMAL
