34
 energy: -56.476984889804 gnorm: 0.000946973232 xtb: 6.7.1-6.fc44.fc44
O           -2.25005331453519        2.94394364360434       -0.38687639881730
C           -3.43081832630588        2.59689748859479        0.08571235345322
O           -4.12409760642216        3.33056383360250        0.73171901855816
H           -1.80270283810499        2.19346212715372       -0.87033200534379
C           -3.88889139197221        1.16920557812996       -0.28907730464718
H           -3.96437479319455        1.13427711738340       -1.38430752067854
H           -4.87187969597735        0.99714367540474        0.14674321276210
N           -2.98168438234801        0.13149090677456        0.16155711379649
H           -3.29823860975353       -0.54595035379668        0.84182495312805
C           -1.78211912625308       -0.09653233941680       -0.38952571516321
O           -1.28928660625593        0.64286455070546       -1.23364893918045
C           -1.08883689126815       -1.34060866560732        0.15513363245769
H           -0.54315253587152       -1.01868430325658        1.05216818355548
N           -2.10583631199738       -2.29374792336934        0.58524097998454
H           -1.68221172419799       -3.03668976574000        1.13005808525499
H           -2.54505874072769       -2.72371802551223       -0.22391399398776
C           -0.06671686616961       -1.89548934392906       -0.86222885759891
H           -0.50721832486152       -1.88467390980262       -1.86088907549338
H            0.15592208439796       -2.93194288113197       -0.58949140432679
C            1.19558962315358       -1.10083869646808       -0.85399925181909
C            1.60388746909046       -0.17534769377699       -1.76777455710823
H            1.11128209772902        0.14695889721922       -2.66385414616874
N            2.80297455036164        0.36159150818487       -1.39008582233275
H            3.30435540012928        1.07403105983452       -1.89145498306825
C            3.19447051171286       -0.20535979348953       -0.21279362806781
C            4.32754496769554        0.00675770913180        0.56204801486804
H            5.07861742269768        0.72438590120548        0.26591456819773
C            4.45705987654622       -0.72881225485595        1.72009680142064
H            5.32449167456063       -0.58801275764741        2.34722783525773
C            3.48596867169110       -1.65846236339197        2.10210165836885
H            3.62763332896771       -2.21588083114914        3.01663278802842
C            2.36121007981820       -1.87386136861198        1.33860573773667
H            1.62009840684602       -2.59915063293020        1.64355942460312
C            2.19990779119179       -1.14160123057285        0.16217932955870
