34
frame_0026
O      -4.477313646418989      1.993717892918546     -0.378857534256616
C      -4.595647968093794      1.533783623229290     -1.298378187291966
O      -5.711815976240251      1.241906896475204     -2.015539818409688
H      -3.671182009738154      2.233822777445128      0.046140724373522
C      -3.256923505801132      1.554644579074322     -2.437178911427091
H      -3.016415854628971      2.493270740892099     -2.297990530217022
H      -3.300421182278938      1.246106524166595     -3.190301651418022
N      -2.293472533028888      0.612151166901574     -1.689970806255725
H      -2.037723171106238     -0.332379981883271     -2.073522102960026
C      -1.844984051834306      1.208890089529882     -0.300691463073197
O      -2.181122980313436      1.946254470150882      0.246486662998498
C      -0.600347147273313      0.103677300310699      0.030170587677617
H      -1.127223293887603     -0.521887055962011      0.804787548062472
N      -0.344281580553924     -0.841060293027479     -1.179878077928532
H       0.386151714323375     -1.638710376686242     -0.884623256446619
H       0.438019312955912     -0.358638201694332     -1.798308027920446
C       0.604953163578895      0.874039828942477      0.508508906826467
H      -0.026432648817056      1.538565636924963      1.587801934352041
H       1.123107032415362      1.337934522857219     -0.036024941426347
C       1.597038819837359     -0.252715357062453      1.325820503404011
C       1.321363770337020     -0.577695999134086      2.491409290886442
H       0.602429506513369     -0.396016771688915      3.318485172401475
N       2.422152143174037     -1.641070823030874      2.778069136046781
H       2.764526987517218     -1.971308917406940      3.678851081138574
C       3.301258185327161     -1.380954390034202      1.548985125785142
C       4.369454464211725     -2.387304488285404      1.512021040247451
H       4.854732032443949     -3.089123035660745      2.055765453095103
C       4.785312445065094     -2.356017571737755      0.166784732040960
H       5.753993163757386     -2.657600496019957      0.028188829139016
C       4.146851159651614     -1.407865188119229     -0.774532627167229
H       4.873711500440200     -1.456369837703381     -1.901579307987421
C       3.379626376665530     -0.602233624998809     -0.614289259622207
H       2.796119186674797     -0.064448482785712     -1.317150866981858
C       2.707548699213201     -0.722783056134613      0.759961765094827
