34
 energy: -56.479309606765 gnorm: 0.000933392539 xtb: 6.7.1-6.fc44.fc44
O           -4.61534910110020        1.97729697293167       -0.26874319886420
C           -4.66009348255174        1.54297985117324       -1.51264397140624
O           -5.67360914060445        1.20639118238020       -2.05682846851508
H           -3.68458272900999        2.17923896223809        0.02863918073598
C           -3.29925777589973        1.52818807612564       -2.24458077003896
H           -2.93486487651068        2.56358612768524       -2.26966607817033
H           -3.45550787123415        1.17313005824886       -3.26241569935749
N           -2.30618468928020        0.69418491969858       -1.59717702296557
H           -2.00707213435681       -0.16910285567818       -2.03167595993517
C           -1.70606913709262        1.01423209282433       -0.44591929562799
O           -2.01972629232166        1.99383623153679        0.22298392970544
C           -0.61775172015353        0.03754956376338       -0.01351472611160
H           -1.07953632281752       -0.61400743102683        0.74036292215854
N           -0.22740519571860       -0.80096459774403       -1.13734726209343
H            0.32553586175935       -1.58454056159799       -0.80714273101919
H            0.36500611416503       -0.27033366060069       -1.77019892910770
C            0.54080348296180        0.80737598865932        0.65870849892318
H            0.11023338625592        1.48222731642690        1.39887216813056
H            1.05070970054391        1.40858506676518       -0.09829688428691
C            1.50355782658113       -0.13063436523179        1.30501572507914
C            1.43904779114696       -0.61496719102306        2.57927517226104
H            0.73144839465221       -0.38529383477706        3.35288788686746
N            2.46138363959284       -1.49619517422746        2.80306346422094
H            2.63794637895113       -1.97442468737391        3.66956108166995
C            3.21268505218200       -1.60167429613924        1.66962250627668
C            4.34343809003295       -2.36325038911899        1.40326319264350
H            4.77083945116465       -3.00823849143848        2.15700098404323
C            4.89871077497981       -2.26487840532039        0.14618839267994
H            5.77812164457643       -2.84307567040895       -0.09512026399049
C            4.34915210863116       -1.42408479473066       -0.82590785418304
H            4.81940564807581       -1.37045514289255       -1.79706577822169
C            3.22971965340377       -0.66681790749888       -0.56810805002584
H            2.82476149185612       -0.01199362129587       -1.32666924858976
C            2.63754609122691       -0.75128723157038        0.69299820989551
