13
-jbtspZ0dQKQqaGCPdqDYJH4RUkF energy=-29.79009331 eV
Au 8.578865654680 10.780809137175 11.187904058524
Au 11.368856523405 10.649930543999 11.277608756870
Au 7.442737041295 12.875675506802 9.902643371686
Au 9.864083991843 9.617406755059 13.283760063076
Au 10.144670806562 12.808983429804 9.901659511717
Au 12.835172469337 12.612278040505 10.134955983425
Au 12.808525860806 10.129680368808 8.995575299933
Au 10.071524253970 10.217918035883 8.588600112667
Au 7.320808667108 10.405748280617 8.768866320300
Au 11.530759526601 7.821330823309 8.797779406482
Au 8.356263631111 7.975745056330 8.649535328732
Au 9.861913763455 8.272528697068 10.965140528691
Au 9.817939592560 5.900214393695 9.602510641583
13
0D_KzxSYCjTvh00U_O4bM3yzHpqS energy=-29.36262539 eV
Au 13.686006152586 10.048998224886 11.250829462448
Au 13.974619236241 9.554059812722 8.623587924316
Au 12.253871081699 11.593134232742 9.298392846096
Au 12.586362176107 12.430610027484 11.981144113692
Au 11.577758185244 8.840207616583 9.759082689164
Au 11.163524969442 10.049961146961 12.317759713277
Au 9.837198665603 10.703138207146 8.434596960395
Au 9.215606951633 8.709219508656 11.010717254942
Au 7.340628016747 9.850682004603 7.921720231142
Au 8.596740313762 11.117240205763 12.789654929656
Au 10.081265944647 12.287737044455 10.783022081123
Au 6.666423071190 8.456259283069 10.185875863771
Au 7.682306523200 11.021064193936 10.305927659889
13
1U6yghpe35SxZt1qnOJ5TLMVKAS_ energy=-29.59886579 eV
Au 8.340970591109 7.357067024695 7.736625474513
Au 10.648312643193 7.407360748040 9.010347812792
Au 10.688813819582 8.774951190794 11.576708152344
Au 8.311111670588 8.858893306261 10.017550441957
Au 8.841533726966 10.744661841161 11.835816881624
Au 12.783112710960 7.307710827646 10.528896341500
Au 11.551691502657 11.563096861324 11.437321369634
Au 12.171572423232 9.779840084196 9.394133004228
Au 9.930700258812 12.773766518577 13.279948755842
Au 8.062332688410 11.535867415397 9.162563201454
Au 9.806293910822 9.738276216501 7.702239214473
Au 10.783019465823 12.012693209091 8.828093225621
Au 9.301915462846 13.367195833195 10.711136999017
13
6sNKArEOGOhVyftHO2ZTAetGgY3x energy=-29.6585986 eV
Au 7.441813956764 8.002481612016 6.626110254741
Au 9.516197628219 6.284526966981 9.930840397431
Au 10.793273715468 8.671219250300 10.425649746377
Au 9.916799015985 8.185672382466 7.871602079007
Au 11.538084976221 10.277826560572 8.264107947844
Au 7.413743464768 7.940044635949 9.309815887451
Au 12.222632027508 12.840072822396 8.937276606569
Au 8.283430109259 7.959016463291 11.863237125596
Au 10.034927247717 9.920733065150 12.817942261983
Au 7.999525144209 10.327229391216 7.907406916569
Au 9.554156621523 12.244528009298 8.920993127962
Au 8.440955278757 10.430243560701 10.601157913538
Au 11.305065575047 11.377010450139 10.984464496376
13
8USFHdUbO2Q_jNiN92VCd93rDlk7 energy=-28.805166420000003 eV
Au 7.859250987951 7.787365442775 6.945705868496
Au 7.632282404560 7.721535062966 9.619558858682
Au 7.499614066010 7.753552483584 12.314814580872
Au 10.311123184754 7.791792755573 5.778485472316
Au 10.228274961362 7.718966010985 8.453870311633
Au 9.914483063687 7.746772080823 11.236833494050
Au 7.857344451119 10.501420283752 6.944737788121
Au 7.635051875145 10.566108131226 9.619018679341
Au 7.503820845198 10.530148169451 12.314369490651
Au 10.308421373734 10.491194911935 5.777060232716
Au 10.229264071062 10.567735983795 8.452265317026
Au 9.917958388115 10.542922295380 11.235440438459
Au 11.964508827305 9.141884522028 10.169237601910
13
8sjVqZMEEUJXCkEYENXZToXztSW_ energy=-29.0988207 eV
Au 13.464687427231 8.773406149722 11.619653572456
Au 12.786836303721 9.552199210459 9.090604213684
Au 11.993313110955 10.718839850041 12.742205535671
Au 11.448860992300 11.396481331686 7.542362661209
Au 11.244189129151 7.646807519640 10.506977519058
Au 11.307717643326 11.672028477879 10.268933937784
Au 9.758897818372 12.316429732746 12.433517194705
Au 9.677552226735 9.668756778831 11.737161145132
Au 9.047659263936 12.199764448978 8.612315398072
Au 9.964434919391 9.519980936080 8.782024208356
Au 8.515462924423 7.733964573953 10.174168992636
Au 7.661534343711 12.890756230503 10.856405021758
Au 7.514664298496 10.296394954482 10.019480587731
13
A2PAApKZtQYgPL9XX03SuEVVYTzC energy=-27.33241725 eV
Au 12.710314235000 12.710314235000 12.710314235000
Au 12.711237766432 12.710314235000 15.474130375570
Au 13.477586080935 10.352255302498 13.951723000144
Au 10.706422616118 11.255810950755 13.953151639464
Au 10.706422616118 14.164817519245 13.953151639464
Au 13.477586080935 15.068373167502 13.951723000144
Au 15.183434049733 12.710314235000 13.953433554234
Au 11.943042389065 10.352255302498 11.468905469856
Au 10.237194420267 12.710314235000 11.467194915766
Au 11.943042389065 15.068373167502 11.468905469856
Au 14.714205853882 14.164817519245 11.467476830536
Au 14.714205853882 11.255810950755 11.467476830536
Au 12.709390703568 12.710314235000 9.946498094430
13
ABzkLyC3JahV5g9QzHM08RvL0EW8 energy=-29.8189785 eV
Au 9.386345950089 10.422431934305 7.971283807582
Au 8.536682944070 11.227018159938 12.567305993273
Au 11.997685911527 9.816307217523 8.550137254893
Au 9.273114139689 8.779568620237 11.437330563620
Au 8.183161947074 8.516030571219 6.418660699574
Au 7.828101800791 8.269812589983 9.191862282389
Au 10.856448698489 8.212576205065 6.660804439605
Au 12.186209033775 8.782232628101 11.063606678156
Au 10.433176141207 7.537113262358 9.296263541738
Au 6.542671719276 10.291369365357 7.719384726291
Au 11.095061595243 10.344871204501 12.959885270408
Au 7.569897123058 10.962575404056 10.107930963459
Au 10.436910495711 11.163560337357 10.381011470283
13
BVBUfv46UIKHFv6v-AWoSPa_Bwq- energy=-29.804160919999998 eV
Au 10.427049134915 7.564115097847 11.095067635363
Au 10.599191182751 11.875702104954 13.101472118857
Au 11.674880694736 10.006407888500 11.368174411493
Au 8.101151855765 7.448652096846 12.514222773717
Au 9.976915387622 11.997351888573 10.468275694540
Au 8.941896508218 9.977595065550 12.129013499417
Au 7.956030718089 8.491898886897 10.013029512682
Au 11.760575515969 8.687795392734 9.053788629887
Au 9.294363012290 13.251436485330 8.171604756676
Au 8.165488416868 10.805301705718 8.713077888564
Au 10.888801947827 11.073842645415 7.976979457988
Au 9.275898809354 8.508095592880 7.672958378525
Au 11.614422867085 9.043224112179 6.366636058939
13
ExPbkuS1FV9RQGy6EkOvF-66fVme energy=-29.01075994 eV
Au 7.627315007165 9.216916969396 6.052436228193
Au 9.914729514052 8.154097636298 7.426436669300
Au 7.612609584709 6.570307461514 6.704633807138
Au 9.723482755145 5.483607684113 8.017606388096
Au 9.763412870911 10.785696305563 6.744287585706
Au 5.953925760572 8.296074012474 8.033833667588
Au 7.956066947171 10.236466633399 8.793595370515
Au 8.134411527496 7.145306839862 9.510825174171
Au 10.823553108774 10.100689299825 9.244328679225
Au 10.898851774085 7.447120343200 9.978845142031
Au 9.247400253380 11.750986890716 10.724510513567
Au 6.401447846460 8.899401175006 10.668645649181
Au 9.124380400081 9.094916272760 11.281602823541
13
JTrC5v5Ytdy9f0UhIHdLTAHglhqf energy=-29.322052639999995 eV
Au 13.002995646835 10.053726274942 11.784640705760
Au 11.638339702913 11.014398112777 9.573091731140
Au 11.472991940549 8.249976698851 10.623135220008
Au 11.671156857671 11.197384576496 6.819101227116
Au 10.293373450272 10.702071261346 11.841725338754
Au 10.729053340364 8.906498198164 7.765288113092
Au 9.695853347774 6.797396828316 9.141945637936
Au 9.348921352110 11.506289038229 8.302769856316
Au 8.844379710244 8.124810103837 11.343278013242
Au 7.964371933857 9.896442606425 13.101016610013
Au 8.062835617592 8.816344877459 8.343799806389
Au 8.000202032294 10.805838756152 10.490264723329
Au 6.626963137313 11.018113769595 8.095394471694
13
JiDz2_h6D01xSlKwZggWUSsN0Vru energy=-29.92189058 eV
Au 11.399872681307 10.829161137300 8.819992258588
Au 11.332425911545 9.565568241197 11.225801336787
Au 11.143460536695 11.001897663001 13.553434775468
Au 11.566704407371 13.476295212844 8.747508582085
Au 11.327139448764 12.274024877015 11.149780356413
Au 11.102745502757 13.686655541534 13.430785574986
Au 11.089385528086 16.323572325872 13.385316736481
Au 11.349185605604 15.085577396917 11.047590897945
Au 11.626884359108 16.109560455124 8.642672605612
Au 11.361222094610 8.103307430871 8.891954836693
Au 11.356834577564 6.867060527512 11.227263086925
Au 11.361430171309 5.670209252360 13.543324242568
Au 11.313704675279 8.338105211790 13.665570209448
13
OJ4z1DmLES-BRwrK5pdOKWm0AlZ7 energy=-29.83311005 eV
Au 10.534619932709 10.078659598630 7.528450405058
Au 12.831007612597 8.998448069970 8.677993752114
Au 9.823601329642 7.770018922304 8.734787797390
Au 11.970066340009 6.980618529659 10.226278027739
Au 9.799309631694 12.180145471414 9.250477333341
Au 12.441908056017 11.728936481442 8.700129582292
Au 11.170681665494 10.051272972778 10.571174125984
Au 8.019633948134 9.843277707568 8.501221523907
Au 7.434075146666 7.618094836943 10.154773813507
Au 7.164191012258 12.208527580796 9.717968748321
Au 9.777128966762 7.912255851032 11.563027752239
Au 8.580275264869 10.346758321925 11.297995650159
Au 5.976250877505 9.860873258944 10.507707491380
13
SRbokynflAyN0b-5lXS035E5dEQt energy=-29.24492426 eV
Au 8.771075304958 10.958677030590 9.053614064137
Au 8.269005408999 9.282450050376 6.976906831392
Au 10.690408939645 10.378416155822 7.214188294912
Au 9.814679525569 11.627801744154 11.474080199192
Au 8.550182102289 7.947128916291 10.317714311085
Au 7.784481678511 6.770478426642 7.992307816996
Au 10.382915320273 7.688399930818 8.063293147729
Au 11.074378508873 9.050663292918 10.593602874590
Au 6.378542666820 9.016399496326 9.076380367561
Au 7.236469738548 10.406415415331 11.245443172660
Au 12.750191779222 9.042161527317 8.470418580143
Au 11.756096944576 11.487488151389 9.592972650151
Au 9.331900918780 9.067431453488 12.635663996013
13
UOC9Gdqm9sQA-UDqOAONPv0ewYaT energy=-29.67673926 eV
Au 11.535984825035 8.588221086078 8.833287424320
Au 11.477625085742 11.275845222006 9.468931843513
Au 12.046796138487 9.490570274928 11.687330462413
Au 11.999855854224 12.131452048643 12.037893961635
Au 9.744449146437 10.279639984210 7.710816941146
Au 12.330112825626 6.971205775088 10.878366154257
Au 9.027947782760 7.421532776666 8.440373313928
Au 7.427203272852 12.187330994894 10.698855757851
Au 7.310237225368 11.607282467918 8.052141070250
Au 7.298986661207 9.058205140837 7.162095610569
Au 9.613585204760 10.873019120372 11.585499076745
Au 9.773415205344 8.027225253672 11.061788502560
Au 7.915617813315 9.590286307376 9.884436529657
13
VgkuNymx77I6dgzeOS32wNN44c-D energy=-29.39428947 eV
Au 13.556993783062 11.187031969489 10.273453470055
Au 12.856850415930 11.244088115109 12.905692312351
Au 14.098679409749 12.503364716530 8.066364544421
Au 10.858092603084 12.124708164854 11.179696673352
Au 11.530917889199 11.964430226667 8.466099709637
Au 13.056989722824 8.811052373319 11.511248852546
Au 11.009142908201 9.588010695939 9.846399078755
Au 9.006352858106 11.421015549532 9.145360956643
Au 8.168303404457 11.639891808931 11.910223693592
Au 10.186453834898 10.828948598992 13.469482990210
Au 10.406395464188 8.278627357617 12.156779417002
Au 8.339581080663 9.074239729926 10.677100182509
Au 6.469769895843 10.879114421325 9.936621160117
13
WjT3HhMX2fn5T0dTkJbR3Dl_MJg- energy=-29.383513860000004 eV
Au 11.424903635369 9.570574441819 9.516244818429
Au 10.639538004732 7.214121913631 8.448057255331
Au 11.380894554969 7.330861703935 11.195779144629
Au 10.865885405226 11.477935986341 11.340941655419
Au 9.504501003052 9.417761751038 7.378543147094
Au 10.208437016770 11.894141886951 8.608066489848
Au 8.189625135226 11.320144751294 10.389072064544
Au 8.767026270070 6.626135872224 10.380170248487
Au 7.647494537414 11.424710726324 7.654669081155
Au 6.825372733737 9.023652026970 6.616844783533
Au 9.363699218494 9.120564912918 11.442521267525
Au 7.418311864870 8.939123683519 9.358464674289
Au 7.969874642248 6.796542558803 7.742304514774
13
_6qmj1Eli4EJRQfTQ3sn7GJqgFNa energy=-29.83860498 eV
Au 8.038955297856 7.444985057517 6.031095537880
Au 9.796966164506 9.633973197725 6.477718037188
Au 9.998255037654 7.313585361245 7.977279406642
Au 7.324392735984 9.490642069802 7.733880195572
Au 11.115907780866 11.562806806516 7.779496887503
Au 7.308785770601 6.816818028498 8.588314314174
Au 8.793233026210 11.119243867181 9.256866700730
Au 11.062222140955 9.322462375500 9.405503326505
Au 11.151288102287 11.893139734164 10.515739179917
Au 6.952605155169 6.569391324595 11.217617433174
Au 7.263195733996 9.183535541549 10.451917262965
Au 9.580507328257 10.036304155596 11.780573567027
Au 9.477372250658 7.476798823784 10.647684675722
13
_lJf9Ctp5ihHp73Ac9k4C-1v-BQs energy=-29.41347529 eV
Au 8.888329837129 8.579149211615 7.422217964007
Au 7.874404250518 7.938446409340 9.847482057971
Au 9.793143077379 8.486222193720 11.909231164981
Au 9.827344027625 11.308330313502 7.373749557752
Au 7.162968907752 8.179411009093 12.470877527717
Au 10.574299920356 9.490775333479 5.498995602168
Au 10.610951239055 7.630426669438 9.471025312012
Au 10.398614673451 10.547535806956 10.048504284667
Au 8.184033672969 10.764942909542 11.622294903727
Au 11.339098124234 7.191967582763 6.873637892651
Au 5.810615694933 9.764784247486 10.660907012679
Au 7.681908980851 10.610876778304 8.880666107473
Au 11.952273728980 9.605117669996 8.018397116962
13
b4sUBXEs_YS0yr4jdbRM9BU7jrX- energy=-28.91853339 eV
Au 7.459776592711 11.625815319957 9.117283159352
Au 7.003034432735 8.933518403335 9.111033947549
Au 7.455236726805 6.286260636884 8.455392088447
Au 7.401829059026 10.183411577942 6.717106179294
Au 9.101725008405 8.099653415387 7.213804821370
Au 9.288615549933 7.292310964316 10.125573294309
Au 10.240154638889 11.945034894996 9.089585912209
Au 9.043010002185 10.220713937127 10.838814611352
Au 7.372886325005 8.233413769748 11.745664803624
Au 10.183771268310 10.540527672742 6.671623495694
Au 11.123926393066 9.354710560427 8.949932043885
Au 11.117511491402 8.577061256933 11.598455441326
Au 11.169541011528 6.668586090207 8.326748520112
13
bh6QkXbsuoDGvbl5Q1SoAMxL_de8 energy=-29.32558925 eV
Au 9.937058887810 9.652777386580 6.260698393103
Au 12.294541681088 8.078190345962 10.192440694818
Au 5.473853632046 6.742286813418 11.074530499432
Au 9.292439772834 12.108871830666 8.633413806192
Au 8.083130531731 9.668520109464 8.390957470632
Au 8.160686829266 10.931430338779 10.761821980018
Au 8.360832543152 7.515691618252 6.707829113527
Au 11.169907359174 10.071356392901 8.809966613976
Au 7.286483356907 7.094786841337 9.204805014343
Au 11.322995425621 11.876646950470 6.775207448969
Au 9.947003889445 8.934813336837 11.266285437688
Au 7.367252171860 8.504842819703 11.699154815447
Au 9.974893601493 7.490865263203 8.893968941998
13
dJiZ7o4SFprZNlM1U7RpTfLlSp8b energy=-29.8126113 eV
Au 7.481705805820 7.864069968311 7.337874617558
Au 10.445440613525 8.147146779645 8.194431815521
Au 11.030455822039 6.228584477267 10.206392171948
Au 8.917866723659 5.872258763889 8.404868696390
Au 7.627429122976 12.035726635618 8.830619741833
Au 6.333983588456 10.328824852029 6.908473967772
Au 9.032331704077 10.244641465695 7.276571478400
Au 8.692581407217 7.769603688095 10.466263032752
Au 11.567973267952 11.345519898989 11.536959254654
Au 6.925080429900 9.483655514482 9.493510566793
Au 11.082539333531 10.717221599061 8.913519970853
Au 11.257669824040 8.757770207576 11.016239688180
Au 9.011134900511 10.611168509342 10.820467541049
13
pxK8z40q5YAGyUV3-1o8cCrNIC0w energy=-29.38724113 eV
Au 11.237845865308 12.520327937223 10.635323379891
Au 8.858079311969 10.391679098971 11.202362033019
Au 8.895919870308 12.266887983820 9.224301091792
Au 11.459823564482 10.131298826262 11.999707654766
Au 6.754834061551 10.491961144822 9.363933256855
Au 13.450414342628 10.734945920079 10.222555682581
Au 12.280496959277 8.291335056929 9.914918351455
Au 11.106737565285 10.505799010938 8.774479503284
Au 10.002948966956 7.870931312895 11.548610020098
Au 8.756746835247 10.164666383295 7.437433982726
Au 7.509794258152 8.035206986959 10.450610929704
Au 7.207711378897 7.987190042380 7.764772480095
Au 9.804530050846 7.928921956026 8.752882667682
13
qOGed9H3NRwY_4SYWijqjzgkYFEQ energy=-29.426059449999997 eV
Au 10.637922042365 6.590338561335 11.687755088323
Au 11.444613081764 8.856051632548 10.481858525176
Au 12.921850701807 9.414660050260 8.230557781014
Au 9.083426296847 8.841545543724 11.964449430337
Au 9.172111539969 7.337018914086 9.466630270881
Au 9.912707620330 11.321271635587 11.501192599650
Au 10.149547890218 9.572685670443 8.082262505545
Au 11.932691569159 11.457353061218 9.567476573598
Au 10.906164824188 13.768617611141 10.414861798493
Au 7.876850551778 9.946170921495 9.710770564557
Au 6.817451835145 7.746665087075 10.845843502420
Au 7.906931534852 10.917404418288 7.140754051648
Au 9.273765454600 12.266252032799 8.941622448359
13
qqpwF8LUNkAsp_t0llKlDwWLroG5 energy=-29.739451 eV
Au 10.944492769658 8.657139901663 9.440443194866
Au 8.543231831523 12.324252037227 8.221951850555
Au 6.500060532689 10.683599208176 7.621729685885
Au 10.935078700242 11.270983256629 8.994354970124
Au 9.673432070757 7.138714272599 7.343836635104
Au 9.333111994767 9.829400285597 7.160538125909
Au 8.469931755035 7.343695598852 9.965754014178
Au 6.269474496658 6.118587404137 8.457910323101
Au 6.109636825655 8.670265113045 9.407112631673
Au 11.040131019694 5.989031944387 9.506013399811
Au 8.444632021086 10.068155776248 9.850893246160
Au 7.211739308303 8.129024228898 6.824377413935
Au 8.662692149355 4.902490662528 8.730927577845
13
rEZxNZGcQSy11u-7TrCoJ5Ev_2z3 energy=-28.835229669999997 eV
Au 8.383566151148 13.062421447792 8.640940900065
Au 7.882414325654 11.802344701846 10.907507059861
Au 7.798335045153 10.287727662163 13.080242839941
Au 10.902533084661 12.257829071154 8.322833219418
Au 10.610369582746 10.780899241523 10.826459287626
Au 13.334087996617 11.109205428798 8.222500491703
Au 8.750866034655 10.332312537775 8.631190002749
Au 7.691680466833 8.947189053870 10.723581223599
Au 9.832412080129 8.639074952720 12.588193413292
Au 10.099848448389 8.085578680706 9.798571241304
Au 11.192585130469 9.532106207461 7.795785468970
Au 11.916806297256 7.271090443518 11.689514851344
Au 12.838619416290 9.126344630672 10.006804262025
13
rd9AO2dQ7S85KYe_fcQtUAvKHCFt energy=-29.619931930000003 eV
Au 14.206649605467 10.492727677170 9.621179869406
Au 11.548551795063 9.959345237401 9.757014120045
Au 12.947108826949 11.115736369672 11.971402030525
Au 9.176332865197 10.845539137282 10.667731214766
Au 11.855549406190 10.215635790658 14.460144275519
Au 12.812752457642 12.883432876261 14.199411104234
Au 12.932429672609 11.543531060463 16.479703831495
Au 12.392579081385 14.093125033893 11.900174904446
Au 10.010285856256 13.383208747957 10.419145576235
Au 12.555188064196 12.587376262936 9.505777599770
Au 11.825089889354 15.161828776603 9.439485010354
Au 10.770148532793 9.160730094065 12.288294456280
Au 10.470508446899 12.060957671798 12.793710034607
13
sJcVS-LmUIRaiaosnoqgEe2D9J5A energy=-29.54431955 eV
Au 11.258918034903 7.631006386115 10.669382013736
Au 11.805343581665 8.256584426458 8.154675575214
Au 11.528718773033 11.045485484995 7.597693154609
Au 12.597401835125 10.172160169165 10.039792113376
Au 12.327589119412 9.387579920232 12.619363679761
Au 10.754218816205 7.241948633151 13.280500013019
Au 11.307175508012 11.766053536077 11.827284833264
Au 9.818185598310 9.818757160181 9.403076391467
Au 9.437984322620 9.311401229447 12.093793417042
Au 9.727850244559 12.588672068073 8.730920471411
Au 8.455722466126 11.542218349979 11.057505725333
Au 7.634645049852 13.867068535383 9.842305929543
Au 9.932723445312 13.957541106009 11.270183267226
13
teIMu14K44NnW53wA6y7iL8MBvPt energy=-29.140479789999997 eV
Au 7.315879539672 9.944092325182 10.271364911668
Au 10.514223863140 9.406963016042 9.396069922317
Au 9.140375350915 7.930433223038 11.170146984781
Au 8.855826724116 11.592038777774 8.863154808870
Au 6.367003020718 7.550554440244 11.029783057713
Au 10.707191469539 6.727698364969 9.125781137791
Au 11.055275979360 10.965575916010 7.235252794924
Au 5.532619766867 8.005390571560 8.394646065618
Au 8.039260576961 7.080084971100 8.789762827074
Au 9.783547849039 8.672154317615 6.750474886471
Au 7.246682779426 9.931030177228 7.513227075086
Au 7.284877340325 7.560764658465 6.178183006900
Au 9.634103633275 5.978830601672 6.694463799716
13
x27U3VZ5mW-dMt3oh15CUUgw0YTp energy=-29.33759691 eV
Au 13.501200634435 10.944364717122 11.364325961570
Au 13.486551125637 8.999522405655 8.895864990245
Au 12.124391306369 11.382431570220 9.026487281798
Au 10.876077149360 11.697981478112 11.478218619966
Au 11.759576359769 8.890976400557 10.992040017319
Au 10.859620173114 9.083829707126 8.146290491892
Au 9.398832119941 11.467040083216 8.974748104707
Au 9.437572601894 7.742809424315 10.127035075593
Au 9.447583770473 9.467013202786 12.330963518912
Au 8.125501344352 11.748713311852 11.409396248067
Au 8.108148665367 9.174659755086 8.135857944450
Au 6.567580208626 11.209666038468 9.191709636178
Au 7.168769263856 9.124989994375 10.834579560726
