34
frame_0008
O      -0.817566277600000      2.174931430400000      0.057650612100000
C      -0.435987813400000      1.905905252400000     -1.175799957500000
O       0.476034146900000      2.464197367000000     -1.716291593900000
H      -1.573873640400000      1.589522494000000      0.351959589100000
C      -1.298991220000000      0.859962669500000     -1.917049661900000
H      -0.889879566200000      0.729291793500000     -2.917652558400000
H      -2.311879966400000      1.278621828000000     -1.989832837400000
N      -1.364638479900000     -0.431023154700000     -1.262742734300000
H      -0.944487276600000     -1.228902492700000     -1.713908569800000
C      -1.981641343000000     -0.646884120300000     -0.098445020800000
O      -2.510570833400000      0.244306344100000      0.559522879200000
C      -1.970083881300000     -2.100084530500000      0.355468427800000
H      -2.714996511500000     -2.181459580700000      1.163370666800000
N      -2.247865726200000     -2.956841729600000     -0.791340021700000
H      -3.185444356200000     -2.789079929700000     -1.142679795500000
H      -2.195132498400000     -3.931975926200000     -0.516002634400000
C      -0.561949383300000     -2.438499244300000      0.911526058500000
H      -0.021046595200000     -2.982081585000000      0.135324800900000
H      -0.664900178400000     -3.091671743600000      1.779870360500000
C       0.212141464100000     -1.210271756700000      1.269932403800000
C       0.053189477200000     -0.415287278500000      2.368788122200000
H      -0.616233379400000     -0.535573865600000      3.198815275100000
N       0.906302843900000      0.649314217300000      2.305581117000000
H       0.938976535300000      1.409121184100000      2.962831426100000
C       1.626233406000000      0.577297663400000      1.148802563800000
C       2.592676002500000      1.429577327200000      0.630806284800000
H       2.883290516100000      2.325483765100000      1.157690666200000
C       3.149225747100000      1.099316335100000     -0.584156796100000
H       3.893650983900000      1.745293409700000     -1.022963674000000
C       2.763536912700000     -0.056041219000000     -1.269357485600000
H       3.224739766900000     -0.277339170700000     -2.220633009400000
C       1.808817189900000     -0.905737946200000     -0.761184224000000
H       1.523491170000000     -1.799164111800000     -1.299747852600000
C       1.220720607300000     -0.593416200000000      0.465515809700000
