      -----------------------------------------------------------      
     |                   =====================                   |     
     |                           x T B                           |     
     |                   =====================                   |     
     |                         S. Grimme                         |     
     |          Mulliken Center for Theoretical Chemistry        |     
     |                    University of Bonn                     |     
      -----------------------------------------------------------      

   * xtb version 6.7.1-6.fc44.fc44 compiled by Fedora project on Sun Jan 18 23:32:34 UTC 2026

   xtb is free software: you can redistribute it and/or modify it under
   the terms of the GNU Lesser General Public License as published by
   the Free Software Foundation, either version 3 of the License, or
   (at your option) any later version.
   
   xtb is distributed in the hope that it will be useful,
   but WITHOUT ANY WARRANTY; without even the implied warranty of
   MERCHANTABILITY or FITNESS FOR A PARTICULAR PURPOSE.  See the
   GNU Lesser General Public License for more details.
   
   Cite this work as:
   * C. Bannwarth, E. Caldeweyher, S. Ehlert, A. Hansen, P. Pracht,
     J. Seibert, S. Spicher, S. Grimme, WIREs Comput. Mol. Sci., 2020, 11,
     e01493. DOI: 10.1002/wcms.1493
   
   for GFN2-xTB:
   * C. Bannwarth, S. Ehlert and S. Grimme., J. Chem. Theory Comput., 2019,
     15, 1652-1671. DOI: 10.1021/acs.jctc.8b01176
   for GFN1-xTB:
   * S. Grimme, C. Bannwarth, P. Shushkov, J. Chem. Theory Comput., 2017,
     13, 1989-2009. DOI: 10.1021/acs.jctc.7b00118
   for GFN0-xTB:
   * P. Pracht, E. Caldeweyher, S. Ehlert, S. Grimme, ChemRxiv, 2019, preprint.
     DOI: 10.26434/chemrxiv.8326202.v1
   for GFN-FF:
   * S. Spicher and S. Grimme, Angew. Chem. Int. Ed., 2020, 59, 15665-15673.
     DOI: 10.1002/anie.202004239
   
   for ALPB and GBSA implicit solvation:
   * S. Ehlert, M. Stahn, S. Spicher, S. Grimme, J. Chem. Theory Comput.,
     2021, 17, 4250-4261. DOI: 10.1021/acs.jctc.1c00471
   
   for ddCOSMO and CPCM-X implicit solvation:
   * M. Stahn, S. Ehlert, S. Grimme, J. Phys. Chem. A,
     2023, XX, XXXX-XXXX. DOI: 10.1021/acs.jpca.3c04382
   
   for DFT-D4:
   * E. Caldeweyher, C. Bannwarth and S. Grimme, J. Chem. Phys., 2017,
     147, 034112. DOI: 10.1063/1.4993215
   * E. Caldeweyher, S. Ehlert, A. Hansen, H. Neugebauer, S. Spicher,
     C. Bannwarth and S. Grimme, J. Chem. Phys., 2019, 150, 154122.
     DOI: 10.1063/1.5090222
   * E. Caldeweyher, J.-M. Mewes, S. Ehlert and S. Grimme, Phys. Chem. Chem. Phys.
     2020, 22, 8499-8512. DOI: 10.1039/D0CP00502A
   
   for sTDA-xTB:
   * S. Grimme and C. Bannwarth, J. Chem. Phys., 2016, 145, 054103.
     DOI: 10.1063/1.4959605
   
   in the mass-spec context:
   * V. Asgeirsson, C. Bauer and S. Grimme, Chem. Sci., 2017, 8, 4879.
     DOI: 10.1039/c7sc00601b
   * J. Koopman and S. Grimme, ACS Omega 2019, 4, 12, 15120-15133.
     DOI: 10.1021/acsomega.9b02011
   
   for metadynamics refer to:
   * S. Grimme, J. Chem. Theory Comput., 2019, 155, 2847-2862
     DOI: 10.1021/acs.jctc.9b00143
   
   for SPH calculations refer to:
   * S. Spicher and S. Grimme, J. Chem. Theory Comput., 2021, 17, 1701-1714
     DOI: 10.1021/acs.jctc.0c01306
   
   for ONIOM refer to:
   * C. Plett, A. Katbashev, S. Ehlert, S. Grimme, M. Bursch,
     Phys. Chem. Chem. Phys., 2023, 25, 17860-17868. DOI: 10.1039/D3CP02178E
   
   for DIPRO refer to:
   * J. Kohn, N. Gildemeister, S. Grimme, D. Fazzi, A. Hansen,
     J. Chem. Phys., 2023, just accepted.
   
   for PTB refer to:
   * S. Grimme, M. Mueller, A. Hansen, J. Chem. Phys., 2023, 158, 124111.
     DOI: 10.1063/5.0137838
   
   with help from (in alphabetical order)
   P. Atkinson, C. Bannwarth, F. Bohle, G. Brandenburg, E. Caldeweyher
   M. Checinski, S. Dohm, S. Ehlert, S. Ehrlich, I. Gerasimov, C. Hölzer
   A. Katbashev, J. Kohn, J. Koopman, C. Lavigne, S. Lehtola, F. März, M. Müller,
   F. Musil, H. Neugebauer, J. Pisarek, C. Plett, P. Pracht, F. Pultar,
   J. Seibert, P. Shushkov, S. Spicher, M. Stahn, M. Steiner, T. Strunk,
   J. Stückrath, T. Rose, and J. Unsleber
   
 * started run on 2026/10/01 at 18:03:06.825     
   ID    Z sym.   atoms
    1    8 O      1, 3, 11
    2    6 C      2, 5, 10, 12, 17, 20, 21, 25, 26, 28, 30, 32, 34
    3    1 H      4, 6, 7, 9, 13, 15, 16, 18, 19, 22, 24, 27, 29, 31, 33
    4    7 N      8, 14, 23

           -------------------------------------------------
          |                Calculation Setup                |
           -------------------------------------------------

          program call               : /usr/bin/xtb input.xyz --opt --gfn 2 --chrg 0 --uhf 0
          hostname                   : fedora
          coordinate file            : input.xyz
          omp threads                :                    16


           -------------------------------------------------
          |                 G F N 2 - x T B                 |
           -------------------------------------------------

        Reference                      10.1021/acs.jctc.8b01176
      * Hamiltonian:
        H0-scaling (s, p, d)           1.850000    2.230000    2.230000
        zeta-weighting                 0.500000
      * Dispersion:
        s8                             2.700000
        a1                             0.520000
        a2                             5.000000
        s9                             5.000000
      * Repulsion:
        kExp                           1.500000    1.000000
        rExp                           1.000000
      * Coulomb:
        alpha                          2.000000
        third order                    shell-resolved
        anisotropic                    true
        a3                             3.000000
        a5                             4.000000
        cn-shift                       1.200000
        cn-exp                         4.000000
        max-rad                        5.000000


          ...................................................
          :                      SETUP                      :
          :.................................................:
          :  # basis functions                  91          :
          :  # atomic orbitals                  91          :
          :  # shells                           53          :
          :  # electrons                       100          :
          :  max. iterations                   250          :
          :  Hamiltonian                  GFN2-xTB          :
          :  restarted?                      false          :
          :  GBSA solvation                  false          :
          :  PC potential                    false          :
          :  electronic temp.          300.0000000     K    :
          :  accuracy                    1.0000000          :
          :  -> integral cutoff          0.2500000E+02      :
          :  -> integral neglect         0.1000000E-07      :
          :  -> SCF convergence          0.1000000E-05 Eh   :
          :  -> wf. convergence          0.1000000E-03 e    :
          :  Broyden damping             0.4000000          :
          :  net charge                          0          :
          :  unpaired electrons                  0          :
          ...................................................

 iter      E             dE          RMSdq      gap      omega  full diag
   1    -57.0892070 -0.570892E+02  0.404E+00    3.24       0.0  T
   2    -57.2267295 -0.137522E+00  0.234E+00    3.58       1.0  T
   3    -57.2350246 -0.829511E-02  0.128E+00    3.60       1.0  T
   4    -57.2349230  0.101633E-03  0.403E-01    3.38       1.0  T
   5    -57.2395686 -0.464559E-02  0.115E-01    3.37       1.0  T
   6    -57.2397525 -0.183952E-03  0.568E-02    3.38       1.0  T
   7    -57.2397942 -0.416785E-04  0.248E-02    3.38       1.0  T
   8    -57.2397954 -0.117331E-05  0.114E-02    3.38       1.5  T
   9    -57.2397979 -0.247742E-05  0.320E-03    3.39       5.4  T
  10    -57.2397979 -0.389368E-07  0.141E-03    3.39      12.2  T
  11    -57.2397979 -0.184252E-07  0.578E-04    3.39      29.7  T
  12    -57.2397979 -0.250532E-08  0.198E-04    3.39      86.8  T

   *** convergence criteria satisfied after 12 iterations ***

         #    Occupation            Energy/Eh            Energy/eV
      -------------------------------------------------------------
         1        2.0000           -0.7317804             -19.9128
       ...           ...                  ...                  ...
        44        2.0000           -0.4191316             -11.4052
        45        2.0000           -0.4108861             -11.1808
        46        2.0000           -0.4084254             -11.1138
        47        2.0000           -0.4000586             -10.8861
        48        2.0000           -0.3948214             -10.7436
        49        2.0000           -0.3754852             -10.2175
        50        2.0000           -0.3588667              -9.7653 (HOMO)
        51                         -0.2344635              -6.3801 (LUMO)
        52                         -0.2269816              -6.1765
        53                         -0.2241186              -6.0986
        54                         -0.1900794              -5.1723
        55                         -0.1555174              -4.2318
       ...                                ...                  ...
        91                          0.7236102              19.6904
      -------------------------------------------------------------
                  HL-Gap            0.1244032 Eh            3.3852 eV
             Fermi-level           -0.2966651 Eh           -8.0727 eV

 SCC (total)                   0 d,  0 h,  0 min,  0.730 sec
 SCC setup                      ...        0 min,  0.000 sec (  0.027%)
 Dispersion                     ...        0 min,  0.000 sec (  0.030%)
 classical contributions        ...        0 min,  0.002 sec (  0.214%)
 integral evaluation            ...        0 min,  0.001 sec (  0.083%)
 iterations                     ...        0 min,  0.674 sec ( 92.309%)
 molecular gradient             ...        0 min,  0.053 sec (  7.301%)
 printout                       ...        0 min,  0.000 sec (  0.034%)

         :::::::::::::::::::::::::::::::::::::::::::::::::::::
         ::                     SUMMARY                     ::
         :::::::::::::::::::::::::::::::::::::::::::::::::::::
         :: total energy             -56.481077810899 Eh    ::
         :: gradient norm              0.000209208586 Eh/a0 ::
         :: HOMO-LUMO gap              3.385183777979 eV    ::
         ::.................................................::
         :: SCC energy               -57.238774683528 Eh    ::
         :: -> isotropic ES            0.098937407775 Eh    ::
         :: -> anisotropic ES          0.003416468061 Eh    ::
         :: -> anisotropic XC          0.019406244812 Eh    ::
         :: -> dispersion             -0.041579232959 Eh    ::
         :: repulsion energy           0.757696872628 Eh    ::
         :: add. restraining           0.000000000000 Eh    ::
         :: total charge              -0.000000000000 e     ::
         :::::::::::::::::::::::::::::::::::::::::::::::::::::

      ----------------------------------------------------------- 
     |                   =====================                   |
     |                        A N C O P T                        |
     |                   =====================                   |
     |               Approximate Normal Coordinate               |
     |                Rational Function Optimizer                |
      ----------------------------------------------------------- 
      ----------------------------------------------------------- 
     |                   =====================                   |
     |                        A N C O P T                        |
     |                   =====================                   |
     |               Approximate Normal Coordinate               |
     |                Rational Function Optimizer                |
      ----------------------------------------------------------- 

          ...................................................
          :                      SETUP                      :
          :.................................................:
          :   optimization level            normal          :
          :   max. optcycles                   200          :
          :   ANC micro-cycles                  20          :
          :   degrees of freedom                96          :
          :.................................................:
          :   RF solver                   davidson          :
          :   write xtbopt.log                true          :
          :   linear?                        false          :
          :   energy convergence         0.5000000E-05 Eh   :
          :   grad. convergence          0.1000000E-02 Eh/α :
          :   maxmium RF displ.          1.0000000          :
          :   Hlow (freq-cutoff)         0.1000000E-01      :
          :   Hmax (freq-cutoff)         5.0000000          :
          :   S6 in model hess.         20.0000000          :
          ...................................................

generating ANC from exact Hessian ...
Using Lindh-Hessian (1995)
 Shifting diagonal of input Hessian by    9.4014878973460551E-003
 Lowest  eigenvalues of input Hessian
    0.000000    0.000000    0.000000    0.000000    0.000000    0.000000
    0.010000    0.010741    0.011284    0.011885    0.012457    0.015061
    0.016274    0.018676    0.019277    0.022036    0.022547    0.025936
 Highest eigenvalues
    2.003312    2.011310    2.102180    2.210259    2.316671    2.365506


........................................................................
.............................. CYCLE    1 ..............................
........................................................................

 iter      E             dE          RMSdq      gap      omega  full diag
   1    -57.2397979 -0.572398E+02  0.948E-05    3.39       0.0  T
   2    -57.2397979 -0.529710E-10  0.543E-05    3.39     315.6  T
   3    -57.2397979 -0.107576E-10  0.352E-05    3.39     487.8  T
     SCC iter.                  ...        0 min,  0.022 sec
     gradient                   ...        0 min,  0.028 sec
 * total energy  :   -56.4810778 Eh     change       -0.4534826E-09 Eh
   gradient norm :     0.0002086 Eh/α   predicted     0.0000000E+00 (-100.00%)
   displ. norm   :     0.0018642 α      lambda       -0.7494008E-07
   maximum displ.:     0.0014780 α      in ANC's #29, #2, #9, ...

   *** GEOMETRY OPTIMIZATION CONVERGED AFTER 1 ITERATIONS ***

------------------------------------------------------------------------
 total energy gain   :        -0.0000000 Eh       -0.0000 kcal/mol
 total RMSD          :         0.0000000 a0        0.0000 Å
 total power (kW/mol):        -0.0000012 (step)   -0.0000 (real)
------------------------------------------------------------------------

 ANCopt (total)                0 d,  0 h,  0 min,  0.079 sec
 optimizer setup                ...        0 min,  0.000 sec (  0.060%)
 model hessian                  ...        0 min,  0.012 sec ( 15.116%)
 ANC generation                 ...        0 min,  0.013 sec ( 16.556%)
 coordinate transformation      ...        0 min,  0.000 sec (  0.029%)
 single point calculation       ...        0 min,  0.052 sec ( 65.975%)
 optimization log               ...        0 min,  0.000 sec (  0.124%)
 hessian update                 ...        0 min,  0.000 sec (  0.003%)
 rational function              ...        0 min,  0.000 sec (  0.212%)

================
 final structure:
================
34
 xtb: 6.7.1-6.fc44.fc44
O           -0.81756627760000        2.17493143040000        0.05765061210000
C           -0.43598781340000        1.90590525240000       -1.17579995750000
O            0.47603414690000        2.46419736700000       -1.71629159390000
H           -1.57387364040000        1.58952249400000        0.35195958910000
C           -1.29899122000000        0.85996266950000       -1.91704966190000
H           -0.88987956620000        0.72929179350000       -2.91765255840000
H           -2.31187996640000        1.27862182800000       -1.98983283740000
N           -1.36463847990000       -0.43102315470000       -1.26274273430000
H           -0.94448727660000       -1.22890249270000       -1.71390856980000
C           -1.98164134300000       -0.64688412030000       -0.09844502080000
O           -2.51057083340000        0.24430634410000        0.55952287920000
C           -1.97008388130000       -2.10008453050000        0.35546842780000
H           -2.71499651150000       -2.18145958070000        1.16337066680000
N           -2.24786572620000       -2.95684172960000       -0.79134002170000
H           -3.18544435620000       -2.78907992970000       -1.14267979550000
H           -2.19513249840000       -3.93197592620000       -0.51600263440000
C           -0.56194938330000       -2.43849924430000        0.91152605850000
H           -0.02104659520000       -2.98208158500000        0.13532480090000
H           -0.66490017840000       -3.09167174360000        1.77987036050000
C            0.21214146410000       -1.21027175670000        1.26993240380000
C            0.05318947720000       -0.41528727850000        2.36878812220000
H           -0.61623337940000       -0.53557386560000        3.19881527510000
N            0.90630284390000        0.64931421730000        2.30558111700000
H            0.93897653530000        1.40912118410000        2.96283142610000
C            1.62623340600000        0.57729766340000        1.14880256380000
C            2.59267600250000        1.42957732720000        0.63080628480000
H            2.88329051610000        2.32548376510000        1.15769066620000
C            3.14922574710000        1.09931633510000       -0.58415679610000
H            3.89365098390000        1.74529340970000       -1.02296367400000
C            2.76353691270000       -0.05604121900000       -1.26935748560000
H            3.22473976690000       -0.27733917070000       -2.22063300940000
C            1.80881718990000       -0.90573794620000       -0.76118422400000
H            1.52349117000000       -1.79916411180000       -1.29974785260000
C            1.22072060730000       -0.59341620000000        0.46551580970000

 Bond Distances (Angstroems)
 ---------------------------
O1-C2=1.3189         O1-H4=1.0007         C2-O1=1.3189         C2-O3=1.1982         C2-C5=1.5454         O3-C2=1.1982         
H4-O1=1.0007         C5-C2=1.5454         C5-H6=1.0889         C5-H7=1.0984         C5-N8=1.4488         H6-C5=1.0889         
H7-C5=1.0984         N8-C5=1.4488         N8-H9=1.0083         N8-C10=1.3352        H9-N8=1.0083         C10-N8=1.3352        
C10-O11=1.2276       C10-C12=1.5225       O11-C10=1.2276       C12-C10=1.5225       C12-H13=1.1019       C12-N14=1.4582       
C12-C17=1.5513       H13-C12=1.1019       N14-C12=1.4582       N14-H15=1.0152       N14-H16=1.0146       H15-N14=1.0152       
H16-N14=1.0146       C17-C12=1.5513       C17-H18=1.0911       C17-H19=1.0914       C17-C20=1.4954       H18-C17=1.0911       
H19-C17=1.0914       C20-C17=1.4954       C20-C21=1.3656       C20-C34=1.4300       C21-C20=1.3656       C21-H22=1.0731       
C21-N23=1.3657       H22-C21=1.0731       N23-C21=1.3657       N23-H24=1.0052       N23-C25=1.3644       H24-N23=1.0052       
C25-N23=1.3644       C25-C26=1.3888       C25-C34=1.4149       C26-C25=1.3888       C26-H27=1.0792       C26-C28=1.3766       
H27-C26=1.0792       C28-C26=1.3766       C28-H29=1.0789       C28-C30=1.3975       H29-C28=1.0789       C30-C28=1.3975       
C30-H31=1.0801       C30-C32=1.3754       H31-C30=1.0801       C32-C30=1.3754       C32-H33=1.0815       C32-C34=1.3958       
H33-C32=1.0815       C34-C20=1.4300       C34-C25=1.4149       C34-C32=1.3958       
 C  H  Rav=1.0865 sigma=0.0089  Rmin=1.0731  Rmax=1.1019    10
 C  C  Rav=1.4383 sigma=0.0672  Rmin=1.3656  Rmax=1.5513    12
 N  H  Rav=1.0108 sigma=0.0042  Rmin=1.0052  Rmax=1.0152     4
 N  C  Rav=1.3945 sigma=0.0495  Rmin=1.3352  Rmax=1.4582     5
 O  H  Rav=1.0007 sigma=0.0000  Rmin=1.0007  Rmax=1.0007     1
 O  C  Rav=1.2482 sigma=0.0514  Rmin=1.1982  Rmax=1.3189     3

 selected bond angles (degree)
 --------------------
H4-O1-C2=111.99                O3-C2-O1=123.17                C5-C2-O1=115.16                C5-C2-O3=121.61                
H6-C5-C2=108.19                H7-C5-C2=106.78                H7-C5-H6=109.35                N8-C5-C2=114.32                
N8-C5-H6=108.97                N8-C5-H7=109.13                H9-N8-C5=118.96                C10-N8-C5=123.97               
C10-N8-H9=117.05               O11-C10-N8=123.31              C12-C10-N8=114.25              C12-C10-O11=122.44             

 selected dihedral angles (degree)
 ---------------------------------
O3-C2-O1-H4=181.96            C5-C2-O1-H4=  5.01            H6-C5-C2-O1=179.72            H6-C5-C2-O3=  2.72            
H7-C5-C2-O1= 62.11            H7-C5-C2-O3=245.12            N8-C5-C2-O1=301.32            N8-C5-C2-O3=124.32            
H9-N8-C5-C2=246.49            H9-N8-C5-H6=  7.65            H9-N8-C5-H7=127.00            C10-N8-C5-C2= 68.18           
C10-N8-C5-H6=189.35           C10-N8-C5-H7=308.70           O11-C10-N8-C5=357.00          O11-C10-N8-H9=178.67          
C12-C10-N8-C5=177.30          C12-C10-N8-H9=358.97          
           -------------------------------------------------
          |                Final Singlepoint                |
           -------------------------------------------------

          ...................................................
          :                      SETUP                      :
          :.................................................:
          :  # basis functions                  91          :
          :  # atomic orbitals                  91          :
          :  # shells                           53          :
          :  # electrons                       100          :
          :  max. iterations                   250          :
          :  Hamiltonian                  GFN2-xTB          :
          :  restarted?                      false          :
          :  GBSA solvation                  false          :
          :  PC potential                    false          :
          :  electronic temp.          300.0000000     K    :
          :  accuracy                    1.0000000          :
          :  -> integral cutoff          0.2500000E+02      :
          :  -> integral neglect         0.1000000E-07      :
          :  -> SCF convergence          0.1000000E-05 Eh   :
          :  -> wf. convergence          0.1000000E-03 e    :
          :  Broyden damping             0.4000000          :
          :  net charge                          0          :
          :  unpaired electrons                  0          :
          ...................................................

 iter      E             dE          RMSdq      gap      omega  full diag
   1    -57.2397979 -0.572398E+02  0.122E-05    3.39       0.0  T
   2    -57.2397979 -0.937916E-12  0.884E-06    3.39    1939.5  T
   3    -57.2397979 -0.183320E-11  0.502E-06    3.39    3417.9  T

   *** convergence criteria satisfied after 3 iterations ***

         #    Occupation            Energy/Eh            Energy/eV
      -------------------------------------------------------------
         1        2.0000           -0.7317817             -19.9128
       ...           ...                  ...                  ...
        44        2.0000           -0.4191323             -11.4052
        45        2.0000           -0.4108857             -11.1808
        46        2.0000           -0.4084253             -11.1138
        47        2.0000           -0.4000591             -10.8862
        48        2.0000           -0.3948218             -10.7436
        49        2.0000           -0.3754849             -10.2175
        50        2.0000           -0.3588667              -9.7653 (HOMO)
        51                         -0.2344643              -6.3801 (LUMO)
        52                         -0.2269824              -6.1765
        53                         -0.2241184              -6.0986
        54                         -0.1900788              -5.1723
        55                         -0.1555175              -4.2318
       ...                                ...                  ...
        91                          0.7236102              19.6904
      -------------------------------------------------------------
                  HL-Gap            0.1244024 Eh            3.3852 eV
             Fermi-level           -0.2966655 Eh           -8.0727 eV

 SCC (total)                   0 d,  0 h,  0 min,  0.167 sec
 SCC setup                      ...        0 min,  0.003 sec (  1.692%)
 Dispersion                     ...        0 min,  0.000 sec (  0.068%)
 classical contributions        ...        0 min,  0.001 sec (  0.500%)
 integral evaluation            ...        0 min,  0.001 sec (  0.374%)
 iterations                     ...        0 min,  0.145 sec ( 86.692%)
 molecular gradient             ...        0 min,  0.017 sec ( 10.375%)
 printout                       ...        0 min,  0.000 sec (  0.292%)

         :::::::::::::::::::::::::::::::::::::::::::::::::::::
         ::                     SUMMARY                     ::
         :::::::::::::::::::::::::::::::::::::::::::::::::::::
         :: total energy             -56.481077811372 Eh    ::
         :: gradient norm              0.000208708545 Eh/a0 ::
         :: HOMO-LUMO gap              3.385160961907 eV    ::
         ::.................................................::
         :: SCC energy               -57.238774684001 Eh    ::
         :: -> isotropic ES            0.098937454479 Eh    ::
         :: -> anisotropic ES          0.003416690291 Eh    ::
         :: -> anisotropic XC          0.019406163577 Eh    ::
         :: -> dispersion             -0.041579257758 Eh    ::
         :: repulsion energy           0.757696872628 Eh    ::
         :: add. restraining           0.000000000000 Eh    ::
         :: total charge               0.000000000000 e     ::
         :::::::::::::::::::::::::::::::::::::::::::::::::::::

           -------------------------------------------------
          |                Property Printout                |
           -------------------------------------------------

    * Orbital Energies and Occupations

         #    Occupation            Energy/Eh            Energy/eV
      -------------------------------------------------------------
         1        2.0000           -0.7317817             -19.9128
       ...           ...                  ...                  ...
        38        2.0000           -0.4615668             -12.5599
        39        2.0000           -0.4599415             -12.5156
        40        2.0000           -0.4482472             -12.1974
        41        2.0000           -0.4445540             -12.0969
        42        2.0000           -0.4424587             -12.0399
        43        2.0000           -0.4213950             -11.4667
        44        2.0000           -0.4191323             -11.4052
        45        2.0000           -0.4108857             -11.1808
        46        2.0000           -0.4084253             -11.1138
        47        2.0000           -0.4000591             -10.8862
        48        2.0000           -0.3948218             -10.7436
        49        2.0000           -0.3754849             -10.2175
        50        2.0000           -0.3588667              -9.7653 (HOMO)
        51                         -0.2344643              -6.3801 (LUMO)
        52                         -0.2269824              -6.1765
        53                         -0.2241184              -6.0986
        54                         -0.1900788              -5.1723
        55                         -0.1555175              -4.2318
        56                         -0.0651634              -1.7732
        57                         -0.0169411              -0.4610
        58                          0.0220722               0.6006
        59                          0.0332911               0.9059
        60                          0.0544190               1.4808
        61                          0.0830310               2.2594
       ...                                ...                  ...
        91                          0.7236102              19.6904
      -------------------------------------------------------------
                  HL-Gap            0.1244024 Eh            3.3852 eV
             Fermi-level           -0.2966655 Eh           -8.0727 eV

     #   Z          covCN         q      C6AA      α(0)
     1   8 O        1.654    -0.383    20.524     6.116
     2   6 C        2.684     0.360    20.897     7.481
     3   8 O        0.856    -0.378    21.245     6.180
     4   1 H        0.800     0.365     0.556     1.171
     5   6 C        3.737    -0.040    21.366     6.596
     6   1 H        0.925     0.078     1.996     2.210
     7   1 H        0.923     0.075     2.033     2.230
     8   7 N        2.687    -0.155    24.344     7.328
     9   1 H        0.860     0.206     1.077     1.626
    10   6 C        2.757     0.270    22.439     7.757
    11   8 O        0.859    -0.463    22.980     6.427
    12   6 C        3.786     0.031    20.060     6.379
    13   1 H        0.923     0.031     2.570     2.507
    14   7 N        2.634    -0.352    29.057     8.006
    15   1 H        0.860     0.141     1.462     1.894
    16   1 H        0.860     0.150     1.399     1.853
    17   6 C        3.807    -0.067    21.774     6.643
    18   1 H        0.924     0.057     2.229     2.335
    19   1 H        0.924     0.042     2.424     2.435
    20   6 C        3.057    -0.043    29.019     8.834
    21   6 C        3.032    -0.004    28.103     8.695
    22   1 H        0.926     0.034     2.526     2.485
    23   7 N        2.781    -0.098    23.150     7.146
    24   1 H        0.860     0.164     1.309     1.792
    25   6 C        3.088     0.048    26.828     8.490
    26   6 C        2.909    -0.044    29.094     8.845
    27   1 H        0.926     0.031     2.574     2.509
    28   6 C        2.925    -0.028    28.708     8.787
    29   1 H        0.926     0.035     2.511     2.478
    30   6 C        2.920    -0.039    28.961     8.825
    31   1 H        0.926     0.027     2.631     2.537
    32   6 C        2.912    -0.044    29.083     8.843
    33   1 H        0.925     0.017     2.786     2.610
    34   6 C        3.118    -0.026    28.484     8.742

 Mol. C6AA /au·bohr⁶  :      13338.876314
 Mol. C8AA /au·bohr⁸  :     312462.487545
 Mol. α(0) /au        :        178.790044


Wiberg/Mayer (AO) data.
largest (>0.10) Wiberg bond orders for each atom

 ---------------------------------------------------------------------------
     #   Z sym  total        # sym  WBO       # sym  WBO       # sym  WBO
 ---------------------------------------------------------------------------
     1   8 O    2.224 --     2 C    1.197     4 H    0.763     3 O    0.181
     2   6 C    3.931 --     3 O    1.775     1 O    1.197     5 C    0.926
     3   8 O    2.067 --     2 C    1.775     1 O    0.181
     4   1 H    0.867 --     1 O    0.763
     5   6 C    3.965 --     8 N    0.992     6 H    0.974     7 H    0.951
                             2 C    0.926
     6   1 H    0.994 --     5 C    0.974
     7   1 H    0.994 --     5 C    0.951
     8   7 N    3.485 --    10 C    1.312     5 C    0.992     9 H    0.924
                            11 O    0.192
     9   1 H    0.958 --     8 N    0.924
    10   6 C    3.946 --    11 O    1.599     8 N    1.312    12 C    0.949
    11   8 O    2.008 --    10 C    1.599     8 N    0.192
    12   6 C    3.981 --    14 N    1.012    13 H    0.960    17 C    0.955
                            10 C    0.949
    13   1 H    0.999 --    12 C    0.960
    14   7 N    3.006 --    12 C    1.012    15 H    0.965    16 H    0.962
    15   1 H    0.979 --    14 N    0.965
    16   1 H    0.977 --    14 N    0.962
    17   6 C    3.992 --    20 C    1.012    19 H    0.973    18 H    0.970
                            12 C    0.955
    18   1 H    0.996 --    17 C    0.970
    19   1 H    0.997 --    17 C    0.973
    20   6 C    3.972 --    21 C    1.574    34 C    1.204    17 C    1.012
    21   6 C    3.953 --    20 C    1.574    23 N    1.206    22 H    0.970
    22   1 H    0.998 --    21 C    0.970
    23   7 N    3.551 --    21 C    1.206    25 C    1.177    24 H    0.945
    24   1 H    0.972 --    23 N    0.945
    25   6 C    3.959 --    26 C    1.337    34 C    1.250    23 N    1.177
    26   6 C    3.990 --    28 C    1.498    25 C    1.337    27 H    0.968
                            32 C    0.114
    27   1 H    0.999 --    26 C    0.968
    28   6 C    3.991 --    26 C    1.498    30 C    1.368    29 H    0.972
    29   1 H    0.998 --    28 C    0.972
    30   6 C    3.990 --    32 C    1.508    28 C    1.368    31 H    0.972
    31   1 H    0.999 --    30 C    0.972
    32   6 C    3.992 --    30 C    1.508    34 C    1.326    33 H    0.967
                            26 C    0.114
    33   1 H    0.999 --    32 C    0.967
    34   6 C    3.983 --    32 C    1.326    25 C    1.250    20 C    1.204
 ---------------------------------------------------------------------------

Topologies differ in total number of bonds
Writing topology from bond orders to xtbtopo.mol

molecular dipole:
                 x           y           z       tot (Debye)
 q only:       -0.460      -1.477       0.061
   full:       -0.995      -1.889       0.324       5.489
molecular quadrupole (traceless):
                xx          xy          yy          xz          yz          zz
 q only:       -3.617       2.922      -2.921       8.629       6.937       6.538
  q+dip:       -3.046       8.195      -3.657       7.288       9.264       6.703
   full:       -2.064       6.526      -3.642       9.734       7.973       5.705

           -------------------------------------------------
          |                Geometry Summary                 |
           -------------------------------------------------

      molecular mass/u    :      261.2770023
   center of mass at/Å    :        0.0000000      -0.0000000       0.0000000
  moments of inertia/u·Å² :        0.8744851E+03   0.1307288E+04   0.1511011E+04
rotational constants/cm⁻¹ :        0.1927721E-01   0.1289512E-01   0.1115653E-01

 * 31 selected distances

     #   Z          #   Z                                           value/Å
     1   8 O        2   6 C                                       1.3188547
     2   6 C        3   8 O                                       1.1981676
     1   8 O        4   1 H                                       1.0006610 (min)
     5   6 C        6   1 H                                       1.0888772
     5   6 C        7   1 H                                       1.0984155
     5   6 C        8   7 N                                       1.4488174
     8   7 N        9   1 H                                       1.0083101
     8   7 N       10   6 C                                       1.3352445
    10   6 C       11   8 O                                       1.2275622
    12   6 C       13   1 H                                       1.1019179
    12   6 C       14   7 N                                       1.4582063 (max)
    14   7 N       15   1 H                                       1.0152032
    14   7 N       16   1 H                                       1.0146321
    17   6 C       18   1 H                                       1.0911215
    17   6 C       19   1 H                                       1.0914464
    20   6 C       21   6 C                                       1.3655586
    21   6 C       22   1 H                                       1.0730988
    21   6 C       23   7 N                                       1.3657138
    23   7 N       24   1 H                                       1.0051628
    23   7 N       25   6 C                                       1.3644132
    25   6 C       26   6 C                                       1.3887809
    26   6 C       27   1 H                                       1.0792185
    26   6 C       28   6 C                                       1.3765739
    28   6 C       29   1 H                                       1.0788916
    28   6 C       30   6 C                                       1.3975362
    30   6 C       31   1 H                                       1.0800955
    30   6 C       32   6 C                                       1.3753962
    32   6 C       33   1 H                                       1.0815139
    20   6 C       34   6 C                                       1.4299752
    25   6 C       34   6 C                                       1.4148826
    32   6 C       34   6 C                                       1.3957778

 * 6 distinct bonds (by element types)

   Z      Z             #   av. dist./Å        max./Å        min./Å
   1 H    6 C          10     1.0864597     1.1019179     1.0730988
   6 C    6 C           8     1.3930602     1.4299752     1.3655586
   1 H    7 N           4     1.0108271     1.0152032     1.0051628
   6 C    7 N           5     1.3944791     1.4582063     1.3352445
   1 H    8 O           1     1.0006610     1.0006610     1.0006610
   6 C    8 O           3     1.2481948     1.3188547     1.1981676


optimized geometry written to: xtbopt.xyz


           -------------------------------------------------
          | TOTAL ENERGY              -56.481077811372 Eh   |
          | GRADIENT NORM               0.000208708545 Eh/α |
          | HOMO-LUMO GAP               3.385160961907 eV   |
           -------------------------------------------------

------------------------------------------------------------------------
 * finished run on 2026/10/01 at 18:03:07.819     
------------------------------------------------------------------------
 total:
 * wall-time:     0 d,  0 h,  0 min,  0.993 sec
 *  cpu-time:     0 d,  0 h,  0 min, 13.500 sec
 * ratio c/w:    13.590 speedup
 SCF:
 * wall-time:     0 d,  0 h,  0 min,  0.730 sec
 *  cpu-time:     0 d,  0 h,  0 min,  9.927 sec
 * ratio c/w:    13.597 speedup
 ANC optimizer:
 * wall-time:     0 d,  0 h,  0 min,  0.248 sec
 *  cpu-time:     0 d,  0 h,  0 min,  3.369 sec
 * ratio c/w:    13.576 speedup


--- STDERR ---
normal termination of xtb
Note: The following floating-point exceptions are signalling: IEEE_UNDERFLOW_FLAG IEEE_DENORMAL
