34
 energy: -56.481077811372 gnorm: 0.000208708545 xtb: 6.7.1-6.fc44.fc44
O           -0.81756627760000        2.17493143040000        0.05765061210000
C           -0.43598781340000        1.90590525240000       -1.17579995750000
O            0.47603414690000        2.46419736700000       -1.71629159390000
H           -1.57387364040000        1.58952249400000        0.35195958910000
C           -1.29899122000000        0.85996266950000       -1.91704966190000
H           -0.88987956620000        0.72929179350000       -2.91765255840000
H           -2.31187996640000        1.27862182800000       -1.98983283740000
N           -1.36463847990000       -0.43102315470000       -1.26274273430000
H           -0.94448727660000       -1.22890249270000       -1.71390856980000
C           -1.98164134300000       -0.64688412030000       -0.09844502080000
O           -2.51057083340000        0.24430634410000        0.55952287920000
C           -1.97008388130000       -2.10008453050000        0.35546842780000
H           -2.71499651150000       -2.18145958070000        1.16337066680000
N           -2.24786572620000       -2.95684172960000       -0.79134002170000
H           -3.18544435620000       -2.78907992970000       -1.14267979550000
H           -2.19513249840000       -3.93197592620000       -0.51600263440000
C           -0.56194938330000       -2.43849924430000        0.91152605850000
H           -0.02104659520000       -2.98208158500000        0.13532480090000
H           -0.66490017840000       -3.09167174360000        1.77987036050000
C            0.21214146410000       -1.21027175670000        1.26993240380000
C            0.05318947720000       -0.41528727850000        2.36878812220000
H           -0.61623337940000       -0.53557386560000        3.19881527510000
N            0.90630284390000        0.64931421730000        2.30558111700000
H            0.93897653530000        1.40912118410000        2.96283142610000
C            1.62623340600000        0.57729766340000        1.14880256380000
C            2.59267600250000        1.42957732720000        0.63080628480000
H            2.88329051610000        2.32548376510000        1.15769066620000
C            3.14922574710000        1.09931633510000       -0.58415679610000
H            3.89365098390000        1.74529340970000       -1.02296367400000
C            2.76353691270000       -0.05604121900000       -1.26935748560000
H            3.22473976690000       -0.27733917070000       -2.22063300940000
C            1.80881718990000       -0.90573794620000       -0.76118422400000
H            1.52349117000000       -1.79916411180000       -1.29974785260000
C            1.22072060730000       -0.59341620000000        0.46551580970000
