68
 energy: -106.573014688813 gnorm: 0.000720414372 xtb: 6.7.1-6.fc44.fc44
O            1.08533607017360       -0.34123274395073        1.33868694464326
O            0.90613984237705       -0.84004870059565       -1.59806375479740
O           -3.25345829024529       -2.58341886666123        0.12688883491984
O           -3.26242668625741        3.16104424047697        0.18934097317447
O           -1.29887976861378        1.64031004871157       -1.40398569568638
O            2.16680951067332        2.81563175178479        1.25634782851098
N            0.38494604685629       -2.55852267588084       -0.28116149159133
N           -2.19467406548441       -0.89036949917554       -0.92966272235759
N           -3.81211978058523        0.99778019801303        0.27140318868903
N           -0.60040680991133        2.32058421960732        0.63038980759401
N            1.91762760915333        1.73962761627035       -0.71672434739906
N            3.16435544621247       -0.50983868651419        0.51291596321334
C            1.93933080472658       -0.99915215946439        0.76983968526928
C            1.67805043589259       -2.45643474550435        0.38258332890573
C            1.51492663137622       -3.34329983002582        1.61654928618576
C            0.57581320019639       -4.43784976867141        1.11948942283288
C           -0.39751449033217       -3.67600575951333        0.22071434676837
C            0.07547351797597       -1.66299024481634       -1.22560446719150
C           -1.35165052355431       -1.70371139407282       -1.78586303530913
C           -1.38061503278297       -1.14556907359304       -3.20336169944483
C           -3.06927160174930       -1.39114422167128       -0.05723591976179
C           -3.84229076681296       -0.35057807955250        0.78621785511659
C           -5.29323591246235       -0.80902124671376        0.92864409960070
C           -2.99051932407053        2.03675181827416        0.55064228019834
C           -1.71645653687352        1.74440243827280        1.35730289556922
C           -1.81803382775267        2.40318662818027        2.72773874311801
C           -0.45834614481128        2.16161814719783       -0.68498133434325
C            0.89505758546796        2.64455255663453       -1.21929801927645
C            0.92230619415047        2.64677220431529       -2.73855149995552
C            2.42467698754358        1.87998650740280        0.51816442866263
C            3.49518332271277        0.85716460618797        0.89363411964142
C            4.80903687842959        1.13907678722423        0.15993308734674
C            5.45755653990481       -0.23892463451047        0.08233632980427
C            4.26757095978789       -1.16399105134020       -0.16860481698603
H            2.45301902041015       -2.83532425047989       -0.29170936465712
H            2.46644255173818       -3.72593540641588        1.98096577845650
H            1.03544848926241       -2.76279738133881        2.40611253265881
H            1.13517133543367       -5.17189049873152        0.53690944532302
H            0.06468405110721       -4.95273539058817        1.92940164609716
H           -0.75605455381139       -4.29630246882653       -0.60407107668546
H           -1.26593330161909       -3.32218439961535        0.78088324757074
H           -2.06266527032566        0.11919088090861       -1.03863841814058
H           -1.74174739298662       -2.72557855357798       -1.75343648131560
H           -2.38381831424835       -1.22222118876533       -3.61385978589815
H           -0.69019040616094       -1.69431120136834       -3.83881757041664
H           -1.08680561647830       -0.09959454247809       -3.17849307746098
H           -4.59123964055559        1.25102828135265       -0.32250846083599
H           -3.37699258390067       -0.36883020529888        1.77976838195815
H           -5.82222953167834       -0.18701076950300        1.64620599345166
H           -5.30921453480638       -1.84212800205144        1.26425628432105
H           -5.79970388957001       -0.75376293020590       -0.03274169409285
H            0.16984227315983        2.70032629188058        1.17007766124425
H           -1.54013841636925        0.66673377745652        1.45970954557426
H           -2.62967925317214        1.96160671110244        3.30090128596442
H           -2.01422892866450        3.46540746170089        2.60396353211181
H           -0.88745628992087        2.26773081659101        3.27264160858940
H            1.91768754290955        0.82554658684587       -1.15824864044167
H            1.10829460908289        3.63869087485212       -0.81145609343404
H            1.87523651596789        3.02274904574249       -3.10174501403338
H            0.11954254481712        3.27197396959289       -3.11792920852042
H            0.77293018536117        1.63297999022043       -3.10227731068003
H            3.62468032215187        0.91632458934629        1.98219413870185
H            5.41844806532534        1.86998698162318        0.68534287754418
H            4.59514950009920        1.51326000677724       -0.84221149488529
H            5.92710567805632       -0.48551789218022        1.03495820901459
H            6.20523887058676       -0.30940530292363       -0.70460422598137
H            4.05131832640377       -1.24372136536917       -1.24076639918977
H            4.44823349855957       -2.16232889404586        0.23557950444807
