34
frame_0011
O      -0.662075619900000      2.099344486500000      0.768147399800000
C      -1.507705604600000      2.291069601400000     -0.223508729000000
O      -1.341530039000000      3.126318020200000     -1.070011258100000
H      -0.865292891300000      1.267756780800000      1.283239681000000
C      -2.751928469800000      1.375540630700000     -0.211668311300000
H      -3.447980354200000      1.718673864100000     -0.975760763600000
H      -3.220634503800000      1.456321605800000      0.777240255700000
N      -2.406044761800000     -0.008296410700000     -0.469206291900000
H      -2.709015335800000     -0.446493147200000     -1.324818371600000
C      -1.701270933300000     -0.756544278900000      0.388498724200000
O      -1.302527746000000     -0.338006677700000      1.468383399500000
C      -1.414477234700000     -2.162208108700000     -0.117826424100000
H      -1.010164052600000     -2.731937890700000      0.733141407000000
N      -2.634003443200000     -2.723602357700000     -0.687141897700000
H      -3.332651307300000     -2.862639035400000      0.036022907900000
H      -2.437777978800000     -3.629567798700000     -1.099883776800000
C      -0.342535040800000     -2.052976057900000     -1.230602633100000
H      -0.860072099900000     -1.920589233000000     -2.183137877800000
H       0.225949867300000     -2.984280357000000     -1.273738642700000
C       0.569938291500000     -0.891791598000000     -0.999792919200000
C       0.548159635400000      0.305694904000000     -1.657789079900000
H      -0.064657069400000      0.615609802500000     -2.483652169600000
N       1.479890630900000      1.152420754300000     -1.130561721400000
H       1.583060157000000      2.120984143300000     -1.381284748800000
C       2.106112165700000      0.528643003800000     -0.092044939900000
C       3.102567941700000      0.980095479100000      0.763975915500000
H       3.499500157500000      1.980221154900000      0.675244449700000
C       3.556630674700000      0.108949888000000      1.729379364800000
H       4.328083121000000      0.427658962600000      2.414786815200000
C       3.039577134500000     -1.185059561900000      1.842750878100000
H       3.425953965900000     -1.835841467900000      2.613632767200000
C       2.052786092800000     -1.638899188500000      0.998555722600000
H       1.659240732400000     -2.640024452800000      1.094915199400000
C       1.568774835400000     -0.777132042000000      0.014927029400000
