34
 energy: -56.480926865279 gnorm: 0.000134584740 xtb: 6.7.1-6.fc44.fc44
O           -0.66207561990000        2.09934448650000        0.76814739980000
C           -1.50770560460000        2.29106960140000       -0.22350872900000
O           -1.34153003900000        3.12631802020000       -1.07001125810000
H           -0.86529289130000        1.26775678080000        1.28323968100000
C           -2.75192846980000        1.37554063070000       -0.21166831130000
H           -3.44798035420000        1.71867386410000       -0.97576076360000
H           -3.22063450380000        1.45632160580000        0.77724025570000
N           -2.40604476180000       -0.00829641070000       -0.46920629190000
H           -2.70901533580000       -0.44649314720000       -1.32481837160000
C           -1.70127093330000       -0.75654427890000        0.38849872420000
O           -1.30252774600000       -0.33800667770000        1.46838339950000
C           -1.41447723470000       -2.16220810870000       -0.11782642410000
H           -1.01016405260000       -2.73193789070000        0.73314140700000
N           -2.63400344320000       -2.72360235770000       -0.68714189770000
H           -3.33265130730000       -2.86263903540000        0.03602290790000
H           -2.43777797880000       -3.62956779870000       -1.09988377680000
C           -0.34253504080000       -2.05297605790000       -1.23060263310000
H           -0.86007209990000       -1.92058923300000       -2.18313787780000
H            0.22594986730000       -2.98428035700000       -1.27373864270000
C            0.56993829150000       -0.89179159800000       -0.99979291920000
C            0.54815963540000        0.30569490400000       -1.65778907990000
H           -0.06465706940000        0.61560980250000       -2.48365216960000
N            1.47989063090000        1.15242075430000       -1.13056172140000
H            1.58306015700000        2.12098414330000       -1.38128474880000
C            2.10611216570000        0.52864300380000       -0.09204493990000
C            3.10256794170000        0.98009547910000        0.76397591550000
H            3.49950015750000        1.98022115490000        0.67524444970000
C            3.55663067470000        0.10894988800000        1.72937936480000
H            4.32808312100000        0.42765896260000        2.41478681520000
C            3.03957713450000       -1.18505956190000        1.84275087810000
H            3.42595396590000       -1.83584146790000        2.61363276720000
C            2.05278609280000       -1.63889918850000        0.99855572260000
H            1.65924073240000       -2.64002445280000        1.09491519940000
C            1.56877483540000       -0.77713204200000        0.01492702940000
