34
frame_0047
O      -3.006872205800000      2.494733009000000      0.925122874800000
C      -3.661984665300000      2.349201744200000     -0.209265691500000
O      -4.777377969100000      2.752420306500000     -0.382884409200000
H      -2.108991705600000      2.056845378600000      0.904757420800000
C      -2.868552294700000      1.642727471500000     -1.331504581900000
H      -1.980637845100000      2.255620366700000     -1.534335191100000
H      -3.491633235200000      1.599612350800000     -2.223893118600000
N      -2.444268279800000      0.302149212600000     -0.983190842000000
H      -2.878341332000000     -0.497316123400000     -1.424696183600000
C      -1.479581390800000      0.034892348400000     -0.094554036400000
O      -0.938972063700000      0.896810582900000      0.589239782800000
C      -1.090646349900000     -1.433692837800000     -0.042546586200000
H      -0.666754015900000     -1.630909925500000      0.954645278300000
N      -2.256048590500000     -2.247595828600000     -0.369463918800000
H      -2.930687825400000     -2.220506026600000      0.388565829000000
H      -1.981510253400000     -3.215415508200000     -0.499158693900000
C       0.013453409400000     -1.668047085000000     -1.096562341500000
H      -0.387825182900000     -1.426367358700000     -2.082770183600000
H       0.280344306700000     -2.727754874700000     -1.082716106500000
C       1.218726804800000     -0.840117543600000     -0.804513395900000
C       1.556367686500000      0.357859232200000     -1.362506192700000
H       1.057688927100000      0.908090479300000     -2.138118738600000
N       2.707398718700000      0.833023035600000     -0.799389743300000
H       3.146253473700000      1.709730791100000     -1.022054641200000
C       3.131751296300000     -0.046342326000000      0.153206594900000
C       4.237116048000000     -0.005222686200000      0.993346244000000
H       4.928465607800000      0.824194570000000      0.964625118400000
C       4.416327688000000     -1.058058389700000      1.863846465500000
H       5.263623092400000     -1.058046909000000      2.533387694600000
C       3.521333754300000     -2.131109136200000      1.899715564600000
H       3.699885304500000     -2.936519949100000      2.597136782200000
C       2.424978200300000     -2.177915317500000      1.069299200000000
H       1.741846249000000     -3.014231021500000      1.104988611600000
C       2.215139760300000     -1.124632407000000      0.179285700300000
