34
 energy: -56.477696928946 gnorm: 0.000077367684 xtb: 6.7.1-6.fc44.fc44
O           -3.00687220580000        2.49473300900000        0.92512287480000
C           -3.66198466530000        2.34920174420000       -0.20926569150000
O           -4.77737796910000        2.75242030650000       -0.38288440920000
H           -2.10899170560000        2.05684537860000        0.90475742080000
C           -2.86855229470000        1.64272747150000       -1.33150458190000
H           -1.98063784510000        2.25562036670000       -1.53433519110000
H           -3.49163323520000        1.59961235080000       -2.22389311860000
N           -2.44426827980000        0.30214921260000       -0.98319084200000
H           -2.87834133200000       -0.49731612340000       -1.42469618360000
C           -1.47958139080000        0.03489234840000       -0.09455403640000
O           -0.93897206370000        0.89681058290000        0.58923978280000
C           -1.09064634990000       -1.43369283780000       -0.04254658620000
H           -0.66675401590000       -1.63090992550000        0.95464527830000
N           -2.25604859050000       -2.24759582860000       -0.36946391880000
H           -2.93068782540000       -2.22050602660000        0.38856582900000
H           -1.98151025340000       -3.21541550820000       -0.49915869390000
C            0.01345340940000       -1.66804708500000       -1.09656234150000
H           -0.38782518290000       -1.42636735870000       -2.08277018360000
H            0.28034430670000       -2.72775487470000       -1.08271610650000
C            1.21872680480000       -0.84011754360000       -0.80451339590000
C            1.55636768650000        0.35785923220000       -1.36250619270000
H            1.05768892710000        0.90809047930000       -2.13811873860000
N            2.70739871870000        0.83302303560000       -0.79938974330000
H            3.14625347370000        1.70973079110000       -1.02205464120000
C            3.13175129630000       -0.04634232600000        0.15320659490000
C            4.23711604800000       -0.00522268620000        0.99334624400000
H            4.92846560780000        0.82419457000000        0.96462511840000
C            4.41632768800000       -1.05805838970000        1.86384646550000
H            5.26362309240000       -1.05804690900000        2.53338769460000
C            3.52133375430000       -2.13110913620000        1.89971556460000
H            3.69988530450000       -2.93651994910000        2.59713678220000
C            2.42497820030000       -2.17791531750000        1.06929920000000
H            1.74184624900000       -3.01423102150000        1.10498861160000
C            2.21513976030000       -1.12463240700000        0.17928570030000
