68
 energy: -106.573605377873 gnorm: 0.000766675525 xtb: 6.7.1-6.fc44.fc44
O            1.21575301186654       -0.18277722730398        1.45605061398856
O            1.00470768597747       -0.90583938953282       -1.64560766336469
O           -3.44702793124189       -2.61974803397298       -0.22222973334052
O           -3.20166363565497        3.08292039841351        0.40835906520853
O           -1.33202217419863        1.65217058659356       -1.37728376418757
O            2.26607539667775        2.84228741019972        1.25115691609063
N            0.30287480139682       -2.34052092624895       -0.09527258943448
N           -2.21468580484964       -0.88380531430467       -0.97882884962062
N           -3.86571319716719        0.95600695302736        0.25984448013709
N           -0.58541483233210        2.08989183478343        0.70306682475700
N            1.92444300587197        1.77022158449925       -0.70845258332915
N            3.22423947170659       -0.46207662849476        0.50013599126024
C            2.00394407948284       -0.89214248703351        0.85245093509532
C            1.63434132621415       -2.33413883177604        0.50291269893997
C            1.49529660996137       -3.20268522155395        1.75628679885521
C            0.30146546049913       -4.09750494876964        1.43121909524686
C           -0.61957163196782       -3.14152144263849        0.68171745963135
C            0.09506723295016       -1.58625888908554       -1.18203273620725
C           -1.30302722582851       -1.64175057624504       -1.81100365569023
C           -1.27693323107520       -1.05848326232226       -3.21855122539231
C           -3.19723898057460       -1.42682149060775       -0.25892562074578
C           -3.98090155677862       -0.43482497669930        0.63446803326893
C           -5.45401538203111       -0.83670192087028        0.64941633787527
C           -2.98601505297843        1.91319480075690        0.63924049104942
C           -1.71221252327259        1.47011643499692        1.37720940683785
C           -1.75840927852415        1.94904694009096        2.82269963750914
C           -0.47409489055229        2.09357252042175       -0.62426614446595
C            0.85530350683419        2.65482871093256       -1.13988307966785
C            0.85828002072723        2.75891010347836       -2.65674354172926
C            2.50574786008888        1.91955045703302        0.49457461618497
C            3.61547179150262        0.91111845882943        0.79227985285821
C            4.84790029896099        1.13886834486801       -0.08577072586452
C            5.45991123990433       -0.25554054285666       -0.18120907176397
C            4.23438452289515       -1.16388918183172       -0.27067766401184
H            2.33616879760784       -2.75865893044222       -0.22046868244323
H            2.40493582455989       -3.76044934888253        1.96990828680949
H            1.26035104815699       -2.56441183899220        2.60942372098716
H            0.60714241872843       -4.91520715936938        0.77684394565747
H           -0.16819698444516       -4.51345655288978        2.31919919285748
H           -1.35359152679310       -3.64759562379347        0.05613623415038
H           -1.15846485272448       -2.50194847344122        1.39028777188055
H           -2.09666189436250        0.13176640135733       -1.04356025714297
H           -1.65324781738844       -2.68019287232226       -1.82876931798170
H           -0.51314549533251       -1.55043737391907       -3.81455073594489
H           -1.05372709451730        0.00353123379935       -3.16173227538414
H           -2.24530968482429       -1.19198740333082       -3.69344887555737
H           -4.63684772867840        1.31959466126942       -0.28521235516597
H           -3.57482269862127       -0.56925309957629        1.64609306257418
H           -5.99994450792462       -0.26773155259227        1.39757202326975
H           -5.53082577602522       -1.89694033089720        0.87363637615328
H           -5.89859005108695       -0.66133632653476       -0.32786500224188
H            0.18067106341490        2.42567090140904        1.27304672807347
H           -1.58584022846875        0.38129928355768        1.34053414567890
H           -2.57301483592520        1.46502140035305        3.35668968679969
H           -1.91543779277871        3.02481001477500        2.84419206736132
H           -0.81979144206974        1.70968261195283        3.31675332307235
H            1.94480532820318        0.86911863445836       -1.17498129797173
H            1.03390515050199        3.62954684277206       -0.67221856412700
H            0.01763955472379        3.36427827874287       -2.98285637273080
H            0.75804839419795        1.76637722665656       -3.08921682298422
H            1.78409228034453        3.20985188729327       -3.00424741358554
H            3.85857874276557        1.00726093862407        1.85840002094927
H            5.52384587618145        1.87298401646285        0.34547933989572
H            4.53669567106142        1.48321328965165       -1.07290944778628
H            6.02418653253564       -0.47900080406684        0.72475560277384
H            6.11766255581805       -0.36864060707612       -1.03988647253784
H            3.89966740573681       -1.27412330392982       -1.30935412652506
H            4.43590019799763       -2.15192873174816        0.14887871109951
