34
frame_0068
O      -3.374142046430692      2.542223115685992     -1.823662513390417
C      -4.004049114456863      2.516526213639845     -1.133455491994124
O      -4.747550632839146      3.209615052495744     -0.461910486159259
H      -2.786174405412698      1.555866984273226     -2.271242246063597
C      -4.263923221465426      0.870856899671578     -0.662663999562505
H      -4.556573530628282      0.705051015509194     -1.385796317420786
H      -5.176184414661519      0.826613071023925      0.324254364081269
N      -3.220440617234173      0.471643143292248     -0.083160199137270
H      -2.929709256657029      0.290029779317035      1.082320165827696
C      -2.002174965646943     -0.136006137204913     -0.751935931718766
O      -1.957797375096046      0.260168459396554     -2.050591693387468
C      -0.865467548870039     -0.729196960719166      0.027407039009556
H      -1.108191643669079     -0.912164090622940      0.970834459207192
N      -0.446604477674069     -1.767283367789378     -0.690942266843832
H       0.419053663823431     -2.030134716710937     -0.278337914341287
H      -0.563662832324193     -1.609790877831514     -1.648375536596844
C       0.226899793842758      0.646736836996987      0.218283173037111
H      -0.212165618364463      1.298779174403963      0.925972248708329
H       0.257495515810898      0.541999949594775     -0.677054730061324
C       1.226490791960615      0.069206904073614      0.873787394694228
C       1.580178237468633     -0.118925581153259      2.280975410664299
H       0.724427157669610      0.437467371731720      3.092870894430617
N       2.653797889886142     -0.501864523584446      2.691960691636590
H       3.059936489552959     -0.690130055706716      3.686395180375452
C       3.193222583026449     -1.080621153705382      1.569258702504776
C       4.508983893701685     -1.828835769774498      1.498970603475778
H       5.150839651791735     -2.016802447987562      2.550788401023661
C       5.038009310721571     -2.253553058104925      0.113791648905573
H       5.800288180322910     -2.667829944639971     -0.115003414011562
C       3.980633031365348     -1.633241248617057     -1.025438450155088
H       4.424982057067790     -1.966353832066795     -1.953421046379340
C       3.141687133080142     -0.993770308483838     -0.912852159654095
H       2.307263166767203     -0.856496996951871     -1.728453322350628
C       2.521722392411722     -0.538122661069348      0.418368173587615
