34
 energy: -56.474675076606 gnorm: 0.000320249447 xtb: 6.7.1-6.fc44.fc44
O           -3.20489924487313        2.55544963125501       -1.98907679634761
C           -4.08818643082627        2.43367129582044       -1.01690381310860
O           -4.69087468573659        3.35975944032409       -0.55360685967575
H           -2.77153415915865        1.68704408545717       -2.21159389945970
C           -4.30574251616676        0.98630517579479       -0.52256671064673
H           -4.61155524508059        0.38103993151131       -1.38472201595210
H           -5.09799475454599        0.98475803705713        0.22454242586935
N           -3.10427547167385        0.40512944371025        0.05298398868291
H           -3.07918941627135        0.27187510569987        1.05025800536918
C           -2.07167394745296       -0.00753882916536       -0.70129601212030
O           -2.03816902733239        0.18179547837651       -1.91137892702164
C           -0.91970315870051       -0.65442676788237        0.04344027594672
H           -1.23623773441346       -0.97844735818655        1.04302984450930
N           -0.49788303749062       -1.82538146291355       -0.69153971147355
H            0.41043645921976       -2.13962293492920       -0.36717747349300
H           -0.42386582822736       -1.59447660440848       -1.67781190044502
C            0.17144931074988        0.44774117806298        0.20050449603791
H           -0.26990304261857        1.31122471189711        0.70353070945963
H            0.49316446136515        0.75468234603727       -0.79675630655051
C            1.33312627535242       -0.06055449337749        0.98332427149264
C            1.48246803915885       -0.03172988949786        2.34019357206876
H            0.83193527038565        0.38740576318243        3.08440631008325
N            2.65869256401769       -0.63054735838337        2.69874726583038
H            3.00404924843796       -0.72157287819387        3.63860313417971
C            3.29778038911799       -1.06404873881682        1.57392571705292
C            4.51140143209754       -1.72292599852295        1.42175531614746
H            5.11920409597071       -1.97450244827159        2.27844376163249
C            4.90958303209968       -2.03864557479745        0.14136326253954
H            5.84778808480752       -2.54995420873092       -0.01401094184527
C            4.12483406197078       -1.70492609400407       -0.96650356164227
H            4.47665194338300       -1.96679106135481       -1.95331274722076
C            2.92236859602183       -1.05176294321732       -0.82311105731348
H            2.32956616766390       -0.79375478511590       -1.68851243192081
C            2.48828750759065       -0.72461095603361        0.46276964127558
