68
frame_0008
O       2.066780654500000     -1.596464978600000      1.287489605900000
O      -1.277872580400000     -4.226538193100000      1.343984556000000
O      -0.668797119700000      0.073957241100000     -0.733005301000000
O      -0.994145706200000      2.986106514300000     -2.587038053000000
O      -2.182593840100000      1.336712751000000      1.750160695000000
O       1.828599709600000      2.818405330600000      0.403073704500000
N       0.381607526100000     -3.444692909900000      0.072908801000000
N      -2.094197953000000     -1.311246137800000      0.320257870700000
N      -2.496712682400000      1.412221623400000     -2.072826339100000
N      -0.922913589900000      2.758534213100000      0.530924743400000
N       1.237535474700000      1.068056714100000      1.722055868400000
N       2.296509666000000     -0.366070536900000     -0.573772759500000
C       1.863704698600000     -1.445463959200000      0.085572060800000
C       1.098971604800000     -2.480635795500000     -0.744809030800000
C       2.071088315700000     -3.346107885500000     -1.568234627600000
C       2.277918899400000     -4.574858715800000     -0.687576471900000
C       0.886356091400000     -4.796883922600000     -0.120323875000000
C      -0.682131905700000     -3.270452035200000      0.880463459500000
C      -1.090678915200000     -1.831960721400000      1.234755053900000
C      -1.632414464100000     -1.800678805900000      2.659073217800000
C      -1.808970785800000     -0.285986474100000     -0.491408122200000
C      -3.006894669700000      0.419583148500000     -1.153110571200000
C      -3.916376593900000     -0.544634325400000     -1.908707205000000
C      -1.741169811900000      2.500719536600000     -1.764544138100000
C      -1.965487476300000      3.155783339300000     -0.391827448800000
C      -1.939424344100000      4.673126188900000     -0.557132100600000
C      -1.114413805600000      1.885030116200000      1.519825737400000
C       0.107246959800000      1.652591566400000      2.431223059700000
C       0.490709811600000      2.950382377300000      3.145609813900000
C       1.957272999200000      1.659464457400000      0.761962429100000
C       2.992935100800000      0.714312256200000      0.119089962100000
C       3.749880445800000      1.418065504100000     -0.999177925700000
C       2.761728330500000      1.326172720300000     -2.160395049300000
C       2.103610803100000     -0.043885769500000     -1.978096383400000
H       0.397092570900000     -1.934864900600000     -1.383049801000000
H       1.607368052000000     -3.632172572700000     -2.513470340400000
H       3.006887281000000     -2.831565591700000     -1.777209854100000
H       2.648645855700000     -5.433768824500000     -1.242369430400000
H       2.973380078100000     -4.340706782400000      0.118524953100000
H       0.244660938100000     -5.339153827700000     -0.825120312000000
H       0.872278836900000     -5.326754383700000      0.832728932000000
H      -3.052201303300000     -1.499289982800000      0.571022806200000
H      -0.229024435300000     -1.172316659100000      1.140255059400000
H      -0.829730307400000     -2.012120307700000      3.360326782000000
H      -2.398433917600000     -2.564112607100000      2.776291304300000
H      -2.051651661400000     -0.818672947100000      2.866331528000000
H      -2.245161915700000      1.030062812600000     -2.978555968900000
H      -3.566459903500000      0.911115764000000     -0.350294936700000
H      -4.389415067100000     -1.249956066000000     -1.231804340700000
H      -3.347781859300000     -1.104557256300000     -2.648918810000000
H      -4.695238400000000      0.016436254500000     -2.419905872400000
H       0.019949777200000      3.092683326700000      0.337756510100000
H      -2.917846752800000      2.833752987800000      0.038576086900000
H      -2.015922771200000      5.156018728100000      0.413622695100000
H      -2.768257909000000      4.994120646800000     -1.182440847700000
H      -1.009747301400000      4.967943926000000     -1.037150153600000
H       1.463974519300000      0.100073898100000      1.929334526500000
H      -0.205416973100000      0.913820207700000      3.175267408600000
H       1.270016018100000      2.749629669700000      3.877468105100000
H      -0.378061618200000      3.354919021100000      3.658481814500000
H       0.860480800200000      3.684868574400000      2.436690310700000
H       3.634128721100000      0.293074544000000      0.899909429100000
H       4.675377460100000      0.886655766900000     -1.223726476000000
H       3.975670227200000      2.448289032200000     -0.735117160300000
H       3.245050962400000      1.418838454900000     -3.130486795000000
H       2.014170290500000      2.112234781600000     -2.065819135000000
H       1.039134091300000     -0.002442343000000     -2.212750323500000
H       2.582792684200000     -0.801300738500000     -2.605638998700000
