68
 energy: -106.565665037037 gnorm: 0.000138207809 xtb: 6.7.1-6.fc44.fc44
O            2.06678065450000       -1.59646497860000        1.28748960590000
O           -1.27787258040000       -4.22653819310000        1.34398455600000
O           -0.66879711970000        0.07395724110000       -0.73300530100000
O           -0.99414570620000        2.98610651430000       -2.58703805300000
O           -2.18259384010000        1.33671275100000        1.75016069500000
O            1.82859970960000        2.81840533060000        0.40307370450000
N            0.38160752610000       -3.44469290990000        0.07290880100000
N           -2.09419795300000       -1.31124613780000        0.32025787070000
N           -2.49671268240000        1.41222162340000       -2.07282633910000
N           -0.92291358990000        2.75853421310000        0.53092474340000
N            1.23753547470000        1.06805671410000        1.72205586840000
N            2.29650966600000       -0.36607053690000       -0.57377275950000
C            1.86370469860000       -1.44546395920000        0.08557206080000
C            1.09897160480000       -2.48063579550000       -0.74480903080000
C            2.07108831570000       -3.34610788550000       -1.56823462760000
C            2.27791889940000       -4.57485871580000       -0.68757647190000
C            0.88635609140000       -4.79688392260000       -0.12032387500000
C           -0.68213190570000       -3.27045203520000        0.88046345950000
C           -1.09067891520000       -1.83196072140000        1.23475505390000
C           -1.63241446410000       -1.80067880590000        2.65907321780000
C           -1.80897078580000       -0.28598647410000       -0.49140812220000
C           -3.00689466970000        0.41958314850000       -1.15311057120000
C           -3.91637659390000       -0.54463432540000       -1.90870720500000
C           -1.74116981190000        2.50071953660000       -1.76454413810000
C           -1.96548747630000        3.15578333930000       -0.39182744880000
C           -1.93942434410000        4.67312618890000       -0.55713210060000
C           -1.11441380560000        1.88503011620000        1.51982573740000
C            0.10724695980000        1.65259156640000        2.43122305970000
C            0.49070981160000        2.95038237730000        3.14560981390000
C            1.95727299920000        1.65946445740000        0.76196242910000
C            2.99293510080000        0.71431225620000        0.11908996210000
C            3.74988044580000        1.41806550410000       -0.99917792570000
C            2.76172833050000        1.32617272030000       -2.16039504930000
C            2.10361080310000       -0.04388576950000       -1.97809638340000
H            0.39709257090000       -1.93486490060000       -1.38304980100000
H            1.60736805200000       -3.63217257270000       -2.51347034040000
H            3.00688728100000       -2.83156559170000       -1.77720985410000
H            2.64864585570000       -5.43376882450000       -1.24236943040000
H            2.97338007810000       -4.34070678240000        0.11852495310000
H            0.24466093810000       -5.33915382770000       -0.82512031200000
H            0.87227883690000       -5.32675438370000        0.83272893200000
H           -3.05220130330000       -1.49928998280000        0.57102280620000
H           -0.22902443530000       -1.17231665910000        1.14025505940000
H           -0.82973030740000       -2.01212030770000        3.36032678200000
H           -2.39843391760000       -2.56411260710000        2.77629130430000
H           -2.05165166140000       -0.81867294710000        2.86633152800000
H           -2.24516191570000        1.03006281260000       -2.97855596890000
H           -3.56645990350000        0.91111576400000       -0.35029493670000
H           -4.38941506710000       -1.24995606600000       -1.23180434070000
H           -3.34778185930000       -1.10455725630000       -2.64891881000000
H           -4.69523840000000        0.01643625450000       -2.41990587240000
H            0.01994977720000        3.09268332670000        0.33775651010000
H           -2.91784675280000        2.83375298780000        0.03857608690000
H           -2.01592277120000        5.15601872810000        0.41362269510000
H           -2.76825790900000        4.99412064680000       -1.18244084770000
H           -1.00974730140000        4.96794392600000       -1.03715015360000
H            1.46397451930000        0.10007389810000        1.92933452650000
H           -0.20541697310000        0.91382020770000        3.17526740860000
H            1.27001601810000        2.74962966970000        3.87746810510000
H           -0.37806161820000        3.35491902110000        3.65848181450000
H            0.86048080020000        3.68486857440000        2.43669031070000
H            3.63412872110000        0.29307454400000        0.89990942910000
H            4.67537746010000        0.88665576690000       -1.22372647600000
H            3.97567022720000        2.44828903220000       -0.73511716030000
H            3.24505096240000        1.41883845490000       -3.13048679500000
H            2.01417029050000        2.11223478160000       -2.06581913500000
H            1.03913409130000       -0.00244234300000       -2.21275032350000
H            2.58279268420000       -0.80130073850000       -2.60563899870000
