34
frame_0061
O      -2.776151896300000      2.432954885500000     -0.933814036600000
C      -1.789357148700000      2.270029654800000     -1.792538915200000
O      -1.779297616400000      2.760216717000000     -2.886136247800000
H      -2.627395746200000      1.917116280600000     -0.091103256800000
C      -0.616315806700000      1.409627869100000     -1.274606560500000
H      -0.211909270900000      1.901320485500000     -0.380281305600000
H       0.156340233900000      1.367850548100000     -2.040819215600000
N      -1.019612382600000      0.056390433100000     -0.933744959000000
H      -0.571739534300000     -0.689788515600000     -1.440340912500000
C      -1.680638066100000     -0.235509619700000      0.199296467300000
O      -2.186089948900000      0.636792503600000      0.898401080200000
C      -1.845749299000000     -1.724307250800000      0.510430730000000
H      -2.292905177800000     -1.780995246200000      1.508093157300000
N      -2.753607383000000     -2.384488849800000     -0.412210899500000
H      -2.450787866500000     -2.271373080200000     -1.373957833100000
H      -3.690472805200000     -2.007106363200000     -0.329608016000000
C      -0.479488159000000     -2.437534413400000      0.522886460500000
H      -0.193222273300000     -2.701767156200000     -0.496708525200000
H      -0.583709593800000     -3.368500272000000      1.081451301000000
C       0.561799910100000     -1.555575373300000      1.134409777600000
C       0.617854982600000     -1.135396690700000      2.432418472900000
H      -0.017652853700000     -1.398391724000000      3.255697295200000
N       1.656466336200000     -0.263580983500000      2.601952627200000
H       1.901794715200000      0.187947690800000      3.466216323400000
C       2.294858628700000     -0.093762438300000      1.409051503600000
C       3.385987337000000      0.697816589800000      1.072840581800000
H       3.878456180800000      1.309584584600000      1.814029733100000
C       3.815005211500000      0.672997040700000     -0.235990999500000
H       4.658357843000000      1.277719305500000     -0.532954339100000
C       3.182799670500000     -0.128375311000000     -1.191105225000000
H       3.556632204200000     -0.127156933000000     -2.204306685900000
C       2.103334732300000     -0.916266468900000     -0.863681154100000
H       1.642435780200000     -1.546621987900000     -1.612108219900000
C       1.634075994400000     -0.901923211500000      0.451333090500000
