34
 energy: -56.475840872424 gnorm: 0.000134433679 xtb: 6.7.1-6.fc44.fc44
O           -2.77615189630000        2.43295488550000       -0.93381403660000
C           -1.78935714870000        2.27002965480000       -1.79253891520000
O           -1.77929761640000        2.76021671700000       -2.88613624780000
H           -2.62739574620000        1.91711628060000       -0.09110325680000
C           -0.61631580670000        1.40962786910000       -1.27460656050000
H           -0.21190927090000        1.90132048550000       -0.38028130560000
H            0.15634023390000        1.36785054810000       -2.04081921560000
N           -1.01961238260000        0.05639043310000       -0.93374495900000
H           -0.57173953430000       -0.68978851560000       -1.44034091250000
C           -1.68063806610000       -0.23550961970000        0.19929646730000
O           -2.18608994890000        0.63679250360000        0.89840108020000
C           -1.84574929900000       -1.72430725080000        0.51043073000000
H           -2.29290517780000       -1.78099524620000        1.50809315730000
N           -2.75360738300000       -2.38448884980000       -0.41221089950000
H           -2.45078786650000       -2.27137308020000       -1.37395783310000
H           -3.69047280520000       -2.00710636320000       -0.32960801600000
C           -0.47948815900000       -2.43753441340000        0.52288646050000
H           -0.19322227330000       -2.70176715620000       -0.49670852520000
H           -0.58370959380000       -3.36850027200000        1.08145130100000
C            0.56179991010000       -1.55557537330000        1.13440977760000
C            0.61785498260000       -1.13539669070000        2.43241847290000
H           -0.01765285370000       -1.39839172400000        3.25569729520000
N            1.65646633620000       -0.26358098350000        2.60195262720000
H            1.90179471520000        0.18794769080000        3.46621632340000
C            2.29485862870000       -0.09376243830000        1.40905150360000
C            3.38598733700000        0.69781658980000        1.07284058180000
H            3.87845618080000        1.30958458460000        1.81402973310000
C            3.81500521150000        0.67299704070000       -0.23599099950000
H            4.65835784300000        1.27771930550000       -0.53295433910000
C            3.18279967050000       -0.12837531100000       -1.19110522500000
H            3.55663220420000       -0.12715693300000       -2.20430668590000
C            2.10333473230000       -0.91626646890000       -0.86368115410000
H            1.64243578020000       -1.54662198790000       -1.61210821990000
C            1.63407599440000       -0.90192321150000        0.45133309050000
