34
frame_0051
O      -0.909820272000000      2.186564773000000      0.090047401500000
C      -0.459078436100000      1.923915021100000     -1.123438283800000
O       0.483888645700000      2.482566996000000     -1.607495149300000
H      -1.688218863500000      1.608085946200000      0.327923149500000
C      -1.272543122500000      0.867194916600000     -1.900792485800000
H      -0.842170864400000      0.760384238100000     -2.895703682300000
H      -2.301210055800000      1.238686564800000     -1.983413504000000
N      -1.305290535900000     -0.432753459900000     -1.257507847100000
H      -0.674028147200000     -1.133423777800000     -1.608492665000000
C      -1.998441025400000     -0.663949463000000     -0.132501639400000
O      -2.618326460300000      0.223314805800000      0.441603871300000
C      -1.967803053600000     -2.094821133800000      0.393686293100000
H      -2.623884398600000     -2.100483876900000      1.269374129100000
N      -2.545386957800000     -2.995186320600000     -0.587279368300000
H      -2.682463361700000     -3.915289695600000     -0.186001182900000
H      -1.946018579800000     -3.093981450100000     -1.399900231100000
C      -0.515665410600000     -2.446631027400000      0.829401301400000
H      -0.003665563300000     -2.942035708600000     -0.000353127900000
H      -0.554300514700000     -3.151765529900000      1.662606067500000
C       0.247973073600000     -1.217916758700000      1.207202585400000
C       0.035739209500000     -0.409286652000000      2.287599553200000
H      -0.665102738900000     -0.526708276100000      3.091478599700000
N       0.877961272500000      0.664443397000000      2.242787611800000
H       0.872836217900000      1.435235800500000      2.887950445600000
C       1.642319893000000      0.587082098200000      1.115929038500000
C       2.614123222200000      1.447396619500000      0.622114988800000
H       2.870921949300000      2.354365949500000      1.147220424400000
C       3.219521205500000      1.111473860800000     -0.567535258200000
H       3.968892495300000      1.763844525100000     -0.987822717400000
C       2.878293294700000     -0.058822785700000     -1.250626922200000
H       3.378135490900000     -0.286563612900000     -2.180646095200000
C       1.919702113100000     -0.917375201300000     -0.765196500500000
H       1.677827806100000     -1.826414406100000     -1.301240613500000
C       1.279567466600000     -0.598944901900000      0.434156618800000
