34
 energy: -56.477548602826 gnorm: 0.000029558837 xtb: 6.7.1-6.fc44.fc44
O           -0.90982027200000        2.18656477300000        0.09004740150000
C           -0.45907843610000        1.92391502110000       -1.12343828380000
O            0.48388864570000        2.48256699600000       -1.60749514930000
H           -1.68821886350000        1.60808594620000        0.32792314950000
C           -1.27254312250000        0.86719491660000       -1.90079248580000
H           -0.84217086440000        0.76038423810000       -2.89570368230000
H           -2.30121005580000        1.23868656480000       -1.98341350400000
N           -1.30529053590000       -0.43275345990000       -1.25750784710000
H           -0.67402814720000       -1.13342377780000       -1.60849266500000
C           -1.99844102540000       -0.66394946300000       -0.13250163940000
O           -2.61832646030000        0.22331480580000        0.44160387130000
C           -1.96780305360000       -2.09482113380000        0.39368629310000
H           -2.62388439860000       -2.10048387690000        1.26937412910000
N           -2.54538695780000       -2.99518632060000       -0.58727936830000
H           -2.68246336170000       -3.91528969560000       -0.18600118290000
H           -1.94601857980000       -3.09398145010000       -1.39990023110000
C           -0.51566541060000       -2.44663102740000        0.82940130140000
H           -0.00366556330000       -2.94203570860000       -0.00035312790000
H           -0.55430051470000       -3.15176552990000        1.66260606750000
C            0.24797307360000       -1.21791675870000        1.20720258540000
C            0.03573920950000       -0.40928665200000        2.28759955320000
H           -0.66510273890000       -0.52670827610000        3.09147859970000
N            0.87796127250000        0.66444339700000        2.24278761180000
H            0.87283621790000        1.43523580050000        2.88795044560000
C            1.64231989300000        0.58708209820000        1.11592903850000
C            2.61412322220000        1.44739661950000        0.62211498880000
H            2.87092194930000        2.35436594950000        1.14722042440000
C            3.21952120550000        1.11147386080000       -0.56753525820000
H            3.96889249530000        1.76384452510000       -0.98782271740000
C            2.87829329470000       -0.05882278570000       -1.25062692220000
H            3.37813549090000       -0.28656361290000       -2.18064609520000
C            1.91970211310000       -0.91737520130000       -0.76519650050000
H            1.67782780610000       -1.82641440610000       -1.30124061350000
C            1.27956746660000       -0.59894490190000        0.43415661880000
