34
frame_0057
O      -3.634208757800000      2.161251374300000     -0.727887734500000
C      -2.481071867300000      2.625720303300000     -1.162595991500000
O      -2.383536458900000      3.478693195800000     -1.998898170100000
H      -3.517405250700000      1.427920780600000     -0.059177543200000
C      -1.236545396100000      2.008423475500000     -0.485265039800000
H      -1.307916512100000      2.224219533500000      0.588788122500000
H      -0.345430207100000      2.482810076500000     -0.894105572500000
N      -1.138861253800000      0.572553814700000     -0.674839580900000
H      -0.346858500100000      0.227660460600000     -1.194975462000000
C      -1.909760427400000     -0.302600273500000     -0.005824168000000
O      -2.868911362800000      0.061502018200000      0.665701211400000
C      -1.512382472400000     -1.771256697200000     -0.124277853600000
H      -2.434543775300000     -2.358048672400000     -0.038147094700000
N      -0.862842493900000     -2.157290461200000     -1.357217852400000
H       0.074955634300000     -1.780724470600000     -1.428601593700000
H      -1.403691783700000     -1.884702910300000     -2.168613511200000
C      -0.604156899500000     -2.107814550700000      1.083312109500000
H      -0.219573314000000     -3.116694730700000      0.932130591500000
H      -1.215434378800000     -2.090582308600000      1.986090681000000
C       0.520598886900000     -1.135986101000000      1.228256765700000
C       0.517838405700000     -0.009082905600000      1.999606976300000
H      -0.246336192600000      0.349473925700000      2.662853983700000
N       1.687271503700000      0.681975485300000      1.835487340600000
H       1.941461782700000      1.523423425800000      2.323757686800000
C       2.482127795000000      0.004483183800000      0.956798464500000
C       3.751431379800000      0.300466136300000      0.475447934900000
H       4.274812517400000      1.189023622300000      0.796117648900000
C       4.317150569600000     -0.583372791500000     -0.417280429600000
H       5.302748695100000     -0.385513735300000     -0.810851400100000
C       3.643601178000000     -1.741258316800000     -0.818331862000000
H       4.128414869800000     -2.414101746300000     -1.509914397300000
C       2.385753790200000     -2.040778358900000     -0.346842884900000
H       1.881942427400000     -2.946082319800000     -0.652063340900000
C       1.778829403600000     -1.155253681900000      0.547033264400000
