34
frame_0044
O      -2.094863055900000      2.687581495700000     -0.030789468700000
C      -3.334054814500000      2.342807034200000     -0.320615537800000
O      -4.094559189500000      3.057371267800000     -0.910820092200000
H      -1.600920398800000      1.948503357300000      0.431658690600000
C      -3.753644643300000      0.943354154900000      0.181713546800000
H      -4.793309682200000      0.772868394000000     -0.093576326900000
H      -3.659217954000000      0.945767364200000      1.275834450300000
N      -2.932619946700000     -0.116303554200000     -0.373462343600000
H      -3.368554962100000     -0.844987334000000     -0.920579255800000
C      -1.669057818900000     -0.335356270300000      0.013881278100000
O      -1.070082297300000      0.422026070500000      0.771636949100000
C      -1.008824276200000     -1.561539877700000     -0.597121368400000
H      -0.586970112800000     -2.136897155400000      0.232622669100000
N      -1.991638249600000     -2.375665279700000     -1.303478134300000
H      -2.067970250200000     -2.066612383700000     -2.268541059200000
H      -1.703309499500000     -3.346299147900000     -1.324022155200000
C       0.152324380600000     -1.092832928100000     -1.514166148100000
H      -0.261583637400000     -0.452735200900000     -2.298642100800000
H       0.585594213400000     -1.981344157600000     -1.983207697200000
C       1.205635373200000     -0.354317604900000     -0.764552613100000
C       1.386834554100000      0.997375988400000     -0.713953417400000
H       0.840208525700000      1.773070442300000     -1.215468150700000
N       2.429642673700000      1.300520727900000      0.113737776400000
H       2.736431478700000      2.230168321500000      0.342827505900000
C       2.937613389100000      0.146084016100000      0.632359370400000
C       3.987753792200000     -0.063503611200000      1.516799821300000
H       4.550135975500000      0.765787127600000      1.920420248500000
C       4.283333546800000     -1.364635492600000      1.861337402200000
H       5.092293885200000     -1.563949012200000      2.548543609900000
C       3.556228262500000     -2.437249806500000      1.337809283400000
H       3.822105835600000     -3.441980032400000      1.632909269300000
C       2.515336348700000     -2.236567676000000      0.459841226600000
H       1.964022930600000     -3.075326299100000      0.059178786900000
C       2.190036820200000     -0.930180669800000      0.095375711900000
