34
 energy: -56.477912883249 gnorm: 0.000144568339 xtb: 6.7.1-6.fc44.fc44
O           -2.09486305590000        2.68758149570000       -0.03078946870000
C           -3.33405481450000        2.34280703420000       -0.32061553780000
O           -4.09455918950000        3.05737126780000       -0.91082009220000
H           -1.60092039880000        1.94850335730000        0.43165869060000
C           -3.75364464330000        0.94335415490000        0.18171354680000
H           -4.79330968220000        0.77286839400000       -0.09357632690000
H           -3.65921795400000        0.94576736420000        1.27583445030000
N           -2.93261994670000       -0.11630355420000       -0.37346234360000
H           -3.36855496210000       -0.84498733400000       -0.92057925580000
C           -1.66905781890000       -0.33535627030000        0.01388127810000
O           -1.07008229730000        0.42202607050000        0.77163694910000
C           -1.00882427620000       -1.56153987770000       -0.59712136840000
H           -0.58697011280000       -2.13689715540000        0.23262266910000
N           -1.99163824960000       -2.37566527970000       -1.30347813430000
H           -2.06797025020000       -2.06661238370000       -2.26854105920000
H           -1.70330949950000       -3.34629914790000       -1.32402215520000
C            0.15232438060000       -1.09283292810000       -1.51416614810000
H           -0.26158363740000       -0.45273520090000       -2.29864210080000
H            0.58559421340000       -1.98134415760000       -1.98320769720000
C            1.20563537320000       -0.35431760490000       -0.76455261310000
C            1.38683455410000        0.99737598840000       -0.71395341740000
H            0.84020852570000        1.77307044230000       -1.21546815070000
N            2.42964267370000        1.30052072790000        0.11373777640000
H            2.73643147870000        2.23016832150000        0.34282750590000
C            2.93761338910000        0.14608401610000        0.63235937040000
C            3.98775379220000       -0.06350361120000        1.51679982130000
H            4.55013597550000        0.76578712760000        1.92042024850000
C            4.28333354680000       -1.36463549260000        1.86133740220000
H            5.09229388520000       -1.56394901220000        2.54854360990000
C            3.55622826250000       -2.43724980650000        1.33780928340000
H            3.82210583560000       -3.44198003240000        1.63290926930000
C            2.51533634870000       -2.23656767600000        0.45984122660000
H            1.96402293060000       -3.07532629910000        0.05917878690000
C            2.19003682020000       -0.93018066980000        0.09537571190000
