34
frame_0005
O      -2.338822884500000      2.240151487600000      0.508444850000000
C      -1.409511348400000      2.355745389000000     -0.420333498500000
O      -0.520756102200000      3.160641320500000     -0.358260515400000
H      -2.905360161300000      1.429584053400000      0.369140261800000
C      -1.545440987600000      1.367181584500000     -1.594517777100000
H      -0.843383684700000      1.643457540800000     -2.380547108500000
H      -2.571415189300000      1.419588957700000     -1.976497951100000
N      -1.274869605400000      0.002396897000000     -1.179826757200000
H      -0.337511452700000     -0.344504878300000     -1.322610122500000
C      -2.101388710900000     -0.683210790800000     -0.366795819300000
O      -3.158249151900000     -0.208379548400000      0.034940367600000
C      -1.633239461800000     -2.082558199900000      0.018398658000000
H      -2.529352197400000     -2.659156572500000      0.275671148200000
N      -0.928462704400000     -2.814350761600000     -1.012846187400000
H      -1.467621024300000     -2.857128989500000     -1.869225726700000
H      -0.021161459200000     -2.410044227500000     -1.211979478600000
C      -0.747888632800000     -1.959529646900000      1.287226227600000
H      -0.240927370300000     -2.916123866400000      1.418087990300000
H      -1.398046397500000     -1.782364747900000      2.144366796000000
C       0.239547203600000     -0.843108817800000      1.184121833500000
C       0.061737758900000      0.430035070300000      1.651654335800000
H      -0.749692883400000      0.825880534900000      2.232077315600000
N       1.112488171800000      1.221968238400000      1.289532657400000
H       1.162475176100000      2.216419624800000      1.435646156500000
C       1.992844525800000      0.481948707800000      0.559240268400000
C       3.193168129100000      0.841637918400000     -0.041873729300000
H       3.559275262300000      1.855197391200000      0.018112718100000
C       3.892834430600000     -0.138925228200000     -0.709961182900000
H       4.828508626900000      0.105845649600000     -1.189832145700000
C       3.422802694900000     -1.455006506300000     -0.768498402100000
H       4.012249268600000     -2.198213344000000     -1.284996692000000
C       2.234516231900000     -1.820183151300000     -0.178014223500000
H       1.894816098100000     -2.845477136600000     -0.210284084700000
C       1.487633319700000     -0.841836006600000      0.484132931700000
