34
 energy: -56.481510035646 gnorm: 0.000150986724 xtb: 6.7.1-6.fc44.fc44
O           -2.33882288450000        2.24015148760000        0.50844485000000
C           -1.40951134840000        2.35574538900000       -0.42033349850000
O           -0.52075610220000        3.16064132050000       -0.35826051540000
H           -2.90536016130000        1.42958405340000        0.36914026180000
C           -1.54544098760000        1.36718158450000       -1.59451777710000
H           -0.84338368470000        1.64345754080000       -2.38054710850000
H           -2.57141518930000        1.41958895770000       -1.97649795110000
N           -1.27486960540000        0.00239689700000       -1.17982675720000
H           -0.33751145270000       -0.34450487830000       -1.32261012250000
C           -2.10138871090000       -0.68321079080000       -0.36679581930000
O           -3.15824915190000       -0.20837954840000        0.03494036760000
C           -1.63323946180000       -2.08255819990000        0.01839865800000
H           -2.52935219740000       -2.65915657250000        0.27567114820000
N           -0.92846270440000       -2.81435076160000       -1.01284618740000
H           -1.46762102430000       -2.85712898950000       -1.86922572670000
H           -0.02116145920000       -2.41004422750000       -1.21197947860000
C           -0.74788863280000       -1.95952964690000        1.28722622760000
H           -0.24092737030000       -2.91612386640000        1.41808799030000
H           -1.39804639750000       -1.78236474790000        2.14436679600000
C            0.23954720360000       -0.84310881780000        1.18412183350000
C            0.06173775890000        0.43003507030000        1.65165433580000
H           -0.74969288340000        0.82588053490000        2.23207731560000
N            1.11248817180000        1.22196823840000        1.28953265740000
H            1.16247517610000        2.21641962480000        1.43564615650000
C            1.99284452580000        0.48194870780000        0.55924026840000
C            3.19316812910000        0.84163791840000       -0.04187372930000
H            3.55927526230000        1.85519739120000        0.01811271810000
C            3.89283443060000       -0.13892522820000       -0.70996118290000
H            4.82850862690000        0.10584564960000       -1.18983214570000
C            3.42280269490000       -1.45500650630000       -0.76849840210000
H            4.01224926860000       -2.19821334400000       -1.28499669200000
C            2.23451623190000       -1.82018315130000       -0.17801422350000
H            1.89481609810000       -2.84547713660000       -0.21028408470000
C            1.48763331970000       -0.84183600660000        0.48413293170000
