68
frame_0007
O       0.765298459500000     -0.980347317200000      1.389030458200000
O       0.896333192700000     -0.939757416800000     -1.669594289400000
O      -2.563491730900000     -2.436594155400000      0.538607764800000
O      -3.917943686700000      3.019608854400000     -0.246103533500000
O      -1.426740510900000      1.820021967900000     -1.406903071800000
O       1.948961172400000      2.765593459300000      1.377829052000000
N       0.491383298500000     -2.898530496200000     -0.690331837800000
N      -1.982028391000000     -0.896785525000000     -1.011986392100000
N      -3.428459003400000      0.956977185900000      0.449981621600000
N      -0.769689543100000      2.798743343500000      0.527086233900000
N       1.698869968000000      1.532397409800000     -0.494070583000000
N       2.856912457200000     -0.665403581700000      0.654367992200000
C       1.725079018700000     -1.384439715600000      0.755319785900000
C       1.705948182100000     -2.772282484800000      0.106874449900000
C       1.552743541900000     -3.869921514400000      1.161010825500000
C       0.767485688400000     -4.945594409900000      0.417484286000000
C      -0.231638698200000     -4.126883347700000     -0.396611112400000
C       0.118157187500000     -1.867497331500000     -1.450508254800000
C      -1.335051746900000     -1.815441609600000     -1.933358126600000
C      -1.443074605200000     -1.285490937400000     -3.354119049700000
C      -2.422309637300000     -1.277346441500000      0.197102368700000
C      -2.729375218900000     -0.101640139800000      1.140772827900000
C      -3.530131765800000     -0.584787490200000      2.349485673200000
C      -3.189566302500000      2.285829912800000      0.384841419400000
C      -2.034281943900000      2.832696801800000      1.244462680100000
C      -2.344350653400000      4.275558059500000      1.640764579000000
C      -0.574312153900000      2.350537307600000     -0.714787509600000
C       0.882032831300000      2.514237392500000     -1.186393986800000
C       1.003150472300000      2.302864164000000     -2.686472620800000
C       2.129836749600000      1.728285885200000      0.755538187800000
C       2.968216540800000      0.597993326600000      1.361623231300000
C       4.457161220100000      0.936813739400000      1.259942934500000
C       4.823934121200000      0.372154101900000     -0.109703754700000
C       4.017546088000000     -0.926140936600000     -0.178885137900000
H       2.584163877400000     -2.938129118800000     -0.524729425000000
H       2.512447703500000     -4.218047422800000      1.537738751900000
H       0.957769554300000     -3.479773267700000      1.988088521000000
H       1.431606017000000     -5.505911621800000     -0.243295102900000
H       0.272424631000000     -5.642053884300000      1.089819825600000
H      -0.515404869400000     -4.629529166000000     -1.324425067900000
H      -1.129630107400000     -3.904536486200000      0.187814851800000
H      -1.841417588700000      0.095128393700000     -1.205495972700000
H      -1.816790000000000     -2.790469011300000     -1.831695420400000
H      -2.487428979800000     -1.204308255000000     -3.642299140200000
H      -0.931971752800000     -1.951620029500000     -4.044916007300000
H      -0.987890682400000     -0.300129622800000     -3.409678374700000
H      -4.227202114000000      0.664423348700000     -0.097961940500000
H      -1.744549783000000      0.250958490800000      1.466741410600000
H      -3.001101257100000     -1.402892777900000      2.828427149600000
H      -4.504607896700000     -0.946172607100000      2.030062502100000
H      -3.668631096200000      0.224527484900000      3.061901419100000
H       0.035764600300000      3.162071424300000      1.031129439700000
H      -1.933654635000000      2.224422262200000      2.152196263600000
H      -1.503723460400000      4.705433074000000      2.180317198200000
H      -3.227146248600000      4.304179961000000      2.273478827200000
H      -2.544067051900000      4.861965426500000      0.747848519600000
H       1.661308293200000      0.598101046400000     -0.892788054100000
H       1.237877418700000      3.509114595400000     -0.893334907300000
H       0.776283305400000      1.265920667200000     -2.920826388400000
H       2.011291867600000      2.531223752200000     -3.022730776500000
H       0.296557057500000      2.941832156100000     -3.208189321500000
H       2.630663615400000      0.477844778700000      2.396079541200000
H       5.012326905600000      0.425173965700000      2.046903397200000
H       4.631463154300000      2.007050220400000      1.343931627100000
H       5.891838198100000      0.196890991200000     -0.220583354200000
H       4.496791783200000      1.056588959700000     -0.892251484700000
H       3.715313627800000     -1.160857722100000     -1.202226148100000
H       4.594673993400000     -1.764645480800000      0.229220582300000
