      -----------------------------------------------------------      
     |                   =====================                   |     
     |                           x T B                           |     
     |                   =====================                   |     
     |                         S. Grimme                         |     
     |          Mulliken Center for Theoretical Chemistry        |     
     |                    University of Bonn                     |     
      -----------------------------------------------------------      

   * xtb version 6.7.1-6.fc44.fc44 compiled by Fedora project on Sun Jan 18 23:32:34 UTC 2026

   xtb is free software: you can redistribute it and/or modify it under
   the terms of the GNU Lesser General Public License as published by
   the Free Software Foundation, either version 3 of the License, or
   (at your option) any later version.
   
   xtb is distributed in the hope that it will be useful,
   but WITHOUT ANY WARRANTY; without even the implied warranty of
   MERCHANTABILITY or FITNESS FOR A PARTICULAR PURPOSE.  See the
   GNU Lesser General Public License for more details.
   
   Cite this work as:
   * C. Bannwarth, E. Caldeweyher, S. Ehlert, A. Hansen, P. Pracht,
     J. Seibert, S. Spicher, S. Grimme, WIREs Comput. Mol. Sci., 2020, 11,
     e01493. DOI: 10.1002/wcms.1493
   
   for GFN2-xTB:
   * C. Bannwarth, S. Ehlert and S. Grimme., J. Chem. Theory Comput., 2019,
     15, 1652-1671. DOI: 10.1021/acs.jctc.8b01176
   for GFN1-xTB:
   * S. Grimme, C. Bannwarth, P. Shushkov, J. Chem. Theory Comput., 2017,
     13, 1989-2009. DOI: 10.1021/acs.jctc.7b00118
   for GFN0-xTB:
   * P. Pracht, E. Caldeweyher, S. Ehlert, S. Grimme, ChemRxiv, 2019, preprint.
     DOI: 10.26434/chemrxiv.8326202.v1
   for GFN-FF:
   * S. Spicher and S. Grimme, Angew. Chem. Int. Ed., 2020, 59, 15665-15673.
     DOI: 10.1002/anie.202004239
   
   for ALPB and GBSA implicit solvation:
   * S. Ehlert, M. Stahn, S. Spicher, S. Grimme, J. Chem. Theory Comput.,
     2021, 17, 4250-4261. DOI: 10.1021/acs.jctc.1c00471
   
   for ddCOSMO and CPCM-X implicit solvation:
   * M. Stahn, S. Ehlert, S. Grimme, J. Phys. Chem. A,
     2023, XX, XXXX-XXXX. DOI: 10.1021/acs.jpca.3c04382
   
   for DFT-D4:
   * E. Caldeweyher, C. Bannwarth and S. Grimme, J. Chem. Phys., 2017,
     147, 034112. DOI: 10.1063/1.4993215
   * E. Caldeweyher, S. Ehlert, A. Hansen, H. Neugebauer, S. Spicher,
     C. Bannwarth and S. Grimme, J. Chem. Phys., 2019, 150, 154122.
     DOI: 10.1063/1.5090222
   * E. Caldeweyher, J.-M. Mewes, S. Ehlert and S. Grimme, Phys. Chem. Chem. Phys.
     2020, 22, 8499-8512. DOI: 10.1039/D0CP00502A
   
   for sTDA-xTB:
   * S. Grimme and C. Bannwarth, J. Chem. Phys., 2016, 145, 054103.
     DOI: 10.1063/1.4959605
   
   in the mass-spec context:
   * V. Asgeirsson, C. Bauer and S. Grimme, Chem. Sci., 2017, 8, 4879.
     DOI: 10.1039/c7sc00601b
   * J. Koopman and S. Grimme, ACS Omega 2019, 4, 12, 15120-15133.
     DOI: 10.1021/acsomega.9b02011
   
   for metadynamics refer to:
   * S. Grimme, J. Chem. Theory Comput., 2019, 155, 2847-2862
     DOI: 10.1021/acs.jctc.9b00143
   
   for SPH calculations refer to:
   * S. Spicher and S. Grimme, J. Chem. Theory Comput., 2021, 17, 1701-1714
     DOI: 10.1021/acs.jctc.0c01306
   
   for ONIOM refer to:
   * C. Plett, A. Katbashev, S. Ehlert, S. Grimme, M. Bursch,
     Phys. Chem. Chem. Phys., 2023, 25, 17860-17868. DOI: 10.1039/D3CP02178E
   
   for DIPRO refer to:
   * J. Kohn, N. Gildemeister, S. Grimme, D. Fazzi, A. Hansen,
     J. Chem. Phys., 2023, just accepted.
   
   for PTB refer to:
   * S. Grimme, M. Mueller, A. Hansen, J. Chem. Phys., 2023, 158, 124111.
     DOI: 10.1063/5.0137838
   
   with help from (in alphabetical order)
   P. Atkinson, C. Bannwarth, F. Bohle, G. Brandenburg, E. Caldeweyher
   M. Checinski, S. Dohm, S. Ehlert, S. Ehrlich, I. Gerasimov, C. Hölzer
   A. Katbashev, J. Kohn, J. Koopman, C. Lavigne, S. Lehtola, F. März, M. Müller,
   F. Musil, H. Neugebauer, J. Pisarek, C. Plett, P. Pracht, F. Pultar,
   J. Seibert, P. Shushkov, S. Spicher, M. Stahn, M. Steiner, T. Strunk,
   J. Stückrath, T. Rose, and J. Unsleber
   
 * started run on 2026/10/01 at 13:39:06.362     
   ID    Z sym.   atoms
    1    8 O      1-6
    2    7 N      7-12
    3    6 C      13-34
    4    1 H      35-68

           -------------------------------------------------
          |                Calculation Setup                |
           -------------------------------------------------

          program call               : /usr/bin/xtb input.xyz --opt --gfn 2 --chrg 0 --uhf 0
          hostname                   : fedora
          coordinate file            : input.xyz
          omp threads                :                    16


           -------------------------------------------------
          |                 G F N 2 - x T B                 |
           -------------------------------------------------

        Reference                      10.1021/acs.jctc.8b01176
      * Hamiltonian:
        H0-scaling (s, p, d)           1.850000    2.230000    2.230000
        zeta-weighting                 0.500000
      * Dispersion:
        s8                             2.700000
        a1                             0.520000
        a2                             5.000000
        s9                             5.000000
      * Repulsion:
        kExp                           1.500000    1.000000
        rExp                           1.000000
      * Coulomb:
        alpha                          2.000000
        third order                    shell-resolved
        anisotropic                    true
        a3                             3.000000
        a5                             4.000000
        cn-shift                       1.200000
        cn-exp                         4.000000
        max-rad                        5.000000


          ...................................................
          :                      SETUP                      :
          :.................................................:
          :  # basis functions                 170          :
          :  # atomic orbitals                 170          :
          :  # shells                          102          :
          :  # electrons                       188          :
          :  max. iterations                   250          :
          :  Hamiltonian                  GFN2-xTB          :
          :  restarted?                      false          :
          :  GBSA solvation                  false          :
          :  PC potential                    false          :
          :  electronic temp.          300.0000000     K    :
          :  accuracy                    1.0000000          :
          :  -> integral cutoff          0.2500000E+02      :
          :  -> integral neglect         0.1000000E-07      :
          :  -> SCF convergence          0.1000000E-05 Eh   :
          :  -> wf. convergence          0.1000000E-03 e    :
          :  Broyden damping             0.4000000          :
          :  net charge                          0          :
          :  unpaired electrons                  0          :
          ...................................................

 iter      E             dE          RMSdq      gap      omega  full diag
   1   -107.5166316 -0.107517E+03  0.391E+00    4.10       0.0  T
   2   -107.7987229 -0.282091E+00  0.212E+00    3.77       1.0  T
   3   -107.8089710 -0.102481E-01  0.114E+00    3.92       1.0  T
   4   -107.8107085 -0.173745E-02  0.157E-01    3.85       1.0  T
   5   -107.8115594 -0.850935E-03  0.795E-02    3.89       1.0  T
   6   -107.8116173 -0.579025E-04  0.349E-02    3.88       1.0  T
   7   -107.8116204 -0.304557E-05  0.988E-03    3.88       1.2  T
   8   -107.8116217 -0.127712E-05  0.427E-03    3.87       2.8  T
   9   -107.8116218 -0.174833E-06  0.139E-03    3.88       8.7  T
  10   -107.8116219 -0.351108E-07  0.575E-04    3.88      21.1  T
  11   -107.8116219 -0.521216E-08  0.137E-04    3.88      88.7  T

   *** convergence criteria satisfied after 11 iterations ***

         #    Occupation            Energy/Eh            Energy/eV
      -------------------------------------------------------------
         1        2.0000           -0.7103323             -19.3291
       ...           ...                  ...                  ...
        88        2.0000           -0.4035616             -10.9815
        89        2.0000           -0.3933228             -10.7029
        90        2.0000           -0.3912767             -10.6472
        91        2.0000           -0.3874990             -10.5444
        92        2.0000           -0.3868198             -10.5259
        93        2.0000           -0.3838864             -10.4461
        94        2.0000           -0.3761318             -10.2351 (HOMO)
        95                         -0.2337118              -6.3596 (LUMO)
        96                         -0.2221427              -6.0448
        97                         -0.2178820              -5.9289
        98                         -0.2098961              -5.7116
        99                         -0.1998626              -5.4385
       ...                                ...                  ...
       170                          0.6509493              17.7132
      -------------------------------------------------------------
                  HL-Gap            0.1424200 Eh            3.8754 eV
             Fermi-level           -0.3049218 Eh           -8.2973 eV

 SCC (total)                   0 d,  0 h,  0 min,  0.042 sec
 SCC setup                      ...        0 min,  0.000 sec (  0.274%)
 Dispersion                     ...        0 min,  0.001 sec (  1.421%)
 classical contributions        ...        0 min,  0.000 sec (  0.238%)
 integral evaluation            ...        0 min,  0.002 sec (  3.780%)
 iterations                     ...        0 min,  0.033 sec ( 79.774%)
 molecular gradient             ...        0 min,  0.006 sec ( 13.519%)
 printout                       ...        0 min,  0.000 sec (  0.970%)

         :::::::::::::::::::::::::::::::::::::::::::::::::::::
         ::                     SUMMARY                     ::
         :::::::::::::::::::::::::::::::::::::::::::::::::::::
         :: total energy            -106.572647959489 Eh    ::
         :: gradient norm              0.000106068947 Eh/a0 ::
         :: HOMO-LUMO gap              3.875445246715 eV    ::
         ::.................................................::
         :: SCC energy              -107.807324259986 Eh    ::
         :: -> isotropic ES            0.231937639413 Eh    ::
         :: -> anisotropic ES         -0.005746341735 Eh    ::
         :: -> anisotropic XC          0.028075755036 Eh    ::
         :: -> dispersion             -0.084034908159 Eh    ::
         :: repulsion energy           1.234676300498 Eh    ::
         :: add. restraining           0.000000000000 Eh    ::
         :: total charge               0.000000000000 e     ::
         :::::::::::::::::::::::::::::::::::::::::::::::::::::

      ----------------------------------------------------------- 
     |                   =====================                   |
     |                        A N C O P T                        |
     |                   =====================                   |
     |               Approximate Normal Coordinate               |
     |                Rational Function Optimizer                |
      ----------------------------------------------------------- 
      ----------------------------------------------------------- 
     |                   =====================                   |
     |                        A N C O P T                        |
     |                   =====================                   |
     |               Approximate Normal Coordinate               |
     |                Rational Function Optimizer                |
      ----------------------------------------------------------- 

          ...................................................
          :                      SETUP                      :
          :.................................................:
          :   optimization level            normal          :
          :   max. optcycles                   204          :
          :   ANC micro-cycles                  20          :
          :   degrees of freedom               198          :
          :.................................................:
          :   RF solver                   davidson          :
          :   write xtbopt.log                true          :
          :   linear?                        false          :
          :   energy convergence         0.5000000E-05 Eh   :
          :   grad. convergence          0.1000000E-02 Eh/α :
          :   maxmium RF displ.          1.0000000          :
          :   Hlow (freq-cutoff)         0.1000000E-01      :
          :   Hmax (freq-cutoff)         5.0000000          :
          :   S6 in model hess.         20.0000000          :
          ...................................................

generating ANC from exact Hessian ...
Using Lindh-Hessian (1995)
 Shifting diagonal of input Hessian by    9.6381743298289569E-003
 Lowest  eigenvalues of input Hessian
    0.000000    0.000000    0.000000    0.000000    0.000000    0.000000
    0.010000    0.010328    0.010669    0.011127    0.011597    0.011660
    0.011972    0.012604    0.012702    0.012978    0.013660    0.014114
 Highest eigenvalues
    2.281817    2.310961    2.318374    2.325388    2.345486    2.348924


........................................................................
.............................. CYCLE    1 ..............................
........................................................................

 iter      E             dE          RMSdq      gap      omega  full diag
   1   -107.8116219 -0.107812E+03  0.583E-05    3.88       0.0  T
   2   -107.8116219 -0.432152E-10  0.318E-05    3.88     381.1  T
   3   -107.8116219 -0.568434E-11  0.172E-05    3.88     706.4  T
     SCC iter.                  ...        0 min,  0.014 sec
     gradient                   ...        0 min,  0.006 sec
 * total energy  :  -106.5726480 Eh     change       -0.2235083E-09 Eh
   gradient norm :     0.0001060 Eh/α   predicted     0.0000000E+00 (-100.00%)
   displ. norm   :     0.0001589 α      lambda        0.0000000E+00
   maximum displ.:     0.0000816 α      in ANC's #193, #195, #153, ...

   *** GEOMETRY OPTIMIZATION CONVERGED AFTER 1 ITERATIONS ***

------------------------------------------------------------------------
 total energy gain   :        -0.0000000 Eh       -0.0000 kcal/mol
 total RMSD          :         0.0000001 a0        0.0000 Å
 total power (kW/mol):        -0.0000006 (step)   -0.0000 (real)
------------------------------------------------------------------------

 ANCopt (total)                0 d,  0 h,  0 min,  0.052 sec
 optimizer setup                ...        0 min,  0.000 sec (  0.326%)
 model hessian                  ...        0 min,  0.026 sec ( 49.065%)
 ANC generation                 ...        0 min,  0.003 sec (  5.411%)
 coordinate transformation      ...        0 min,  0.000 sec (  0.049%)
 single point calculation       ...        0 min,  0.023 sec ( 44.169%)
 optimization log               ...        0 min,  0.000 sec (  0.235%)
 hessian update                 ...        0 min,  0.000 sec (  0.001%)
 rational function              ...        0 min,  0.000 sec (  0.137%)

================
 final structure:
================
68
 xtb: 6.7.1-6.fc44.fc44
O            0.76529845950000       -0.98034731720000        1.38903045820000
O            0.89633319270000       -0.93975741680000       -1.66959428940000
O           -2.56349173090000       -2.43659415540000        0.53860776480000
O           -3.91794368670000        3.01960885440000       -0.24610353350000
O           -1.42674051090000        1.82002196790000       -1.40690307180000
O            1.94896117240000        2.76559345930000        1.37782905200000
N            0.49138329850000       -2.89853049620000       -0.69033183780000
N           -1.98202839100000       -0.89678552500000       -1.01198639210000
N           -3.42845900340000        0.95697718590000        0.44998162160000
N           -0.76968954310000        2.79874334350000        0.52708623390000
N            1.69886996800000        1.53239740980000       -0.49407058300000
N            2.85691245720000       -0.66540358170000        0.65436799220000
C            1.72507901870000       -1.38443971560000        0.75531978590000
C            1.70594818210000       -2.77228248480000        0.10687444990000
C            1.55274354190000       -3.86992151440000        1.16101082550000
C            0.76748568840000       -4.94559440990000        0.41748428600000
C           -0.23163869820000       -4.12688334770000       -0.39661111240000
C            0.11815718750000       -1.86749733150000       -1.45050825480000
C           -1.33505174690000       -1.81544160960000       -1.93335812660000
C           -1.44307460520000       -1.28549093740000       -3.35411904970000
C           -2.42230963730000       -1.27734644150000        0.19710236870000
C           -2.72937521890000       -0.10164013980000        1.14077282790000
C           -3.53013176580000       -0.58478749020000        2.34948567320000
C           -3.18956630250000        2.28582991280000        0.38484141940000
C           -2.03428194390000        2.83269680180000        1.24446268010000
C           -2.34435065340000        4.27555805950000        1.64076457900000
C           -0.57431215390000        2.35053730760000       -0.71478750960000
C            0.88203283130000        2.51423739250000       -1.18639398680000
C            1.00315047230000        2.30286416400000       -2.68647262080000
C            2.12983674960000        1.72828588520000        0.75553818780000
C            2.96821654080000        0.59799332660000        1.36162323130000
C            4.45716122010000        0.93681373940000        1.25994293450000
C            4.82393412120000        0.37215410190000       -0.10970375470000
C            4.01754608800000       -0.92614093660000       -0.17888513790000
H            2.58416387740000       -2.93812911880000       -0.52472942500000
H            2.51244770350000       -4.21804742280000        1.53773875190000
H            0.95776955430000       -3.47977326770000        1.98808852100000
H            1.43160601700000       -5.50591162180000       -0.24329510290000
H            0.27242463100000       -5.64205388430000        1.08981982560000
H           -0.51540486940000       -4.62952916600000       -1.32442506790000
H           -1.12963010740000       -3.90453648620000        0.18781485180000
H           -1.84141758870000        0.09512839370000       -1.20549597270000
H           -1.81679000000000       -2.79046901130000       -1.83169542040000
H           -2.48742897980000       -1.20430825500000       -3.64229914020000
H           -0.93197175280000       -1.95162002950000       -4.04491600730000
H           -0.98789068240000       -0.30012962280000       -3.40967837470000
H           -4.22720211400000        0.66442334870000       -0.09796194050000
H           -1.74454978300000        0.25095849080000        1.46674141060000
H           -3.00110125710000       -1.40289277790000        2.82842714960000
H           -4.50460789670000       -0.94617260710000        2.03006250210000
H           -3.66863109620000        0.22452748490000        3.06190141910000
H            0.03576460030000        3.16207142430000        1.03112943970000
H           -1.93365463500000        2.22442226220000        2.15219626360000
H           -1.50372346040000        4.70543307400000        2.18031719820000
H           -3.22714624860000        4.30417996100000        2.27347882720000
H           -2.54406705190000        4.86196542650000        0.74784851960000
H            1.66130829320000        0.59810104640000       -0.89278805410000
H            1.23787741870000        3.50911459540000       -0.89333490730000
H            0.77628330540000        1.26592066720000       -2.92082638840000
H            2.01129186760000        2.53122375220000       -3.02273077650000
H            0.29655705750000        2.94183215610000       -3.20818932150000
H            2.63066361540000        0.47784477870000        2.39607954120000
H            5.01232690560000        0.42517396570000        2.04690339720000
H            4.63146315430000        2.00705022040000        1.34393162710000
H            5.89183819810000        0.19689099120000       -0.22058335420000
H            4.49679178320000        1.05658895970000       -0.89225148470000
H            3.71531362780000       -1.16085772210000       -1.20222614810000
H            4.59467399340000       -1.76464548080000        0.22922058230000

 Bond Distances (Angstroems)
 ---------------------------
O1-C13=1.2190        O2-C18=1.2306        O3-C21=1.2167        O4-C24=1.2112        O5-C27=1.2195        O6-C30=1.2231        
N7-C14=1.4583        N7-C17=1.4553        N7-C18=1.3342        N8-C19=1.4531        N8-C21=1.3419        N8-H42=1.0203        
N9-C22=1.4445        N9-C24=1.3517        N9-H47=1.0118        N10-C25=1.4543       N10-C27=1.3347       N10-H52=1.0173       
N11-C28=1.4528       N11-C30=1.3363       N11-H57=1.0165       N12-C13=1.3447       N12-C31=1.4522       N12-C34=1.4524       
C13-O1=1.2190        C13-N12=1.3447       C13-C14=1.5320       C14-N7=1.4583        C14-C13=1.5320       C14-C15=1.5295       
C14-H35=1.0944       C15-C14=1.5295       C15-C16=1.5253       C15-H36=1.0882       C15-H37=1.0910       C16-C15=1.5253       
C16-C17=1.5269       C16-H38=1.0916       C16-H39=1.0873       C17-N7=1.4553        C17-C16=1.5269       C17-H40=1.0927       
C17-H41=1.0942       C18-O2=1.2306        C18-N7=1.3342        C18-C19=1.5322       C19-N8=1.4531        C19-C18=1.5322       
C19-C20=1.5202       C19-H43=1.0923       C20-C19=1.5202       C20-H44=1.0864       C20-H45=1.0873       C20-H46=1.0868       
C21-O3=1.2167        C21-N8=1.3419        C21-C22=1.5385       C22-N9=1.4445        C22-C21=1.5385       C22-C23=1.5283       
C22-H48=1.0957       C23-C22=1.5283       C23-H49=1.0856       C23-H50=1.0873       C23-H51=1.0871       C24-O4=1.2112        
C24-N9=1.3517        C24-C25=1.5404       C25-N10=1.4543       C25-C24=1.5404       C25-C26=1.5281       C25-H53=1.0973       
C26-C25=1.5281       C26-H54=1.0875       C26-H55=1.0865       C26-H56=1.0868       C27-O5=1.2195        C27-N10=1.3347       
C27-C28=1.5395       C28-N11=1.4528       C28-C27=1.5395       C28-C29=1.5197       C28-H58=1.0965       C29-C28=1.5197       
C29-H59=1.0870       C29-H60=1.0870       C29-H61=1.0862       C30-O6=1.2231        C30-N11=1.3363       C30-C31=1.5322       
C31-N12=1.4522       C31-C30=1.5322       C31-C32=1.5304       C31-H62=1.0948       C32-C31=1.5304       C32-C33=1.5262       
C32-H63=1.0905       C32-H64=1.0876       C33-C32=1.5262       C33-C34=1.5299       C33-H65=1.0879       C33-H66=1.0899       
C34-N12=1.4524       C34-C33=1.5299       C34-H67=1.0925       C34-H68=1.0967       H35-C14=1.0944       H36-C15=1.0882       
H37-C15=1.0910       H38-C16=1.0916       H39-C16=1.0873       H40-C17=1.0927       H41-C17=1.0942       H42-N8=1.0203        
H43-C19=1.0923       H44-C20=1.0864       H45-C20=1.0873       H46-C20=1.0868       H47-N9=1.0118        H48-C22=1.0957       
H49-C23=1.0856       H50-C23=1.0873       H51-C23=1.0871       H52-N10=1.0173       H53-C25=1.0973       H54-C26=1.0875       
H55-C26=1.0865       H56-C26=1.0868       H57-N11=1.0165       H58-C28=1.0965       H59-C29=1.0870       H60-C29=1.0870       
H61-C29=1.0862       H62-C31=1.0948       H63-C32=1.0905       H64-C32=1.0876       H65-C33=1.0879       H66-C33=1.0899       
H67-C34=1.0925       H68-C34=1.0967       
 C  H  Rav=1.0901 sigma=0.0037  Rmin=1.0856  Rmax=1.0973    30
 C  C  Rav=1.5300 sigma=0.0058  Rmin=1.5197  Rmax=1.5404    16
 N  H  Rav=1.0165 sigma=0.0030  Rmin=1.0118  Rmax=1.0203     4
 N  C  Rav=1.4047 sigma=0.0558  Rmin=1.3342  Rmax=1.4583    14
 O  C  Rav=1.2200 sigma=0.0059  Rmin=1.2112  Rmax=1.2306     6

 selected bond angles (degree)
 --------------------
C17-N7-C14=112.12              C18-N7-C14=118.52              C18-N7-C17=128.92              C21-N8-C19=122.56              
H42-N8-C19=115.66              H42-N8-C21=119.46              C24-N9-C22=131.15              H47-N9-C22=115.41              
H47-N9-C24=113.43              C27-N10-C25=126.45             H52-N10-C25=115.83             H52-N10-C27=117.72             

 selected dihedral angles (degree)
 ---------------------------------

           -------------------------------------------------
          |                Final Singlepoint                |
           -------------------------------------------------

          ...................................................
          :                      SETUP                      :
          :.................................................:
          :  # basis functions                 170          :
          :  # atomic orbitals                 170          :
          :  # shells                          102          :
          :  # electrons                       188          :
          :  max. iterations                   250          :
          :  Hamiltonian                  GFN2-xTB          :
          :  restarted?                      false          :
          :  GBSA solvation                  false          :
          :  PC potential                    false          :
          :  electronic temp.          300.0000000     K    :
          :  accuracy                    1.0000000          :
          :  -> integral cutoff          0.2500000E+02      :
          :  -> integral neglect         0.1000000E-07      :
          :  -> SCF convergence          0.1000000E-05 Eh   :
          :  -> wf. convergence          0.1000000E-03 e    :
          :  Broyden damping             0.4000000          :
          :  net charge                          0          :
          :  unpaired electrons                  0          :
          ...................................................

 iter      E             dE          RMSdq      gap      omega  full diag
   1   -107.8116219 -0.107812E+03  0.317E-06    3.88       0.0  T
   2   -107.8116219 -0.227374E-12  0.191E-06    3.88    6361.6  T
   3   -107.8116219 -0.298428E-12  0.800E-07    3.88   15160.3  T

   *** convergence criteria satisfied after 3 iterations ***

         #    Occupation            Energy/Eh            Energy/eV
      -------------------------------------------------------------
         1        2.0000           -0.7103326             -19.3291
       ...           ...                  ...                  ...
        88        2.0000           -0.4035603             -10.9814
        89        2.0000           -0.3933227             -10.7029
        90        2.0000           -0.3912763             -10.6472
        91        2.0000           -0.3874982             -10.5444
        92        2.0000           -0.3868186             -10.5259
        93        2.0000           -0.3838847             -10.4460
        94        2.0000           -0.3761297             -10.2350 (HOMO)
        95                         -0.2337115              -6.3596 (LUMO)
        96                         -0.2221416              -6.0448
        97                         -0.2178818              -5.9289
        98                         -0.2098947              -5.7115
        99                         -0.1998598              -5.4385
       ...                                ...                  ...
       170                          0.6509519              17.7133
      -------------------------------------------------------------
                  HL-Gap            0.1424182 Eh            3.8754 eV
             Fermi-level           -0.3049206 Eh           -8.2973 eV

 SCC (total)                   0 d,  0 h,  0 min,  0.020 sec
 SCC setup                      ...        0 min,  0.000 sec (  0.922%)
 Dispersion                     ...        0 min,  0.000 sec (  1.872%)
 classical contributions        ...        0 min,  0.000 sec (  0.221%)
 integral evaluation            ...        0 min,  0.001 sec (  5.429%)
 iterations                     ...        0 min,  0.011 sec ( 52.730%)
 molecular gradient             ...        0 min,  0.006 sec ( 29.111%)
 printout                       ...        0 min,  0.002 sec (  9.677%)

         :::::::::::::::::::::::::::::::::::::::::::::::::::::
         ::                     SUMMARY                     ::
         :::::::::::::::::::::::::::::::::::::::::::::::::::::
         :: total energy            -106.572647959715 Eh    ::
         :: gradient norm              0.000106008941 Eh/a0 ::
         :: HOMO-LUMO gap              3.875397798596 eV    ::
         ::.................................................::
         :: SCC energy              -107.807324260213 Eh    ::
         :: -> isotropic ES            0.231942808125 Eh    ::
         :: -> anisotropic ES         -0.005746136273 Eh    ::
         :: -> anisotropic XC          0.028075782415 Eh    ::
         :: -> dispersion             -0.084034971556 Eh    ::
         :: repulsion energy           1.234676300498 Eh    ::
         :: add. restraining           0.000000000000 Eh    ::
         :: total charge               0.000000000000 e     ::
         :::::::::::::::::::::::::::::::::::::::::::::::::::::

           -------------------------------------------------
          |                Property Printout                |
           -------------------------------------------------

    * Orbital Energies and Occupations

         #    Occupation            Energy/Eh            Energy/eV
      -------------------------------------------------------------
         1        2.0000           -0.7103326             -19.3291
       ...           ...                  ...                  ...
        82        2.0000           -0.4447048             -12.1010
        83        2.0000           -0.4298004             -11.6955
        84        2.0000           -0.4249885             -11.5645
        85        2.0000           -0.4218902             -11.4802
        86        2.0000           -0.4145399             -11.2802
        87        2.0000           -0.4081308             -11.1058
        88        2.0000           -0.4035603             -10.9814
        89        2.0000           -0.3933227             -10.7029
        90        2.0000           -0.3912763             -10.6472
        91        2.0000           -0.3874982             -10.5444
        92        2.0000           -0.3868186             -10.5259
        93        2.0000           -0.3838847             -10.4460
        94        2.0000           -0.3761297             -10.2350 (HOMO)
        95                         -0.2337115              -6.3596 (LUMO)
        96                         -0.2221416              -6.0448
        97                         -0.2178818              -5.9289
        98                         -0.2098947              -5.7115
        99                         -0.1998598              -5.4385
       100                         -0.1976031              -5.3771
       101                         -0.0323462              -0.8802
       102                         -0.0127589              -0.3472
       103                          0.0024623               0.0670
       104                          0.0072600               0.1976
       105                          0.0121405               0.3304
       ...                                ...                  ...
       170                          0.6509519              17.7133
      -------------------------------------------------------------
                  HL-Gap            0.1424182 Eh            3.8754 eV
             Fermi-level           -0.3049206 Eh           -8.2973 eV

     #   Z          covCN         q      C6AA      α(0)
     1   8 O        0.859    -0.458    22.880     6.413
     2   8 O        0.860    -0.486    23.480     6.497
     3   8 O        0.858    -0.446    22.625     6.377
     4   8 O        0.860    -0.423    22.143     6.309
     5   8 O        0.858    -0.446    22.615     6.376
     6   8 O        0.859    -0.464    23.006     6.431
     7   7 N        2.762    -0.084    22.871     7.103
     8   7 N        2.700    -0.193    25.176     7.452
     9   7 N        2.689    -0.182    24.944     7.418
    10   7 N        2.691    -0.180    24.894     7.410
    11   7 N        2.691    -0.183    24.956     7.419
    12   7 N        2.758    -0.103    23.266     7.164
    13   6 C        2.763     0.268    22.469     7.763
    14   6 C        3.832     0.028    20.085     6.376
    15   6 C        3.836    -0.060    21.623     6.616
    16   6 C        3.833    -0.060    21.637     6.618
    17   6 C        3.767    -0.012    20.827     6.504
    18   6 C        2.774     0.260    22.620     7.790
    19   6 C        3.792     0.033    20.021     6.372
    20   6 C        3.756    -0.114    22.739     6.799
    21   6 C        2.753     0.271    22.423     7.754
    22   6 C        3.787     0.018    20.288     6.415
    23   6 C        3.755    -0.112    22.706     6.794
    24   6 C        2.747     0.283    22.208     7.716
    25   6 C        3.786     0.030    20.085     6.383
    26   6 C        3.757    -0.114    22.741     6.799
    27   6 C        2.751     0.270    22.430     7.755
    28   6 C        3.797     0.026    20.135     6.389
    29   6 C        3.757    -0.115    22.749     6.800
    30   6 C        2.754     0.271    22.415     7.753
    31   6 C        3.834     0.022    20.184     6.392
    32   6 C        3.834    -0.061    21.655     6.621
    33   6 C        3.833    -0.065    21.721     6.631
    34   6 C        3.766    -0.001    20.633     6.474
    35   1 H        0.924     0.041     2.440     2.443
    36   1 H        0.925     0.042     2.421     2.433
    37   1 H        0.924     0.067     2.116     2.275
    38   1 H        0.924     0.043     2.407     2.426
    39   1 H        0.925     0.055     2.257     2.349
    40   1 H        0.924     0.047     2.359     2.402
    41   1 H        0.924     0.098     1.799     2.098
    42   1 H        0.860     0.228     0.976     1.547
    43   1 H        0.924     0.060     2.204     2.322
    44   1 H        0.925     0.056     2.251     2.346
    45   1 H        0.925     0.046     2.370     2.408
    46   1 H        0.925     0.073     2.055     2.242
    47   1 H        0.860     0.189     1.162     1.688
    48   1 H        0.924     0.071     2.079     2.255
    49   1 H        0.925     0.070     2.084     2.258
    50   1 H        0.925     0.053     2.281     2.362
    51   1 H        0.925     0.042     2.417     2.431
    52   1 H        0.860     0.215     1.035     1.594
    53   1 H        0.924     0.046     2.368     2.407
    54   1 H        0.925     0.047     2.353     2.399
    55   1 H        0.925     0.054     2.275     2.359
    56   1 H        0.925     0.072     2.068     2.249
    57   1 H        0.860     0.225     0.986     1.556
    58   1 H        0.924     0.061     2.182     2.310
    59   1 H        0.925     0.074     2.043     2.235
    60   1 H        0.925     0.045     2.382     2.414
    61   1 H        0.925     0.061     2.193     2.316
    62   1 H        0.924     0.076     2.019     2.222
    63   1 H        0.924     0.052     2.299     2.371
    64   1 H        0.925     0.063     2.168     2.303
    65   1 H        0.925     0.052     2.291     2.367
    66   1 H        0.925     0.054     2.266     2.354
    67   1 H        0.924     0.060     2.203     2.321
    68   1 H        0.924     0.045     2.389     2.417

 Mol. C6AA /au·bohr⁶  :      43596.334468
 Mol. C8AA /au·bohr⁸  :     970075.475168
 Mol. α(0) /au        :        310.361050


Wiberg/Mayer (AO) data.
largest (>0.10) Wiberg bond orders for each atom

 ---------------------------------------------------------------------------
     #   Z sym  total        # sym  WBO       # sym  WBO       # sym  WBO
 ---------------------------------------------------------------------------
     1   8 O    1.982 --    13 C    1.654    12 N    0.194
     2   8 O    1.962 --    18 C    1.585     7 N    0.189
     3   8 O    1.995 --    21 C    1.661     8 N    0.196
     4   8 O    2.015 --    24 C    1.697     9 N    0.196
     5   8 O    2.018 --    27 C    1.623    10 N    0.200
     6   8 O    1.978 --    30 C    1.628    11 N    0.196
     7   7 N    3.524 --    18 C    1.312    17 C    0.973    14 C    0.963
                             2 O    0.189
     8   7 N    3.456 --    21 C    1.285    19 C    0.971    42 H    0.873
                             3 O    0.196
     9   7 N    3.437 --    24 C    1.246    22 C    0.988    47 H    0.930
                             4 O    0.196
    10   7 N    3.478 --    27 C    1.317    25 C    0.971    52 H    0.899
                             5 O    0.200
    11   7 N    3.467 --    30 C    1.309    28 C    0.973    57 H    0.884
                             6 O    0.196
    12   7 N    3.499 --    13 C    1.262    34 C    0.980    31 C    0.972
                             1 O    0.194
    13   6 C    3.955 --     1 O    1.654    12 N    1.262    14 C    0.936
    14   6 C    3.972 --    15 C    0.982     7 N    0.963    35 H    0.957
                            13 C    0.936
    15   6 C    3.991 --    16 C    1.003    14 C    0.982    36 H    0.978
                            37 H    0.974
    16   6 C    3.995 --    17 C    1.005    15 C    1.003    38 H    0.979
                            39 H    0.976
    17   6 C    3.960 --    16 C    1.005     7 N    0.973    40 H    0.970
                            41 H    0.948
    18   6 C    3.947 --     2 O    1.585     7 N    1.312    19 C    0.930
    19   6 C    3.970 --    20 C    1.005     8 N    0.971    43 H    0.958
                            18 C    0.930
    20   6 C    3.989 --    19 C    1.005    45 H    0.984    44 H    0.984
                            46 H    0.978
    21   6 C    3.954 --     3 O    1.661     8 N    1.285    22 C    0.927
    22   6 C    3.968 --    23 C    0.997     9 N    0.988    48 H    0.940
                            21 C    0.927
    23   6 C    3.991 --    22 C    0.997    51 H    0.986    50 H    0.985
                            49 H    0.980
    24   6 C    3.953 --     4 O    1.697     9 N    1.246    25 C    0.932
    25   6 C    3.967 --    26 C    0.997    10 N    0.971    53 H    0.951
                            24 C    0.932
    26   6 C    3.989 --    25 C    0.997    54 H    0.984    55 H    0.983
                            56 H    0.982
    27   6 C    3.950 --     5 O    1.623    10 N    1.317    28 C    0.919
    28   6 C    3.967 --    29 C    1.009    11 N    0.973    58 H    0.955
                            27 C    0.919
    29   6 C    3.988 --    28 C    1.009    60 H    0.986    61 H    0.982
                            59 H    0.976
    30   6 C    3.955 --     6 O    1.628    11 N    1.309    31 C    0.934
    31   6 C    3.966 --    32 C    0.980    12 N    0.972    62 H    0.951
                            30 C    0.934
    32   6 C    3.991 --    33 C    1.006    31 C    0.980    63 H    0.976
                            64 H    0.975
    33   6 C    3.994 --    32 C    1.006    34 C    1.003    66 H    0.978
                            65 H    0.977
    34   6 C    3.972 --    33 C    1.003    12 N    0.980    68 H    0.969
                            67 H    0.967
    35   1 H    0.998 --    14 C    0.957
    36   1 H    0.998 --    15 C    0.978
    37   1 H    0.995 --    15 C    0.974
    38   1 H    0.998 --    16 C    0.979
    39   1 H    0.996 --    16 C    0.976
    40   1 H    0.998 --    17 C    0.970
    41   1 H    0.990 --    17 C    0.948
    42   1 H    0.948 --     8 N    0.873
    43   1 H    0.996 --    19 C    0.958
    44   1 H    0.996 --    20 C    0.984
    45   1 H    0.997 --    20 C    0.984
    46   1 H    0.995 --    20 C    0.978
    47   1 H    0.964 --     9 N    0.930
    48   1 H    0.995 --    22 C    0.940
    49   1 H    0.994 --    23 C    0.980
    50   1 H    0.997 --    23 C    0.985
    51   1 H    0.998 --    23 C    0.986
    52   1 H    0.954 --    10 N    0.899
    53   1 H    0.998 --    25 C    0.951
    54   1 H    0.997 --    26 C    0.984
    55   1 H    0.997 --    26 C    0.983
    56   1 H    0.995 --    26 C    0.982
    57   1 H    0.949 --    11 N    0.884
    58   1 H    0.996 --    28 C    0.955
    59   1 H    0.995 --    29 C    0.976
    60   1 H    0.997 --    29 C    0.986
    61   1 H    0.996 --    29 C    0.982
    62   1 H    0.994 --    31 C    0.951
    63   1 H    0.997 --    32 C    0.976
    64   1 H    0.996 --    32 C    0.975
    65   1 H    0.997 --    33 C    0.977
    66   1 H    0.997 --    33 C    0.978
    67   1 H    0.996 --    34 C    0.967
    68   1 H    0.998 --    34 C    0.969
 ---------------------------------------------------------------------------

Topologies differ in total number of bonds
Writing topology from bond orders to xtbtopo.mol

molecular dipole:
                 x           y           z       tot (Debye)
 q only:        2.479      -1.696      -0.133
   full:        2.871      -1.987      -0.106       8.879
molecular quadrupole (traceless):
                xx          xy          yy          xz          yz          zz
 q only:        2.667       0.729      -0.239      -7.034       5.591      -2.428
  q+dip:        3.181       0.181      -1.801      -6.825       7.903      -1.380
   full:        3.210      -0.072      -2.184      -7.300       7.681      -1.026

           -------------------------------------------------
          |                Geometry Summary                 |
           -------------------------------------------------

      molecular mass/u    :      478.5428241
   center of mass at/Å    :        0.0000000       0.0000000      -0.0000000
  moments of inertia/u·Å² :        0.3104085E+04   0.3878765E+04   0.5314268E+04
rotational constants/cm⁻¹ :        0.5430789E-02   0.4346134E-02   0.3172146E-02

 * 64 selected distances

     #   Z          #   Z                                           value/Å
     1   8 O       13   6 C                                       1.2190401
    12   7 N       13   6 C                                       1.3447124
     7   7 N       14   6 C                                       1.4583020
    14   6 C       15   6 C                                       1.5295382
    15   6 C       16   6 C                                       1.5252981
     7   7 N       17   6 C                                       1.4552951
    16   6 C       17   6 C                                       1.5268560
     2   8 O       18   6 C                                       1.2305520
     7   7 N       18   6 C                                       1.3342397
     8   7 N       19   6 C                                       1.4530774
    19   6 C       20   6 C                                       1.5202232
     3   8 O       21   6 C                                       1.2167226
     8   7 N       21   6 C                                       1.3418533
     9   7 N       22   6 C                                       1.4445005
    22   6 C       23   6 C                                       1.5282767
     4   8 O       24   6 C                                       1.2112213
     9   7 N       24   6 C                                       1.3517259
    10   7 N       25   6 C                                       1.4542958
    25   6 C       26   6 C                                       1.5280860
     5   8 O       27   6 C                                       1.2194691
    10   7 N       27   6 C                                       1.3346579
    11   7 N       28   6 C                                       1.4527714
    28   6 C       29   6 C                                       1.5197317
     6   8 O       30   6 C                                       1.2230982
    11   7 N       30   6 C                                       1.3362736
    12   7 N       31   6 C                                       1.4521607
    31   6 C       32   6 C                                       1.5303904 (max)
    32   6 C       33   6 C                                       1.5262029
    12   7 N       34   6 C                                       1.4523655
    33   6 C       34   6 C                                       1.5299079
    14   6 C       35   1 H                                       1.0943910
    15   6 C       36   1 H                                       1.0881856
    15   6 C       37   1 H                                       1.0909938
    16   6 C       38   1 H                                       1.0916230
    16   6 C       39   1 H                                       1.0872794
    17   6 C       40   1 H                                       1.0927099
    17   6 C       41   1 H                                       1.0942489
     8   7 N       42   1 H                                       1.0203484
    19   6 C       43   1 H                                       1.0922846
    20   6 C       44   1 H                                       1.0864229
    20   6 C       45   1 H                                       1.0872694
    20   6 C       46   1 H                                       1.0868378
     9   7 N       47   1 H                                       1.0118402 (min)
    22   6 C       48   1 H                                       1.0956563
    23   6 C       49   1 H                                       1.0856126
    23   6 C       50   1 H                                       1.0873060
    23   6 C       51   1 H                                       1.0870645
    10   7 N       52   1 H                                       1.0172627
    25   6 C       53   1 H                                       1.0973168
    26   6 C       54   1 H                                       1.0874575
    26   6 C       55   1 H                                       1.0864966
    26   6 C       56   1 H                                       1.0867656
    11   7 N       57   1 H                                       1.0165119
    28   6 C       58   1 H                                       1.0964898
    29   6 C       59   1 H                                       1.0870338
    29   6 C       60   1 H                                       1.0869991
    29   6 C       61   1 H                                       1.0861597
    31   6 C       62   1 H                                       1.0947501
    32   6 C       63   1 H                                       1.0905463
    32   6 C       64   1 H                                       1.0875852
    33   6 C       65   1 H                                       1.0878560
    33   6 C       66   1 H                                       1.0898873
    34   6 C       67   1 H                                       1.0925491
    34   6 C       68   1 H                                       1.0966845

 * 5 distinct bonds (by element types)

   Z      Z             #   av. dist./Å        max./Å        min./Å
   1 H    6 C          30     1.0900821     1.0973168     1.0856126
   6 C    6 C          10     1.5264511     1.5303904     1.5197317
   1 H    7 N           4     1.0164908     1.0203484     1.0118402
   6 C    7 N          14     1.4047308     1.4583020     1.3342397
   6 C    8 O           6     1.2200172     1.2305520     1.2112213


optimized geometry written to: xtbopt.xyz


           -------------------------------------------------
          | TOTAL ENERGY             -106.572647959715 Eh   |
          | GRADIENT NORM               0.000106008941 Eh/α |
          | HOMO-LUMO GAP               3.875397798596 eV   |
           -------------------------------------------------

------------------------------------------------------------------------
 * finished run on 2026/10/01 at 13:39:06.488     
------------------------------------------------------------------------
 total:
 * wall-time:     0 d,  0 h,  0 min,  0.126 sec
 *  cpu-time:     0 d,  0 h,  0 min,  1.640 sec
 * ratio c/w:    13.009 speedup
 SCF:
 * wall-time:     0 d,  0 h,  0 min,  0.042 sec
 *  cpu-time:     0 d,  0 h,  0 min,  0.674 sec
 * ratio c/w:    15.923 speedup
 ANC optimizer:
 * wall-time:     0 d,  0 h,  0 min,  0.074 sec
 *  cpu-time:     0 d,  0 h,  0 min,  0.844 sec
 * ratio c/w:    11.402 speedup


--- STDERR ---
normal termination of xtb
Note: The following floating-point exceptions are signalling: IEEE_UNDERFLOW_FLAG IEEE_DENORMAL
