68
 energy: -106.572647959715 gnorm: 0.000106008941 xtb: 6.7.1-6.fc44.fc44
O            0.76529845950000       -0.98034731720000        1.38903045820000
O            0.89633319270000       -0.93975741680000       -1.66959428940000
O           -2.56349173090000       -2.43659415540000        0.53860776480000
O           -3.91794368670000        3.01960885440000       -0.24610353350000
O           -1.42674051090000        1.82002196790000       -1.40690307180000
O            1.94896117240000        2.76559345930000        1.37782905200000
N            0.49138329850000       -2.89853049620000       -0.69033183780000
N           -1.98202839100000       -0.89678552500000       -1.01198639210000
N           -3.42845900340000        0.95697718590000        0.44998162160000
N           -0.76968954310000        2.79874334350000        0.52708623390000
N            1.69886996800000        1.53239740980000       -0.49407058300000
N            2.85691245720000       -0.66540358170000        0.65436799220000
C            1.72507901870000       -1.38443971560000        0.75531978590000
C            1.70594818210000       -2.77228248480000        0.10687444990000
C            1.55274354190000       -3.86992151440000        1.16101082550000
C            0.76748568840000       -4.94559440990000        0.41748428600000
C           -0.23163869820000       -4.12688334770000       -0.39661111240000
C            0.11815718750000       -1.86749733150000       -1.45050825480000
C           -1.33505174690000       -1.81544160960000       -1.93335812660000
C           -1.44307460520000       -1.28549093740000       -3.35411904970000
C           -2.42230963730000       -1.27734644150000        0.19710236870000
C           -2.72937521890000       -0.10164013980000        1.14077282790000
C           -3.53013176580000       -0.58478749020000        2.34948567320000
C           -3.18956630250000        2.28582991280000        0.38484141940000
C           -2.03428194390000        2.83269680180000        1.24446268010000
C           -2.34435065340000        4.27555805950000        1.64076457900000
C           -0.57431215390000        2.35053730760000       -0.71478750960000
C            0.88203283130000        2.51423739250000       -1.18639398680000
C            1.00315047230000        2.30286416400000       -2.68647262080000
C            2.12983674960000        1.72828588520000        0.75553818780000
C            2.96821654080000        0.59799332660000        1.36162323130000
C            4.45716122010000        0.93681373940000        1.25994293450000
C            4.82393412120000        0.37215410190000       -0.10970375470000
C            4.01754608800000       -0.92614093660000       -0.17888513790000
H            2.58416387740000       -2.93812911880000       -0.52472942500000
H            2.51244770350000       -4.21804742280000        1.53773875190000
H            0.95776955430000       -3.47977326770000        1.98808852100000
H            1.43160601700000       -5.50591162180000       -0.24329510290000
H            0.27242463100000       -5.64205388430000        1.08981982560000
H           -0.51540486940000       -4.62952916600000       -1.32442506790000
H           -1.12963010740000       -3.90453648620000        0.18781485180000
H           -1.84141758870000        0.09512839370000       -1.20549597270000
H           -1.81679000000000       -2.79046901130000       -1.83169542040000
H           -2.48742897980000       -1.20430825500000       -3.64229914020000
H           -0.93197175280000       -1.95162002950000       -4.04491600730000
H           -0.98789068240000       -0.30012962280000       -3.40967837470000
H           -4.22720211400000        0.66442334870000       -0.09796194050000
H           -1.74454978300000        0.25095849080000        1.46674141060000
H           -3.00110125710000       -1.40289277790000        2.82842714960000
H           -4.50460789670000       -0.94617260710000        2.03006250210000
H           -3.66863109620000        0.22452748490000        3.06190141910000
H            0.03576460030000        3.16207142430000        1.03112943970000
H           -1.93365463500000        2.22442226220000        2.15219626360000
H           -1.50372346040000        4.70543307400000        2.18031719820000
H           -3.22714624860000        4.30417996100000        2.27347882720000
H           -2.54406705190000        4.86196542650000        0.74784851960000
H            1.66130829320000        0.59810104640000       -0.89278805410000
H            1.23787741870000        3.50911459540000       -0.89333490730000
H            0.77628330540000        1.26592066720000       -2.92082638840000
H            2.01129186760000        2.53122375220000       -3.02273077650000
H            0.29655705750000        2.94183215610000       -3.20818932150000
H            2.63066361540000        0.47784477870000        2.39607954120000
H            5.01232690560000        0.42517396570000        2.04690339720000
H            4.63146315430000        2.00705022040000        1.34393162710000
H            5.89183819810000        0.19689099120000       -0.22058335420000
H            4.49679178320000        1.05658895970000       -0.89225148470000
H            3.71531362780000       -1.16085772210000       -1.20222614810000
H            4.59467399340000       -1.76464548080000        0.22922058230000
