68
 energy: -106.574021394813 gnorm: 0.000390557432 xtb: 6.7.1-6.fc44.fc44
O            1.02302907345322       -0.48342654275370        1.55094709930716
O            0.90014342829224       -0.81391647170107       -1.50082841178030
O           -3.15173886793093       -2.53596553624555        0.22656565435067
O           -3.25255898744766        3.20526142244331        0.07172023455271
O           -1.24042802313444        1.65881147991290       -1.43500333886234
O            2.22722951319407        2.95803691661916        1.21749102983829
N            0.41065895868533       -2.62939530980375       -0.30710287296053
N           -2.16653841752605       -0.87433181746126       -0.94395718254387
N           -3.77155251372423        1.03814151753870        0.22855797533032
N           -0.58686843318049        2.42924116745105        0.58185674854098
N            1.92588611707622        1.75327098669268       -0.66977584050343
N            3.03377042888926       -0.47436986841210        0.55697522401106
C            1.86074475197279       -1.05230597133550        0.87238682221606
C            1.65632513527133       -2.50705160259804        0.44081004822748
C            1.42247366945253       -3.40957272104950        1.65228590654198
C            0.56374803997436       -4.52986788451600        1.07481103699761
C           -0.35848500351376       -3.79512687643487        0.10224429595549
C            0.08973740574722       -1.68513936714300       -1.19600312845575
C           -1.32812612224823       -1.71595063571040       -1.77870008648923
C           -1.32983911973176       -1.17283804955718       -3.20219207030233
C           -2.99942562452274       -1.34983785186690       -0.01773126733300
C           -3.78287946231149       -0.29123524112949        0.79078606999919
C           -5.22793266574205       -0.76369245602991        0.94967863122210
C           -2.96984745311825        2.09936860389120        0.47831824448069
C           -1.70292849426373        1.85641368880398        1.31216403034289
C           -1.83857964740483        2.55242323735101        2.66058220819939
C           -0.41933369982983        2.21987988360967       -0.72507878432088
C            0.95143520572518        2.66977817000934       -1.24363426993399
C            1.02328639377835        2.61086184957391       -2.75990292614872
C            2.41888264878814        1.94669233824365        0.56265099695104
C            3.34407367571257        0.84328711546268        1.08519023897074
C            4.78864911305677        1.08705606948550        0.64062674940944
C            4.86699898322750        0.32401526633052       -0.67870602110170
C            4.01959855360908       -0.92065227160761       -0.41155744044582
H            2.49150545600974       -2.86888386372164       -0.16789747620948
H            2.35390443211258       -3.76291022901607        2.09005313383955
H            0.86203742018080       -2.84823522215402        2.40138476377793
H            1.19238250463701       -5.24278415100785        0.53839222518576
H            0.00504925330826       -5.06509937287057        1.83873863381606
H           -0.60163871432517       -4.41255365278623       -0.76673374140036
H           -1.29235857817001       -3.49330986527539        0.58341142159697
H           -2.03027782392879        0.13132207818172       -1.07624096869969
H           -1.73593816534588       -2.72976699512555       -1.73809471145585
H           -1.00613768483591       -0.13538385232683       -3.18646418066570
H           -2.33153656835161       -1.22435327085552       -3.62005754712147
H           -0.65135517859349       -1.74855359834065       -3.82665964082477
H           -4.54822610050929        1.25579381865403       -0.38251220037156
H           -3.31769345090888       -0.27000460625039        1.78385177949532
H           -5.76551853064643       -0.12178199784967        1.64290931826664
H           -5.23063093898902       -1.78327301773461        1.32468297684438
H           -5.73444833557331       -0.75125543026238       -0.01325083045234
H            0.15600704479831        2.86139490774127        1.11800221586298
H           -1.50688171422528        0.78585023703516        1.44944442222974
H           -2.64281083851777        2.10252798610579        3.23776518552539
H           -2.06556177456018        3.60442858008532        2.50432151296046
H           -0.91057418601228        2.46152810569439        3.22026151167766
H            1.87490594128104        0.81244062400716       -1.04838483437454
H            1.17690668787990        3.67296329040287       -0.86684422897375
H            1.99702602645954        2.94544708879040       -3.10820913078502
H            0.25124035019019        3.24330542330949       -3.18827321963794
H            0.85556076310948        1.58811500070000       -3.08863013518610
H            3.23465932980254        0.84307824274501        2.17483519154214
H            5.47945423499326        0.66192113564823        1.36969308739543
H            5.00265445889450        2.14811241072264        0.53301085434596
H            5.88796142281403        0.07180579146689       -0.95751490641193
H            4.42031133640631        0.91563643253625       -1.47730558499051
H            3.53156379110688       -1.28146514374301       -1.31954057860182
H            4.63355096820464       -1.72343748715104        0.01531560666800
