34
frame_0056
O      -2.942935435400199      2.299313056735685     -1.948154594075971
C      -3.231046288391284      2.602413297756679     -0.630645256775683
O      -4.266829254541694      3.114838319981913     -0.543578855582698
H      -2.174485735038699      1.844012822084609     -1.800325759730277
C      -2.439338186060933      2.066592425329603      0.468495806286445
H      -3.031307085872181      2.253027184260585      1.374788318137454
H      -1.597367479230986      2.512127660744739      0.397106905490992
N      -2.357776219109959      0.560482376399437      0.407367338221042
H      -2.867061688755999     -0.002839583993093      1.188202144894149
C      -1.550645685543358     -0.258615019667883     -0.176088791822160
O      -1.009110296299777      0.483099651047569     -1.304243354105362
C      -1.456407209249061     -1.804441433807359     -0.106081488260331
H      -2.398756516214346     -1.916019138492383     -0.267582681234998
N      -0.634617395085050     -2.134820049939496     -1.136015510701000
H       0.171739580153608     -1.660443413933417     -1.476249234838519
H      -1.181735671457218     -1.975009532056961     -2.171392099216039
C      -0.466761669653442     -1.806025734025699      1.244574406743300
H      -0.264498127816429     -2.764570753603125      1.192205974310912
H      -1.303263008095823     -1.432408314843233      2.143653601486957
C       0.567474577183249     -0.929573251285324      1.017029140697176
C       0.754751752322216      0.334300415763712      1.527497541477778
H      -0.003513152098729      0.902025221187287      2.410667616529274
N       2.031737433379095      0.701001807847627      1.423197575071191
H       2.400434310339517      1.702678432091032      1.706240586176590
C       2.985219309479521     -0.042444766649243      0.741401676402727
C       4.140217655051367     -0.093598363424803      0.310263239842961
H       4.931659162146395      0.752334898938573      0.653003600524570
C       4.596573468513286     -1.177015678531737     -0.248568852730526
H       5.678091996404880     -1.175732666542979     -0.616266221065993
C       3.756474563275856     -2.270314968975655     -0.444454462908985
H       4.327733652102224     -3.245312354178684     -1.042874854610906
C       2.609602806130370     -2.400586989350910     -0.017853163466374
H       1.866580308016105     -3.187874588479843     -0.164286209544980
C       1.819443655196275     -1.172740270758069      0.576108724512166
