      -----------------------------------------------------------      
     |                   =====================                   |     
     |                           x T B                           |     
     |                   =====================                   |     
     |                         S. Grimme                         |     
     |          Mulliken Center for Theoretical Chemistry        |     
     |                    University of Bonn                     |     
      -----------------------------------------------------------      

   * xtb version 6.7.1-6.fc44.fc44 compiled by Fedora project on Sun Jan 18 23:32:34 UTC 2026

   xtb is free software: you can redistribute it and/or modify it under
   the terms of the GNU Lesser General Public License as published by
   the Free Software Foundation, either version 3 of the License, or
   (at your option) any later version.
   
   xtb is distributed in the hope that it will be useful,
   but WITHOUT ANY WARRANTY; without even the implied warranty of
   MERCHANTABILITY or FITNESS FOR A PARTICULAR PURPOSE.  See the
   GNU Lesser General Public License for more details.
   
   Cite this work as:
   * C. Bannwarth, E. Caldeweyher, S. Ehlert, A. Hansen, P. Pracht,
     J. Seibert, S. Spicher, S. Grimme, WIREs Comput. Mol. Sci., 2020, 11,
     e01493. DOI: 10.1002/wcms.1493
   
   for GFN2-xTB:
   * C. Bannwarth, S. Ehlert and S. Grimme., J. Chem. Theory Comput., 2019,
     15, 1652-1671. DOI: 10.1021/acs.jctc.8b01176
   for GFN1-xTB:
   * S. Grimme, C. Bannwarth, P. Shushkov, J. Chem. Theory Comput., 2017,
     13, 1989-2009. DOI: 10.1021/acs.jctc.7b00118
   for GFN0-xTB:
   * P. Pracht, E. Caldeweyher, S. Ehlert, S. Grimme, ChemRxiv, 2019, preprint.
     DOI: 10.26434/chemrxiv.8326202.v1
   for GFN-FF:
   * S. Spicher and S. Grimme, Angew. Chem. Int. Ed., 2020, 59, 15665-15673.
     DOI: 10.1002/anie.202004239
   
   for ALPB and GBSA implicit solvation:
   * S. Ehlert, M. Stahn, S. Spicher, S. Grimme, J. Chem. Theory Comput.,
     2021, 17, 4250-4261. DOI: 10.1021/acs.jctc.1c00471
   
   for ddCOSMO and CPCM-X implicit solvation:
   * M. Stahn, S. Ehlert, S. Grimme, J. Phys. Chem. A,
     2023, XX, XXXX-XXXX. DOI: 10.1021/acs.jpca.3c04382
   
   for DFT-D4:
   * E. Caldeweyher, C. Bannwarth and S. Grimme, J. Chem. Phys., 2017,
     147, 034112. DOI: 10.1063/1.4993215
   * E. Caldeweyher, S. Ehlert, A. Hansen, H. Neugebauer, S. Spicher,
     C. Bannwarth and S. Grimme, J. Chem. Phys., 2019, 150, 154122.
     DOI: 10.1063/1.5090222
   * E. Caldeweyher, J.-M. Mewes, S. Ehlert and S. Grimme, Phys. Chem. Chem. Phys.
     2020, 22, 8499-8512. DOI: 10.1039/D0CP00502A
   
   for sTDA-xTB:
   * S. Grimme and C. Bannwarth, J. Chem. Phys., 2016, 145, 054103.
     DOI: 10.1063/1.4959605
   
   in the mass-spec context:
   * V. Asgeirsson, C. Bauer and S. Grimme, Chem. Sci., 2017, 8, 4879.
     DOI: 10.1039/c7sc00601b
   * J. Koopman and S. Grimme, ACS Omega 2019, 4, 12, 15120-15133.
     DOI: 10.1021/acsomega.9b02011
   
   for metadynamics refer to:
   * S. Grimme, J. Chem. Theory Comput., 2019, 155, 2847-2862
     DOI: 10.1021/acs.jctc.9b00143
   
   for SPH calculations refer to:
   * S. Spicher and S. Grimme, J. Chem. Theory Comput., 2021, 17, 1701-1714
     DOI: 10.1021/acs.jctc.0c01306
   
   for ONIOM refer to:
   * C. Plett, A. Katbashev, S. Ehlert, S. Grimme, M. Bursch,
     Phys. Chem. Chem. Phys., 2023, 25, 17860-17868. DOI: 10.1039/D3CP02178E
   
   for DIPRO refer to:
   * J. Kohn, N. Gildemeister, S. Grimme, D. Fazzi, A. Hansen,
     J. Chem. Phys., 2023, just accepted.
   
   for PTB refer to:
   * S. Grimme, M. Mueller, A. Hansen, J. Chem. Phys., 2023, 158, 124111.
     DOI: 10.1063/5.0137838
   
   with help from (in alphabetical order)
   P. Atkinson, C. Bannwarth, F. Bohle, G. Brandenburg, E. Caldeweyher
   M. Checinski, S. Dohm, S. Ehlert, S. Ehrlich, I. Gerasimov, C. Hölzer
   A. Katbashev, J. Kohn, J. Koopman, C. Lavigne, S. Lehtola, F. März, M. Müller,
   F. Musil, H. Neugebauer, J. Pisarek, C. Plett, P. Pracht, F. Pultar,
   J. Seibert, P. Shushkov, S. Spicher, M. Stahn, M. Steiner, T. Strunk,
   J. Stückrath, T. Rose, and J. Unsleber
   
 * started run on 2026/10/01 at 18:05:26.910     
   ID    Z sym.   atoms
    1    8 O      1, 3, 11
    2    6 C      2, 5, 10, 12, 17, 20, 21, 25, 26, 28, 30, 32, 34
    3    1 H      4, 6, 7, 9, 13, 15, 16, 18, 19, 22, 24, 27, 29, 31, 33
    4    7 N      8, 14, 23

           -------------------------------------------------
          |                Calculation Setup                |
           -------------------------------------------------

          program call               : /usr/bin/xtb input.xyz --opt --gfn 2 --chrg 0 --uhf 0
          hostname                   : fedora
          coordinate file            : input.xyz
          omp threads                :                    16


           -------------------------------------------------
          |                 G F N 2 - x T B                 |
           -------------------------------------------------

        Reference                      10.1021/acs.jctc.8b01176
      * Hamiltonian:
        H0-scaling (s, p, d)           1.850000    2.230000    2.230000
        zeta-weighting                 0.500000
      * Dispersion:
        s8                             2.700000
        a1                             0.520000
        a2                             5.000000
        s9                             5.000000
      * Repulsion:
        kExp                           1.500000    1.000000
        rExp                           1.000000
      * Coulomb:
        alpha                          2.000000
        third order                    shell-resolved
        anisotropic                    true
        a3                             3.000000
        a5                             4.000000
        cn-shift                       1.200000
        cn-exp                         4.000000
        max-rad                        5.000000


          ...................................................
          :                      SETUP                      :
          :.................................................:
          :  # basis functions                  91          :
          :  # atomic orbitals                  91          :
          :  # shells                           53          :
          :  # electrons                       100          :
          :  max. iterations                   250          :
          :  Hamiltonian                  GFN2-xTB          :
          :  restarted?                      false          :
          :  GBSA solvation                  false          :
          :  PC potential                    false          :
          :  electronic temp.          300.0000000     K    :
          :  accuracy                    1.0000000          :
          :  -> integral cutoff          0.2500000E+02      :
          :  -> integral neglect         0.1000000E-07      :
          :  -> SCF convergence          0.1000000E-05 Eh   :
          :  -> wf. convergence          0.1000000E-03 e    :
          :  Broyden damping             0.4000000          :
          :  net charge                          0          :
          :  unpaired electrons                  0          :
          ...................................................

 iter      E             dE          RMSdq      gap      omega  full diag
   1    -56.7090599 -0.567091E+02  0.465E+00    2.74       0.0  T
   2    -56.9070972 -0.198037E+00  0.264E+00    2.73       1.0  T
   3    -56.9248282 -0.177310E-01  0.156E+00    2.90       1.0  T
   4    -56.9183462  0.648202E-02  0.760E-01    2.72       1.0  T
   5    -56.9389327 -0.205866E-01  0.191E-01    2.75       1.0  T
   6    -56.9396048 -0.672135E-03  0.120E-01    2.76       1.0  T
   7    -56.9400344 -0.429503E-03  0.402E-02    2.75       1.0  T
   8    -56.9400428 -0.841883E-05  0.158E-02    2.76       1.1  T
   9    -56.9400454 -0.268060E-05  0.528E-03    2.76       3.2  T
  10    -56.9400455 -0.619214E-07  0.214E-03    2.76       8.0  T
  11    -56.9400456 -0.649501E-07  0.814E-04    2.76      21.1  T
  12    -56.9400456 -0.537907E-08  0.351E-04    2.76      48.9  T

   *** convergence criteria satisfied after 12 iterations ***

         #    Occupation            Energy/Eh            Energy/eV
      -------------------------------------------------------------
         1        2.0000           -0.7471327             -20.3305
       ...           ...                  ...                  ...
        44        2.0000           -0.4303920             -11.7116
        45        2.0000           -0.4042471             -11.0001
        46        2.0000           -0.3956940             -10.7674
        47        2.0000           -0.3904637             -10.6251
        48        2.0000           -0.3885885             -10.5740
        49        2.0000           -0.3724559             -10.1350
        50        2.0000           -0.3641299              -9.9085 (HOMO)
        51                         -0.2628386              -7.1522 (LUMO)
        52                         -0.2534955              -6.8980
        53                         -0.2469483              -6.7198
        54                         -0.2035227              -5.5381
        55                         -0.1628288              -4.4308
       ...                                ...                  ...
        91                          1.0485456              28.5324
      -------------------------------------------------------------
                  HL-Gap            0.1012913 Eh            2.7563 eV
             Fermi-level           -0.3134842 Eh           -8.5303 eV

 SCC (total)                   0 d,  0 h,  0 min,  0.052 sec
 SCC setup                      ...        0 min,  0.003 sec (  5.092%)
 Dispersion                     ...        0 min,  0.000 sec (  0.396%)
 classical contributions        ...        0 min,  0.002 sec (  3.493%)
 integral evaluation            ...        0 min,  0.001 sec (  1.086%)
 iterations                     ...        0 min,  0.045 sec ( 85.638%)
 molecular gradient             ...        0 min,  0.002 sec (  3.735%)
 printout                       ...        0 min,  0.000 sec (  0.545%)

         :::::::::::::::::::::::::::::::::::::::::::::::::::::
         ::                     SUMMARY                     ::
         :::::::::::::::::::::::::::::::::::::::::::::::::::::
         :: total energy             -56.051689963738 Eh    ::
         :: gradient norm              0.776018501906 Eh/a0 ::
         :: HOMO-LUMO gap              2.756276343702 eV    ::
         ::.................................................::
         :: SCC energy               -56.939600825650 Eh    ::
         :: -> isotropic ES            0.119459008208 Eh    ::
         :: -> anisotropic ES          0.004144944458 Eh    ::
         :: -> anisotropic XC          0.025133265092 Eh    ::
         :: -> dispersion             -0.035894738395 Eh    ::
         :: repulsion energy           0.887910861912 Eh    ::
         :: add. restraining           0.000000000000 Eh    ::
         :: total charge              -0.000000000000 e     ::
         :::::::::::::::::::::::::::::::::::::::::::::::::::::

      ----------------------------------------------------------- 
     |                   =====================                   |
     |                        A N C O P T                        |
     |                   =====================                   |
     |               Approximate Normal Coordinate               |
     |                Rational Function Optimizer                |
      ----------------------------------------------------------- 
      ----------------------------------------------------------- 
     |                   =====================                   |
     |                        A N C O P T                        |
     |                   =====================                   |
     |               Approximate Normal Coordinate               |
     |                Rational Function Optimizer                |
      ----------------------------------------------------------- 

          ...................................................
          :                      SETUP                      :
          :.................................................:
          :   optimization level            normal          :
          :   max. optcycles                   200          :
          :   ANC micro-cycles                  20          :
          :   degrees of freedom                96          :
          :.................................................:
          :   RF solver                   davidson          :
          :   write xtbopt.log                true          :
          :   linear?                        false          :
          :   energy convergence         0.5000000E-05 Eh   :
          :   grad. convergence          0.1000000E-02 Eh/α :
          :   maxmium RF displ.          1.0000000          :
          :   Hlow (freq-cutoff)         0.1000000E-01      :
          :   Hmax (freq-cutoff)         5.0000000          :
          :   S6 in model hess.         20.0000000          :
          ...................................................

generating ANC from exact Hessian ...
Using Lindh-Hessian (1995)
 Shifting diagonal of input Hessian by    9.6616528286611186E-003
 Lowest  eigenvalues of input Hessian
    0.000000    0.000000    0.000000    0.000000    0.000000    0.000000
    0.010000    0.010393    0.010615    0.011595    0.012626    0.013729
    0.015938    0.016852    0.017900    0.019783    0.020511    0.021165
 Highest eigenvalues
    2.044707    2.054899    2.159832    2.358642    2.505863    2.592983


........................................................................
.............................. CYCLE    1 ..............................
........................................................................

 iter      E             dE          RMSdq      gap      omega  full diag
   1    -56.9400456 -0.569400E+02  0.137E-04    2.76       0.0  T
   2    -56.9400456 -0.123009E-09  0.892E-05    2.76     192.2  T
   3    -56.9400456 -0.123329E-09  0.556E-05    2.76     308.6  T
     SCC iter.                  ...        0 min,  0.006 sec
     gradient                   ...        0 min,  0.001 sec
 * total energy  :   -56.0516900 Eh     change       -0.1108944E-08 Eh
   gradient norm :     0.7760168 Eh/α   predicted     0.0000000E+00 (-100.00%)
   displ. norm   :     0.5197132 α      lambda       -0.3549227E+00
   maximum displ.:     0.2351742 α      in ANC's #82, #76, #60, ...

........................................................................
.............................. CYCLE    2 ..............................
........................................................................

 iter      E             dE          RMSdq      gap      omega  full diag
   1    -57.0551873 -0.570552E+02  0.725E-01    3.30       0.0  T
   2    -57.0595363 -0.434901E-02  0.407E-01    3.22       1.0  T
   3    -57.0598147 -0.278417E-03  0.220E-01    3.16       1.0  T
   4    -57.0599104 -0.957176E-04  0.672E-02    3.15       1.0  T
   5    -57.0600097 -0.992776E-04  0.187E-02    3.15       1.0  T
   6    -57.0600133 -0.359495E-05  0.932E-03    3.15       1.8  T
   7    -57.0600150 -0.168742E-05  0.419E-03    3.15       4.1  T
   8    -57.0600151 -0.129672E-06  0.147E-03    3.15      11.7  T
   9    -57.0600151 -0.285089E-07  0.656E-04    3.15      26.2  T
  10    -57.0600151 -0.506277E-08  0.296E-04    3.15      57.9  T
     SCC iter.                  ...        0 min,  0.014 sec
     gradient                   ...        0 min,  0.010 sec
 * total energy  :   -56.3228357 Eh     change       -0.2711457E+00 Eh
   gradient norm :     0.4060762 Eh/α   predicted    -0.2254138E+00 ( -16.87%)
   displ. norm   :     0.5823527 α      lambda       -0.2079058E+00
   maximum displ.:     0.2511379 α      in ANC's #82, #49, #76, ...

........................................................................
.............................. CYCLE    3 ..............................
........................................................................

 iter      E             dE          RMSdq      gap      omega  full diag
   1    -57.1861998 -0.571862E+02  0.821E-01    3.48       0.0  T
   2    -57.1950894 -0.888959E-02  0.446E-01    3.45       1.0  T
   3    -57.1955645 -0.475099E-03  0.251E-01    3.41       1.0  T
   4    -57.1954928  0.717541E-04  0.109E-01    3.38       1.0  T
   5    -57.1957809 -0.288178E-03  0.280E-02    3.37       1.0  T
   6    -57.1957916 -0.106635E-04  0.121E-02    3.38       1.4  T
   7    -57.1957948 -0.315460E-05  0.457E-03    3.38       3.8  T
   8    -57.1957950 -0.208845E-06  0.201E-03    3.38       8.5  T
   9    -57.1957950 -0.401132E-07  0.669E-04    3.38      25.6  T
  10    -57.1957950 -0.352861E-08  0.280E-04    3.38      61.3  T
     SCC iter.                  ...        0 min,  0.015 sec
     gradient                   ...        0 min,  0.001 sec
 * total energy  :   -56.4491101 Eh     change       -0.1262744E+00 Eh
   gradient norm :     0.1119655 Eh/α   predicted    -0.1392070E+00 (  10.24%)
   displ. norm   :     0.4508167 α      lambda       -0.3516230E-01
   maximum displ.:     0.1427963 α      in ANC's #27, #13, #49, ...

........................................................................
.............................. CYCLE    4 ..............................
........................................................................

 iter      E             dE          RMSdq      gap      omega  full diag
   1    -57.2076058 -0.572076E+02  0.427E-01    3.24       0.0  T
   2    -57.2080734 -0.467572E-03  0.253E-01    3.30       1.0  T
   3    -57.2080424  0.309763E-04  0.955E-02    3.27       1.0  T
   4    -57.2081381 -0.956222E-04  0.193E-02    3.29       1.0  T
   5    -57.2081463 -0.825332E-05  0.916E-03    3.29       1.9  T
   6    -57.2081469 -0.569541E-06  0.487E-03    3.28       3.5  T
   7    -57.2081472 -0.282694E-06  0.150E-03    3.29      11.4  T
   8    -57.2081472 -0.149685E-07  0.790E-04    3.29      21.7  T
   9    -57.2081472 -0.723802E-08  0.329E-04    3.29      52.1  T
     SCC iter.                  ...        0 min,  0.016 sec
     gradient                   ...        0 min,  0.002 sec
 * total energy  :   -56.4687409 Eh     change       -0.1963079E-01 Eh
   gradient norm :     0.0634444 Eh/α   predicted    -0.2115430E-01 (   7.76%)
   displ. norm   :     0.3307425 α      lambda       -0.8946937E-02
   maximum displ.:     0.1095593 α      in ANC's #13, #11, #27, ...

........................................................................
.............................. CYCLE    5 ..............................
........................................................................

 iter      E             dE          RMSdq      gap      omega  full diag
   1    -57.2159857 -0.572160E+02  0.258E-01    3.46       0.0  T
   2    -57.2161611 -0.175358E-03  0.151E-01    3.41       1.0  T
   3    -57.2161432  0.178883E-04  0.567E-02    3.41       1.0  T
   4    -57.2161757 -0.325057E-04  0.144E-02    3.40       1.2  T
   5    -57.2161815 -0.579211E-05  0.666E-03    3.40       2.6  T
   6    -57.2161825 -0.983579E-06  0.196E-03    3.40       8.8  T
   7    -57.2161825 -0.280659E-07  0.878E-04    3.40      19.5  T
   8    -57.2161825 -0.232342E-08  0.282E-04    3.40      60.9  T
     SCC iter.                  ...        0 min,  0.012 sec
     gradient                   ...        0 min,  0.001 sec
 * total energy  :   -56.4734155 Eh     change       -0.4674607E-02 Eh
   gradient norm :     0.0418332 Eh/α   predicted    -0.4962852E-02 (   6.17%)
   displ. norm   :     0.2054605 α      lambda       -0.3180575E-02
   maximum displ.:     0.0550515 α      in ANC's #11, #8, #10, ...

........................................................................
.............................. CYCLE    6 ..............................
........................................................................

 iter      E             dE          RMSdq      gap      omega  full diag
   1    -57.2302894 -0.572303E+02  0.130E-01    3.40       0.0  T
   2    -57.2303280 -0.386641E-04  0.749E-02    3.40       1.0  T
   3    -57.2303219  0.610596E-05  0.290E-02    3.40       1.0  T
   4    -57.2303309 -0.893339E-05  0.909E-03    3.40       1.9  T
   5    -57.2303334 -0.249956E-05  0.208E-03    3.40       8.2  T
   6    -57.2303334 -0.250434E-07  0.126E-03    3.40      13.6  T
   7    -57.2303334 -0.117880E-07  0.329E-04    3.40      52.1  T
   8    -57.2303334 -0.130552E-08  0.176E-04    3.40      97.3  T
     SCC iter.                  ...        0 min,  0.012 sec
     gradient                   ...        0 min,  0.002 sec
 * total energy  :   -56.4750214 Eh     change       -0.1605958E-02 Eh
   gradient norm :     0.0279763 Eh/α   predicted    -0.1657425E-02 (   3.20%)
   displ. norm   :     0.1649531 α      lambda       -0.1723790E-02
   maximum displ.:     0.0570839 α      in ANC's #13, #10, #5, ...

........................................................................
.............................. CYCLE    7 ..............................
........................................................................

 iter      E             dE          RMSdq      gap      omega  full diag
   1    -57.2328396 -0.572328E+02  0.117E-01    3.34       0.0  T
   2    -57.2328989 -0.593275E-04  0.655E-02    3.37       1.0  T
   3    -57.2328991 -0.199808E-06  0.318E-02    3.37       1.0  T
   4    -57.2329025 -0.335419E-05  0.885E-03    3.38       1.9  T
   5    -57.2329049 -0.245161E-05  0.276E-03    3.38       6.2  T
   6    -57.2329050 -0.121913E-06  0.903E-04    3.38      19.0  T
   7    -57.2329050 -0.855356E-08  0.393E-04    3.38      43.6  T
     SCC iter.                  ...        0 min,  0.012 sec
     gradient                   ...        0 min,  0.002 sec
 * total energy  :   -56.4756378 Eh     change       -0.6163531E-03 Eh
   gradient norm :     0.0206389 Eh/α   predicted    -0.8853817E-03 (  43.65%)
   displ. norm   :     0.0896410 α      lambda       -0.5838349E-03
   maximum displ.:     0.0490161 α      in ANC's #10, #6, #18, ...

........................................................................
.............................. CYCLE    8 ..............................
........................................................................

 iter      E             dE          RMSdq      gap      omega  full diag
   1    -57.2349876 -0.572350E+02  0.582E-02    3.41       0.0  T
   2    -57.2350004 -0.127360E-04  0.325E-02    3.40       1.0  T
   3    -57.2349996  0.797168E-06  0.158E-02    3.40       1.1  T
   4    -57.2350011 -0.157839E-05  0.507E-03    3.40       3.4  T
   5    -57.2350020 -0.822051E-06  0.105E-03    3.40      16.3  T
   6    -57.2350020 -0.124014E-07  0.398E-04    3.40      43.1  T
   7    -57.2350020 -0.143046E-08  0.174E-04    3.40      98.4  T
     SCC iter.                  ...        0 min,  0.016 sec
     gradient                   ...        0 min,  0.002 sec
 * total energy  :   -56.4759785 Eh     change       -0.3406861E-03 Eh
   gradient norm :     0.0082154 Eh/α   predicted    -0.2942743E-03 ( -13.62%)
   displ. norm   :     0.0797646 α      lambda       -0.2163557E-03
   maximum displ.:     0.0321756 α      in ANC's #6, #13, #16, ...

........................................................................
.............................. CYCLE    9 ..............................
........................................................................

 iter      E             dE          RMSdq      gap      omega  full diag
   1    -57.2342871 -0.572343E+02  0.468E-02    3.41       0.0  T
   2    -57.2342918 -0.463057E-05  0.268E-02    3.40       1.0  T
   3    -57.2342906  0.111568E-05  0.105E-02    3.40       1.6  T
   4    -57.2342921 -0.143293E-05  0.361E-03    3.40       4.8  T
   5    -57.2342925 -0.384326E-06  0.691E-04    3.40      24.8  T
   6    -57.2342925 -0.211034E-08  0.304E-04    3.40      56.4  T
     SCC iter.                  ...        0 min,  0.013 sec
     gradient                   ...        0 min,  0.002 sec
 * total energy  :   -56.4760740 Eh     change       -0.9549393E-04 Eh
   gradient norm :     0.0066314 Eh/α   predicted    -0.1088769E-03 (  14.01%)
   displ. norm   :     0.0602569 α      lambda       -0.1242161E-03
   maximum displ.:     0.0279973 α      in ANC's #6, #14, #10, ...

........................................................................
.............................. CYCLE   10 ..............................
........................................................................

 iter      E             dE          RMSdq      gap      omega  full diag
   1    -57.2330721 -0.572331E+02  0.336E-02    3.39       0.0  T
   2    -57.2330728 -0.768489E-06  0.197E-02    3.39       1.0  T
   3    -57.2330726  0.194591E-06  0.400E-03    3.39       4.3  T
   4    -57.2330729 -0.304348E-06  0.845E-04    3.39      20.3  T
   5    -57.2330729 -0.995200E-08  0.438E-04    3.39      39.1  T
     SCC iter.                  ...        0 min,  0.011 sec
     gradient                   ...        0 min,  0.002 sec
 * total energy  :   -56.4761349 Eh     change       -0.6096639E-04 Eh
   gradient norm :     0.0051748 Eh/α   predicted    -0.6233755E-04 (   2.25%)
   displ. norm   :     0.0323892 α      lambda       -0.4164222E-04
   maximum displ.:     0.0136118 α      in ANC's #6, #16, #4, ...

........................................................................
.............................. CYCLE   11 ..............................
........................................................................

 iter      E             dE          RMSdq      gap      omega  full diag
   1    -57.2334963 -0.572335E+02  0.148E-02    3.40       0.0  T
   2    -57.2334970 -0.705950E-06  0.867E-03    3.40       2.0  T
   3    -57.2334968  0.143554E-06  0.455E-03    3.40       3.8  T
   4    -57.2334971 -0.244590E-06  0.140E-03    3.40      12.2  T
   5    -57.2334971 -0.618976E-07  0.292E-04    3.40      58.8  T
   6    -57.2334971 -0.484597E-09  0.153E-04    3.40     112.0  T
     SCC iter.                  ...        0 min,  0.006 sec
     gradient                   ...        0 min,  0.003 sec
 * total energy  :   -56.4761614 Eh     change       -0.2647707E-04 Eh
   gradient norm :     0.0026532 Eh/α   predicted    -0.2084747E-04 ( -21.26%)
   displ. norm   :     0.0329992 α      lambda        0.7876568E-05
   maximum displ.:     0.0139378 α      in ANC's #6, #16, #4, ...

........................................................................
.............................. CYCLE   12 ..............................
........................................................................

 iter      E             dE          RMSdq      gap      omega  full diag
   1    -57.2338845 -0.572339E+02  0.150E-02    3.40       0.0  T
   2    -57.2338852 -0.726910E-06  0.876E-03    3.40       2.0  T
   3    -57.2338851  0.132552E-06  0.450E-03    3.40       3.8  T
   4    -57.2338853 -0.226159E-06  0.141E-03    3.40      12.2  T
   5    -57.2338853 -0.629669E-07  0.297E-04    3.40      57.7  T
   6    -57.2338853 -0.523485E-09  0.155E-04    3.40     110.7  T
     SCC iter.                  ...        0 min,  0.007 sec
     gradient                   ...        0 min,  0.002 sec
 * total energy  :   -56.4761574 Eh     change        0.3970195E-05 Eh
   gradient norm :     0.0041341 Eh/α   predicted     0.3939430E-05 (  -0.77%)
   displ. norm   :     0.0183536 α      lambda       -0.2994397E-04
   maximum displ.:     0.0088317 α      in ANC's #12, #4, #15, ...

........................................................................
.............................. CYCLE   13 ..............................
........................................................................

 iter      E             dE          RMSdq      gap      omega  full diag
   1    -57.2336571 -0.572337E+02  0.147E-02    3.40       0.0  T
   2    -57.2336573 -0.261025E-06  0.864E-03    3.40       2.0  T
   3    -57.2336573  0.640079E-07  0.230E-03    3.40       7.5  T
   4    -57.2336573 -0.745671E-07  0.765E-04    3.40      22.4  T
   5    -57.2336574 -0.187302E-07  0.172E-04    3.40      99.7  T
     SCC iter.                  ...        0 min,  0.009 sec
     gradient                   ...        0 min,  0.001 sec
 * total energy  :   -56.4761742 Eh     change       -0.1679089E-04 Eh
   gradient norm :     0.0018616 Eh/α   predicted    -0.1497895E-04 ( -10.79%)
   displ. norm   :     0.0260334 α      lambda       -0.8385119E-05
   maximum displ.:     0.0167829 α      in ANC's #4, #13, #6, ...

........................................................................
.............................. CYCLE   14 ..............................
........................................................................

 iter      E             dE          RMSdq      gap      omega  full diag
   1    -57.2334989 -0.572335E+02  0.120E-02    3.41       0.0  T
   2    -57.2334994 -0.493709E-06  0.680E-03    3.40       2.5  T
   3    -57.2334994  0.208400E-07  0.301E-03    3.40       5.7  T
   4    -57.2334994 -0.493233E-07  0.856E-04    3.40      20.0  T
   5    -57.2334995 -0.225070E-07  0.194E-04    3.40      88.2  T
     SCC iter.                  ...        0 min,  0.005 sec
     gradient                   ...        0 min,  0.003 sec
 * total energy  :   -56.4761802 Eh     change       -0.5982962E-05 Eh
   gradient norm :     0.0014759 Eh/α   predicted    -0.4198234E-05 ( -29.83%)
   displ. norm   :     0.0355532 α      lambda       -0.6675208E-05
   maximum displ.:     0.0231643 α      in ANC's #4, #14, #13, ...

........................................................................
.............................. CYCLE   15 ..............................
........................................................................

 iter      E             dE          RMSdq      gap      omega  full diag
   1    -57.2337988 -0.572338E+02  0.116E-02    3.41       0.0  T
   2    -57.2337988 -0.440751E-07  0.682E-03    3.41       2.5  T
   3    -57.2337988  0.637102E-07  0.150E-03    3.41      11.5  T
   4    -57.2337988 -0.802932E-07  0.387E-04    3.41      44.3  T
   5    -57.2337988 -0.221251E-08  0.203E-04    3.41      84.4  T
     SCC iter.                  ...        0 min,  0.007 sec
     gradient                   ...        0 min,  0.002 sec
 * total energy  :   -56.4761858 Eh     change       -0.5583537E-05 Eh
   gradient norm :     0.0011579 Eh/α   predicted    -0.3341288E-05 ( -40.16%)
   displ. norm   :     0.0233685 α      lambda       -0.3240544E-05
   maximum displ.:     0.0152531 α      in ANC's #4, #13, #19, ...

........................................................................
.............................. CYCLE   16 ..............................
........................................................................

 iter      E             dE          RMSdq      gap      omega  full diag
   1    -57.2337314 -0.572337E+02  0.930E-03    3.41       0.0  T
   2    -57.2337315 -0.980602E-07  0.537E-03    3.41       3.2  T
   3    -57.2337314  0.707359E-07  0.205E-03    3.41       8.4  T
   4    -57.2337315 -0.837633E-07  0.560E-04    3.41      30.6  T
   5    -57.2337315 -0.975226E-08  0.157E-04    3.41     108.9  T
     SCC iter.                  ...        0 min,  0.011 sec
     gradient                   ...        0 min,  0.002 sec
 * total energy  :   -56.4761874 Eh     change       -0.1565764E-05 Eh
   gradient norm :     0.0009300 Eh/α   predicted    -0.1623836E-05 (   3.71%)
   displ. norm   :     0.0134246 α      lambda       -0.2134183E-05
   maximum displ.:     0.0078217 α      in ANC's #4, #6, #12, ...

   *** GEOMETRY OPTIMIZATION CONVERGED AFTER 16 ITERATIONS ***

------------------------------------------------------------------------
 total energy gain   :        -0.4244974 Eh     -266.3761 kcal/mol
 total RMSD          :         0.2879999 a0        0.1524 Å
 total power (kW/mol):       -69.6573616 (step)-4228.5092 (real)
------------------------------------------------------------------------

 ANCopt (total)                0 d,  0 h,  0 min,  0.264 sec
 optimizer setup                ...        0 min,  0.000 sec (  0.052%)
 model hessian                  ...        0 min,  0.006 sec (  2.348%)
 ANC generation                 ...        0 min,  0.005 sec (  1.994%)
 coordinate transformation      ...        0 min,  0.000 sec (  0.040%)
 single point calculation       ...        0 min,  0.244 sec ( 92.533%)
 optimization log               ...        0 min,  0.001 sec (  0.473%)
 hessian update                 ...        0 min,  0.002 sec (  0.603%)
 rational function              ...        0 min,  0.002 sec (  0.690%)

================
 final structure:
================
34
 xtb: 6.7.1-6.fc44.fc44
O           -2.87531178782467        2.30779657065427       -1.87754990409114
C           -3.36395202548047        2.55144203586050       -0.67744726732638
O           -4.37683754402135        3.16260051132636       -0.48747508938894
H           -2.04616439889601        1.75535585292748       -1.83968873952830
C           -2.50878575134585        2.00902751479386        0.48909175761331
H           -2.97238653941413        2.30544925729377        1.42924724615358
H           -1.51440927211014        2.46666006611424        0.40761511064722
N           -2.35882036510651        0.56361906997876        0.46350900547104
H           -2.84581707447117        0.02961940482058        1.16373285518090
C           -1.54413722267922       -0.06332340306811       -0.40355328141152
O           -0.99733740470891        0.53200306580965       -1.32465372070263
C           -1.34662109650649       -1.56132884177214       -0.17022532850272
H           -2.33238881435148       -2.03193915298636       -0.06040218273967
N           -0.66633433053727       -2.20739710624612       -1.26957353778895
H            0.24073698918042       -1.77048406658139       -1.40553987751235
H           -1.18859307218367       -2.08262156865736       -2.13054709051187
C           -0.54131147624095       -1.76342410026586        1.13511244472947
H           -0.26165760861990       -2.81572550423327        1.18378871903466
H           -1.17383650215519       -1.52861962061930        1.99353570086162
C            0.68446022437859       -0.90946610498892        1.16340899101744
C            0.79904539279331        0.34472308279692        1.68980478333849
H            0.06763784434022        0.93183955795426        2.21410647847008
N            2.06284904426992        0.82880331237332        1.48907919420365
H            2.39692987078556        1.72963552263807        1.78512588938602
C            2.79566936515011       -0.10926806565859        0.82167365531040
C            4.11687930241911       -0.08577743022585        0.39274138304966
H            4.74337091863187        0.77779130266846        0.56567474028306
C            4.59380867730414       -1.20034544365566       -0.26124565418601
H            5.61577390484992       -1.21631598582905       -0.60983998067594
C            3.78116591230995       -2.31640678768460       -0.48249053795159
H            4.19713036475159       -3.17052305986766       -0.99604513443130
C            2.47129509259045       -2.34641621055128       -0.06192039038535
H            1.85010313956695       -3.21129643484378       -0.23877518312351
C            1.95812436910993       -1.22782654264576        0.59686775164220

 Bond Distances (Angstroems)
 ---------------------------
O1-C2=1.3185         O1-H4=0.9971         C2-O1=1.3185         C2-O3=1.1981         C2-C5=1.5448         O3-C2=1.1981         
H4-O1=0.9971         C5-C2=1.5448         C5-H6=1.0894         C5-H7=1.0977         C5-N8=1.4534         H6-C5=1.0894         
H7-C5=1.0977         N8-C5=1.4534         N8-H9=1.0063         N8-C10=1.3448        H9-N8=1.0063         C10-N8=1.3448        
C10-O11=1.2255       C10-C12=1.5289       O11-C10=1.2255       C12-C10=1.5289       C12-H13=1.0978       C12-N14=1.4453       
C12-C17=1.5470       H13-C12=1.0978       N14-C12=1.4453       N14-H15=1.0160       N14-H16=1.0147       H15-N14=1.0160       
H16-N14=1.0147       C17-C12=1.5470       C17-H18=1.0899       C17-H19=1.0918       C17-C20=1.4942       H18-C17=1.0899       
H19-C17=1.0918       C20-C17=1.4942       C20-C21=1.3650       C20-C34=1.4299       C21-C20=1.3650       C21-H22=1.0745       
C21-N23=1.3681       H22-C21=1.0745       N23-C21=1.3681       N23-H24=1.0054       N23-C25=1.3647       H24-N23=1.0054       
C25-N23=1.3647       C25-C26=1.3893       C25-C34=1.4153       C26-C25=1.3893       C26-H27=1.0808       C26-C28=1.3775       
H27-C26=1.0808       C28-C26=1.3775       C28-H29=1.0799       C28-C30=1.3982       H29-C28=1.0799       C30-C28=1.3982       
C30-H31=1.0799       C30-C32=1.3761       H31-C30=1.0799       C32-C30=1.3761       C32-H33=1.0794       C32-C34=1.3959       
H33-C32=1.0794       C34-C20=1.4299       C34-C25=1.4153       C34-C32=1.3959       
 C  H  Rav=1.0861 sigma=0.0078  Rmin=1.0745  Rmax=1.0978    10
 C  C  Rav=1.4385 sigma=0.0670  Rmin=1.3650  Rmax=1.5470    12
 N  H  Rav=1.0106 sigma=0.0048  Rmin=1.0054  Rmax=1.0160     4
 N  C  Rav=1.3953 sigma=0.0449  Rmin=1.3448  Rmax=1.4534     5
 O  H  Rav=0.9971 sigma=0.0000  Rmin=0.9971  Rmax=0.9971     1
 O  C  Rav=1.2474 sigma=0.0515  Rmin=1.1981  Rmax=1.3185     3

 selected bond angles (degree)
 --------------------
H4-O1-C2=112.09                O3-C2-O1=123.50                C5-C2-O1=114.66                C5-C2-O3=121.83                
H6-C5-C2=108.70                H7-C5-C2=107.40                H7-C5-H6=109.64                N8-C5-C2=113.14                
N8-C5-H6=109.25                N8-C5-H7=108.65                H9-N8-C5=117.75                C10-N8-C5=122.51               
C10-N8-H9=119.63               O11-C10-N8=121.90              C12-C10-N8=115.89              C12-C10-O11=122.21             

 selected dihedral angles (degree)
 ---------------------------------
O3-C2-O1-H4=182.28            C5-C2-O1-H4=  3.50            H6-C5-C2-O1=177.21            H6-C5-C2-O3=358.40            
H7-C5-C2-O1= 58.66            H7-C5-C2-O3=239.85            N8-C5-C2-O1=298.76            N8-C5-C2-O3=119.95            
H9-N8-C5-C2=251.30            H9-N8-C5-H6= 12.54            H9-N8-C5-H7=132.12            C10-N8-C5-C2= 75.12           
C10-N8-C5-H6=196.36           C10-N8-C5-H7=315.94           O11-C10-N8-C5=351.40          O11-C10-N8-H9=175.29          
C12-C10-N8-C5=171.54          C12-C10-N8-H9=355.43          
           -------------------------------------------------
          |                Final Singlepoint                |
           -------------------------------------------------

          ...................................................
          :                      SETUP                      :
          :.................................................:
          :  # basis functions                  91          :
          :  # atomic orbitals                  91          :
          :  # shells                           53          :
          :  # electrons                       100          :
          :  max. iterations                   250          :
          :  Hamiltonian                  GFN2-xTB          :
          :  restarted?                      false          :
          :  GBSA solvation                  false          :
          :  PC potential                    false          :
          :  electronic temp.          300.0000000     K    :
          :  accuracy                    1.0000000          :
          :  -> integral cutoff          0.2500000E+02      :
          :  -> integral neglect         0.1000000E-07      :
          :  -> SCF convergence          0.1000000E-05 Eh   :
          :  -> wf. convergence          0.1000000E-03 e    :
          :  Broyden damping             0.4000000          :
          :  net charge                          0          :
          :  unpaired electrons                  0          :
          ...................................................

 iter      E             dE          RMSdq      gap      omega  full diag
   1    -57.2337315 -0.572337E+02  0.674E-05    3.41       0.0  T
   2    -57.2337315 -0.218492E-10  0.401E-05    3.41     427.5  T
   3    -57.2337315 -0.315481E-11  0.241E-05    3.41     711.1  T

   *** convergence criteria satisfied after 3 iterations ***

         #    Occupation            Energy/Eh            Energy/eV
      -------------------------------------------------------------
         1        2.0000           -0.7423053             -20.1992
       ...           ...                  ...                  ...
        44        2.0000           -0.4301453             -11.7048
        45        2.0000           -0.4208465             -11.4518
        46        2.0000           -0.4198662             -11.4251
        47        2.0000           -0.4105069             -11.1705
        48        2.0000           -0.3872880             -10.5386
        49        2.0000           -0.3798948             -10.3375
        50        2.0000           -0.3695519             -10.0560 (HOMO)
        51                         -0.2442108              -6.6453 (LUMO)
        52                         -0.2380055              -6.4765
        53                         -0.2352237              -6.4008
        54                         -0.2017598              -5.4902
        55                         -0.1664736              -4.5300
       ...                                ...                  ...
        91                          0.7126705              19.3928
      -------------------------------------------------------------
                  HL-Gap            0.1253411 Eh            3.4107 eV
             Fermi-level           -0.3068813 Eh           -8.3507 eV

 SCC (total)                   0 d,  0 h,  0 min,  0.006 sec
 SCC setup                      ...        0 min,  0.000 sec (  0.798%)
 Dispersion                     ...        0 min,  0.000 sec (  2.030%)
 classical contributions        ...        0 min,  0.000 sec (  0.275%)
 integral evaluation            ...        0 min,  0.001 sec (  8.331%)
 iterations                     ...        0 min,  0.004 sec ( 55.941%)
 molecular gradient             ...        0 min,  0.002 sec ( 28.363%)
 printout                       ...        0 min,  0.000 sec (  4.178%)

         :::::::::::::::::::::::::::::::::::::::::::::::::::::
         ::                     SUMMARY                     ::
         :::::::::::::::::::::::::::::::::::::::::::::::::::::
         :: total energy             -56.476187369705 Eh    ::
         :: gradient norm              0.000929857990 Eh/a0 ::
         :: HOMO-LUMO gap              3.410704995215 eV    ::
         ::.................................................::
         :: SCC energy               -57.233263962350 Eh    ::
         :: -> isotropic ES            0.096903881146 Eh    ::
         :: -> anisotropic ES          0.005994028392 Eh    ::
         :: -> anisotropic XC          0.019579290481 Eh    ::
         :: -> dispersion             -0.036106677562 Eh    ::
         :: repulsion energy           0.757076592645 Eh    ::
         :: add. restraining           0.000000000000 Eh    ::
         :: total charge               0.000000000000 e     ::
         :::::::::::::::::::::::::::::::::::::::::::::::::::::

           -------------------------------------------------
          |                Property Printout                |
           -------------------------------------------------

    * Orbital Energies and Occupations

         #    Occupation            Energy/Eh            Energy/eV
      -------------------------------------------------------------
         1        2.0000           -0.7423053             -20.1992
       ...           ...                  ...                  ...
        38        2.0000           -0.4711857             -12.8216
        39        2.0000           -0.4618986             -12.5689
        40        2.0000           -0.4584188             -12.4742
        41        2.0000           -0.4569826             -12.4351
        42        2.0000           -0.4534996             -12.3404
        43        2.0000           -0.4330904             -11.7850
        44        2.0000           -0.4301453             -11.7048
        45        2.0000           -0.4208465             -11.4518
        46        2.0000           -0.4198662             -11.4251
        47        2.0000           -0.4105069             -11.1705
        48        2.0000           -0.3872880             -10.5386
        49        2.0000           -0.3798948             -10.3375
        50        2.0000           -0.3695519             -10.0560 (HOMO)
        51                         -0.2442108              -6.6453 (LUMO)
        52                         -0.2380055              -6.4765
        53                         -0.2352237              -6.4008
        54                         -0.2017598              -5.4902
        55                         -0.1664736              -4.5300
        56                         -0.0758690              -2.0645
        57                         -0.0314433              -0.8556
        58                          0.0135606               0.3690
        59                          0.0407856               1.1098
        60                          0.0546208               1.4863
        61                          0.0715967               1.9482
       ...                                ...                  ...
        91                          0.7126705              19.3928
      -------------------------------------------------------------
                  HL-Gap            0.1253411 Eh            3.4107 eV
             Fermi-level           -0.3068813 Eh           -8.3507 eV

     #   Z          covCN         q      C6AA      α(0)
     1   8 O        1.655    -0.373    20.341     6.088
     2   6 C        2.684     0.357    20.935     7.488
     3   8 O        0.856    -0.375    21.188     6.171
     4   1 H        0.800     0.364     0.558     1.174
     5   6 C        3.737    -0.036    21.302     6.586
     6   1 H        0.925     0.074     2.043     2.235
     7   1 H        0.924     0.074     2.040     2.234
     8   7 N        2.685    -0.172    24.727     7.385
     9   1 H        0.860     0.179     1.219     1.729
    10   6 C        2.754     0.261    22.608     7.786
    11   8 O        0.859    -0.452    22.743     6.394
    12   6 C        3.786     0.034    20.019     6.373
    13   1 H        0.924     0.038     2.473     2.459
    14   7 N        2.632    -0.334    28.611     7.944
    15   1 H        0.860     0.165     1.302     1.787
    16   1 H        0.860     0.146     1.428     1.872
    17   6 C        3.808    -0.066    21.759     6.640
    18   1 H        0.925     0.069     2.097     2.264
    19   1 H        0.924     0.031     2.579     2.512
    20   6 C        3.055    -0.032    28.752     8.794
    21   6 C        3.034    -0.010    28.231     8.715
    22   1 H        0.926     0.021     2.714     2.576
    23   7 N        2.778    -0.104    23.276     7.165
    24   1 H        0.860     0.159     1.345     1.816
    25   6 C        3.088     0.045    26.882     8.499
    26   6 C        2.908    -0.052    29.301     8.876
    27   1 H        0.926     0.024     2.676     2.558
    28   6 C        2.925    -0.035    28.872     8.812
    29   1 H        0.926     0.029     2.597     2.520
    30   6 C        2.920    -0.041    29.014     8.833
    31   1 H        0.926     0.029     2.608     2.525
    32   6 C        2.911    -0.039    28.963     8.825
    33   1 H        0.926     0.040     2.451     2.448
    34   6 C        3.118    -0.016    28.246     8.705

 Mol. C6AA /au·bohr⁶  :      13337.043325
 Mol. C8AA /au·bohr⁸  :     312402.723770
 Mol. α(0) /au        :        178.790602


Wiberg/Mayer (AO) data.
largest (>0.10) Wiberg bond orders for each atom

 ---------------------------------------------------------------------------
     #   Z sym  total        # sym  WBO       # sym  WBO       # sym  WBO
 ---------------------------------------------------------------------------
     1   8 O    2.234 --     2 C    1.199     4 H    0.773     3 O    0.183
     2   6 C    3.931 --     3 O    1.776     1 O    1.199     5 C    0.925
     3   8 O    2.068 --     2 C    1.776     1 O    0.183
     4   1 H    0.868 --     1 O    0.773
     5   6 C    3.964 --     8 N    0.987     6 H    0.975     7 H    0.954
                             2 C    0.925
     6   1 H    0.994 --     5 C    0.975
     7   1 H    0.994 --     5 C    0.954
     8   7 N    3.453 --    10 C    1.276     5 C    0.987     9 H    0.940
                            11 O    0.185
     9   1 H    0.968 --     8 N    0.940
    10   6 C    3.935 --    11 O    1.625     8 N    1.276    12 C    0.939
    11   8 O    2.021 --    10 C    1.625     8 N    0.185
    12   6 C    3.990 --    14 N    1.037    17 C    0.954    13 H    0.952
                            10 C    0.939
    13   1 H    0.998 --    12 C    0.952
    14   7 N    3.017 --    12 C    1.037    16 H    0.962    15 H    0.951
    15   1 H    0.973 --    14 N    0.951
    16   1 H    0.979 --    14 N    0.962
    17   6 C    3.992 --    20 C    1.017    19 H    0.973    18 H    0.966
                            12 C    0.954
    18   1 H    0.995 --    17 C    0.966
    19   1 H    0.999 --    17 C    0.973
    20   6 C    3.976 --    21 C    1.581    34 C    1.203    17 C    1.017
    21   6 C    3.950 --    20 C    1.581    23 N    1.196    22 H    0.970
    22   1 H    0.999 --    21 C    0.970
    23   7 N    3.543 --    21 C    1.196    25 C    1.175    24 H    0.947
    24   1 H    0.974 --    23 N    0.947
    25   6 C    3.958 --    26 C    1.336    34 C    1.251    23 N    1.175
    26   6 C    3.989 --    28 C    1.496    25 C    1.336    27 H    0.969
                            32 C    0.114
    27   1 H    0.999 --    26 C    0.969
    28   6 C    3.991 --    26 C    1.496    30 C    1.370    29 H    0.972
    29   1 H    0.999 --    28 C    0.972
    30   6 C    3.991 --    32 C    1.507    28 C    1.370    31 H    0.972
    31   1 H    0.999 --    30 C    0.972
    32   6 C    3.992 --    30 C    1.507    34 C    1.327    33 H    0.967
                            26 C    0.114
    33   1 H    0.998 --    32 C    0.967
    34   6 C    3.985 --    32 C    1.327    25 C    1.251    20 C    1.203
 ---------------------------------------------------------------------------

Topologies differ in total number of bonds
Writing topology from bond orders to xtbtopo.mol

molecular dipole:
                 x           y           z       tot (Debye)
 q only:        0.913      -0.818       1.456
   full:        1.046      -0.539       1.783       5.429
molecular quadrupole (traceless):
                xx          xy          yy          xz          yz          zz
 q only:       -8.868      20.657       0.407      -8.154       7.773       8.461
  q+dip:       -7.169      28.256      -1.586     -11.230      12.016       8.755
   full:       -8.033      28.178      -2.539      -9.803      10.773      10.572

           -------------------------------------------------
          |                Geometry Summary                 |
           -------------------------------------------------

      molecular mass/u    :      261.2770023
   center of mass at/Å    :        0.0085126      -0.0133422       0.0185659
  moments of inertia/u·Å² :        0.6253133E+03   0.2462047E+04   0.2646939E+04
rotational constants/cm⁻¹ :        0.2695870E-01   0.6846999E-02   0.6368726E-02

 * 31 selected distances

     #   Z          #   Z                                           value/Å
     1   8 O        2   6 C                                       1.3184760
     2   6 C        3   8 O                                       1.1981408
     1   8 O        4   1 H                                       0.9970505 (min)
     5   6 C        6   1 H                                       1.0893503
     5   6 C        7   1 H                                       1.0976570
     5   6 C        8   7 N                                       1.4533926 (max)
     8   7 N        9   1 H                                       1.0062977
     8   7 N       10   6 C                                       1.3448282
    10   6 C       11   8 O                                       1.2254917
    12   6 C       13   1 H                                       1.0978494
    12   6 C       14   7 N                                       1.4452547
    14   7 N       15   1 H                                       1.0159520
    14   7 N       16   1 H                                       1.0146915
    17   6 C       18   1 H                                       1.0899147
    17   6 C       19   1 H                                       1.0918387
    20   6 C       21   6 C                                       1.3649957
    21   6 C       22   1 H                                       1.0745023
    21   6 C       23   7 N                                       1.3681464
    23   7 N       24   1 H                                       1.0053619
    23   7 N       25   6 C                                       1.3647102
    25   6 C       26   6 C                                       1.3892915
    26   6 C       27   1 H                                       1.0808094
    26   6 C       28   6 C                                       1.3774697
    28   6 C       29   1 H                                       1.0799010
    28   6 C       30   6 C                                       1.3981884
    30   6 C       31   1 H                                       1.0799442
    30   6 C       32   6 C                                       1.3760602
    32   6 C       33   1 H                                       1.0794328
    20   6 C       34   6 C                                       1.4298752
    25   6 C       34   6 C                                       1.4153419
    32   6 C       34   6 C                                       1.3959188

 * 6 distinct bonds (by element types)

   Z      Z             #   av. dist./Å        max./Å        min./Å
   1 H    6 C          10     1.0861200     1.0978494     1.0745023
   6 C    6 C           8     1.3933927     1.4298752     1.3649957
   1 H    7 N           4     1.0105758     1.0159520     1.0053619
   6 C    7 N           5     1.3952664     1.4533926     1.3448282
   1 H    8 O           1     0.9970505     0.9970505     0.9970505
   6 C    8 O           3     1.2473695     1.3184760     1.1981408


optimized geometry written to: xtbopt.xyz


           -------------------------------------------------
          | TOTAL ENERGY              -56.476187369705 Eh   |
          | GRADIENT NORM               0.000929857990 Eh/α |
          | HOMO-LUMO GAP               3.410704995215 eV   |
           -------------------------------------------------

------------------------------------------------------------------------
 * finished run on 2026/10/01 at 18:05:27.267     
------------------------------------------------------------------------
 total:
 * wall-time:     0 d,  0 h,  0 min,  0.357 sec
 *  cpu-time:     0 d,  0 h,  0 min,  5.400 sec
 * ratio c/w:    15.139 speedup
 SCF:
 * wall-time:     0 d,  0 h,  0 min,  0.053 sec
 *  cpu-time:     0 d,  0 h,  0 min,  0.784 sec
 * ratio c/w:    14.893 speedup
 ANC optimizer:
 * wall-time:     0 d,  0 h,  0 min,  0.271 sec
 *  cpu-time:     0 d,  0 h,  0 min,  4.128 sec
 * ratio c/w:    15.250 speedup


--- STDERR ---
normal termination of xtb
Note: The following floating-point exceptions are signalling: IEEE_UNDERFLOW_FLAG IEEE_DENORMAL
