34
 energy: -56.476187369705 gnorm: 0.000929857990 xtb: 6.7.1-6.fc44.fc44
O           -2.87531178782467        2.30779657065427       -1.87754990409114
C           -3.36395202548047        2.55144203586050       -0.67744726732638
O           -4.37683754402135        3.16260051132636       -0.48747508938894
H           -2.04616439889601        1.75535585292748       -1.83968873952830
C           -2.50878575134585        2.00902751479386        0.48909175761331
H           -2.97238653941413        2.30544925729377        1.42924724615358
H           -1.51440927211014        2.46666006611424        0.40761511064722
N           -2.35882036510651        0.56361906997876        0.46350900547104
H           -2.84581707447117        0.02961940482058        1.16373285518090
C           -1.54413722267922       -0.06332340306811       -0.40355328141152
O           -0.99733740470891        0.53200306580965       -1.32465372070263
C           -1.34662109650649       -1.56132884177214       -0.17022532850272
H           -2.33238881435148       -2.03193915298636       -0.06040218273967
N           -0.66633433053727       -2.20739710624612       -1.26957353778895
H            0.24073698918042       -1.77048406658139       -1.40553987751235
H           -1.18859307218367       -2.08262156865736       -2.13054709051187
C           -0.54131147624095       -1.76342410026586        1.13511244472947
H           -0.26165760861990       -2.81572550423327        1.18378871903466
H           -1.17383650215519       -1.52861962061930        1.99353570086162
C            0.68446022437859       -0.90946610498892        1.16340899101744
C            0.79904539279331        0.34472308279692        1.68980478333849
H            0.06763784434022        0.93183955795426        2.21410647847008
N            2.06284904426992        0.82880331237332        1.48907919420365
H            2.39692987078556        1.72963552263807        1.78512588938602
C            2.79566936515011       -0.10926806565859        0.82167365531040
C            4.11687930241911       -0.08577743022585        0.39274138304966
H            4.74337091863187        0.77779130266846        0.56567474028306
C            4.59380867730414       -1.20034544365566       -0.26124565418601
H            5.61577390484992       -1.21631598582905       -0.60983998067594
C            3.78116591230995       -2.31640678768460       -0.48249053795159
H            4.19713036475159       -3.17052305986766       -0.99604513443130
C            2.47129509259045       -2.34641621055128       -0.06192039038535
H            1.85010313956695       -3.21129643484378       -0.23877518312351
C            1.95812436910993       -1.22782654264576        0.59686775164220
