34
frame_0028
O      -4.846422560700000      1.408360848900000     -0.924076704000000
C      -4.241756027400000      1.924950462200000     -1.975145312900000
O      -4.777330105500000      2.069901721800000     -3.037720170100000
H      -4.235502007900000      1.319618751900000     -0.138777821500000
C      -2.782300179300000      2.371146701000000     -1.732807537000000
H      -2.805325149400000      3.145255597700000     -0.954562261800000
H      -2.391486348900000      2.796976615400000     -2.655980874600000
N      -1.914359770700000      1.293489377400000     -1.303551471800000
H      -1.183904976700000      0.949562568500000     -1.914790501900000
C      -1.974724097800000      0.719544030900000     -0.098334147300000
O      -2.841981938300000      0.975185965600000      0.731673416400000
C      -0.839900461400000     -0.255914483700000      0.176531365100000
H      -1.235780060900000     -1.054732087800000      0.824382438900000
N      -0.292373685700000     -0.737139403000000     -1.084399638600000
H      -0.894340334300000     -1.448419773800000     -1.486074298500000
H       0.618228679000000     -1.156074138100000     -0.926674591400000
C       0.245616846100000      0.505919925500000      0.968533169500000
H      -0.235383848400000      0.999368234700000      1.814606897200000
H       0.681498584900000      1.263949096700000      0.315828264400000
C       1.308782050300000     -0.420946029300000      1.456370834600000
C       1.292214674400000     -1.144127054300000      2.614287375100000
H       0.551116648900000     -1.157783760900000      3.390520637600000
N       2.417865066100000     -1.915173809800000      2.706043597200000
H       2.646769099100000     -2.523231156700000      3.473435597700000
C       3.191775817000000     -1.705412367300000      1.602049131000000
C       4.416526388700000     -2.252268447500000      1.240045161100000
H       4.916060130100000     -2.968329566800000      1.875848393900000
C       4.968634466400000     -1.845698494100000      0.045074893600000
H       5.919729043000000     -2.250040106900000     -0.267456303600000
C       4.322989861200000     -0.914210391800000     -0.773607834900000
H       4.792738274300000     -0.619855501800000     -1.700436430400000
C       3.109892223000000     -0.368270579500000     -0.421655547300000
H       2.622286355000000      0.352963061700000     -1.060975779200000
C       2.521913974400000     -0.765203766500000      0.781106357000000
