34
frame_0004
O      -2.155993504100000      2.051394701300000     -0.699268455300000
C      -1.258459589100000      2.290273453900000      0.238728679300000
O      -0.395224263900000      3.115173546600000      0.117018980200000
H      -2.713033057400000      1.252947718100000     -0.484493312900000
C      -1.401656341900000      1.422042381300000      1.503309160900000
H      -2.435362793900000      1.495516284600000      1.859994817100000
H      -0.719426005900000      1.788729689300000      2.268900027300000
N      -1.099848519900000      0.027311733200000      1.231611555700000
H      -0.174650999000000     -0.302174194900000      1.463431353300000
C      -1.901355700200000     -0.750608402900000      0.485333654900000
O      -2.961376489800000     -0.345389370700000      0.021234012300000
C      -1.370930335600000     -2.143571059700000      0.201475198500000
H      -0.681644976500000     -2.448467447900000      0.997277476500000
N      -2.475603033700000     -3.075129088500000      0.173347829700000
H      -2.220375995200000     -3.928293330300000     -0.310679102900000
H      -3.262448353600000     -2.650807619200000     -0.308775138300000
C      -0.582229733700000     -2.040945734500000     -1.141021718900000
H      -1.301440545000000     -1.906551150800000     -1.952578772700000
H      -0.050338215100000     -2.983096873300000     -1.296485465200000
C       0.367139388200000     -0.890798739400000     -1.128193978100000
C       0.235889311300000      0.286855164500000     -1.808644174700000
H      -0.509959127500000      0.571330988700000     -2.525948068500000
N       1.240433777100000      1.146605704800000     -1.467992127500000
H       1.298554918300000      2.108994865100000     -1.755037885500000
C       2.030434762700000      0.554991300600000     -0.529235046800000
C       3.148433719000000      1.033068346700000      0.143263537900000
H       3.519843826900000      2.029652183900000     -0.039830318300000
C       3.756073703400000      0.193566065100000      1.050937654900000
H       4.625541116200000      0.533790109900000      1.593263786800000
C       3.273544191700000     -1.098315769800000      1.283783257400000
H       3.785041945900000     -1.727004522200000      1.997765924900000
C       2.166617897700000     -1.579751478600000      0.622580454800000
H       1.808308000000000     -2.583101406400000      0.803248736200000
C       1.521551137100000     -0.747723665200000     -0.295344535300000
