34
 energy: -56.483171563172 gnorm: 0.000225997380 xtb: 6.7.1-6.fc44.fc44
O           -2.15599350410000        2.05139470130000       -0.69926845530000
C           -1.25845958910000        2.29027345390000        0.23872867930000
O           -0.39522426390000        3.11517354660000        0.11701898020000
H           -2.71303305740000        1.25294771810000       -0.48449331290000
C           -1.40165634190000        1.42204238130000        1.50330916090000
H           -2.43536279390000        1.49551628460000        1.85999481710000
H           -0.71942600590000        1.78872968930000        2.26890002730000
N           -1.09984851990000        0.02731173320000        1.23161155570000
H           -0.17465099900000       -0.30217419490000        1.46343135330000
C           -1.90135570020000       -0.75060840290000        0.48533365490000
O           -2.96137648980000       -0.34538937070000        0.02123401230000
C           -1.37093033560000       -2.14357105970000        0.20147519850000
H           -0.68164497650000       -2.44846744790000        0.99727747650000
N           -2.47560303370000       -3.07512908850000        0.17334782970000
H           -2.22037599520000       -3.92829333030000       -0.31067910290000
H           -3.26244835360000       -2.65080761920000       -0.30877513830000
C           -0.58222973370000       -2.04094573450000       -1.14102171890000
H           -1.30144054500000       -1.90655115080000       -1.95257877270000
H           -0.05033821510000       -2.98309687330000       -1.29648546520000
C            0.36713938820000       -0.89079873940000       -1.12819397810000
C            0.23588931130000        0.28685516450000       -1.80864417470000
H           -0.50995912750000        0.57133098870000       -2.52594806850000
N            1.24043377710000        1.14660570480000       -1.46799212750000
H            1.29855491830000        2.10899486510000       -1.75503788550000
C            2.03043476270000        0.55499130060000       -0.52923504680000
C            3.14843371900000        1.03306834670000        0.14326353790000
H            3.51984382690000        2.02965218390000       -0.03983031830000
C            3.75607370340000        0.19356606510000        1.05093765490000
H            4.62554111620000        0.53379010990000        1.59326378680000
C            3.27354419170000       -1.09831576980000        1.28378325740000
H            3.78504194590000       -1.72700452220000        1.99776592490000
C            2.16661789770000       -1.57975147860000        0.62258045480000
H            1.80830800000000       -2.58310140640000        0.80324873620000
C            1.52155113710000       -0.74772366520000       -0.29534453530000
