68
 energy: -106.573596811431 gnorm: 0.000934618250 xtb: 6.7.1-6.fc44.fc44
O            1.26154273120001       -0.30059714080419        1.68009334488513
O            1.02730654215122       -0.93703491765973       -1.58113374508148
O           -3.42454105559882       -2.62764577175481       -0.19634214231102
O           -3.13181052917417        3.07764421646090        0.36353751258165
O           -1.27152510474050        1.62031693511468       -1.40995253315372
O            2.41682844640543        2.96311601984005        1.16812639981085
N            0.32472036835814       -2.40203631097170       -0.05743857549616
N           -2.18460355298420       -0.91143442927058       -0.98299267376452
N           -3.83131121905376        0.96155431570525        0.21229548481922
N           -0.53740521615008        2.04449874938365        0.67701588612964
N            1.96519953885787        1.72932941610388       -0.66759978619921
N            3.17066742616755       -0.45863813487180        0.51781100661664
C            2.00005474439036       -0.94873020574747        0.95611747738685
C            1.64133451129369       -2.38638298304374        0.57794914919640
C            1.46999576162652       -3.25583872554606        1.82663965929675
C            0.30545969213439       -4.17097922426550        1.45885326066648
C           -0.60699127406100       -3.22675979227385        0.68530751267274
C            0.12178541348941       -1.63686279793977       -1.13662219866551
C           -1.26680709260854       -1.69365275138407       -1.78652021608289
C           -1.21331028677098       -1.13472655220939       -3.20327810106412
C           -3.17574005668732       -1.43583591484153       -0.25990152705803
C           -3.97389592747172       -0.42429346427990        0.59688412012181
C           -5.45148869943311       -0.80880996665854        0.56709545890309
C           -2.93976687237935        1.90460192201712        0.59781718888234
C           -1.67762069467076        1.43933469843724        1.34279394637948
C           -1.72409922910284        1.90993222029471        2.79061255534100
C           -0.41924450409026        2.06076271718337       -0.65128956743989
C            0.91934033108923        2.61342638699843       -1.15214977178286
C            0.95643611765762        2.67773919776549       -2.67079288433178
C            2.57530351838568        1.95283565879804        0.50805938698857
C            3.57100975786343        0.87234541923679        0.94460906602033
C            4.94605832217636        1.07518060317759        0.30441092192787
C            4.86785468425331        0.22089510532787       -0.95807465991979
C            4.04274966153680       -0.98829324231928       -0.51549753613823
H            2.37319427127749       -2.81301101547518       -0.11349712287733
H            2.38151235839772       -3.79571589306324        2.07499374661402
H            1.19155678620273       -2.61809101459814        2.66717872025267
H            0.64717244348960       -4.97958688385469        0.81121185128847
H           -0.18602831187788       -4.59973671887677        2.32864440342665
H           -1.30956711588029       -3.74196879210271        0.03226519888930
H           -1.18185738094036       -2.60314478167122        1.37957625230980
H           -2.06401470461706        0.10164147312675       -1.07135868278206
H           -1.62840529393324       -2.72773554622926       -1.79204274791323
H           -0.45121504161054       -1.65011158572765       -3.78166134069651
H           -0.97176628406375       -0.07587554940275       -3.16177759712835
H           -2.17812996215414       -1.26035802482548       -3.68734183579050
H           -4.59528571997475        1.33731771011796       -0.33453946204128
H           -3.60277170676540       -0.55317783849252        1.62284717843623
H           -6.01618679901991       -0.22206265536645        1.28718321379523
H           -5.54931939770403       -1.86437120444964        0.80480489687894
H           -5.86087517186825       -0.64377504694557       -0.42753256941290
H            0.20655922887538        2.40781868445717        1.25625711206501
H           -1.56818307983728        0.34884351233319        1.30147712001363
H           -2.55789324153627        1.44636943299611        3.31294797030265
H           -1.85011878839754        2.98963809888917        2.81887296240405
H           -0.79822725012679        1.63817151446647        3.29199708001571
H            1.94485901869720        0.79684744060862       -1.06781393140704
H            1.09219179260393        3.59881843965488       -0.70555993212182
H            1.89027631817952        3.11922708331241       -3.00885198054886
H            0.12462019723240        3.27564530271164       -3.03117942183692
H            0.86464909815800        1.67417996215428       -3.07944492486878
H            3.60939630999327        0.91880192969374        2.03835962675243
H            5.72412817563959        0.70061208714188        0.97068190070128
H            5.14173868155401        2.12482774433115        0.09596690691115
H            5.84897951272579       -0.06775788975680       -1.32909923907433
H            4.34225197923990        0.76293322063728       -1.74393938929753
H            3.45701248669614       -1.39806013921209       -1.33997265412792
H            4.68788412718452       -1.77147860441607       -0.09907499548093
