34
frame_0052
O      -2.213076241300000      2.948411258600000     -0.359582907000000
C      -3.395747077700000      2.604244720300000      0.109430627200000
O      -4.083603073000000      3.335495346800000      0.764054392400000
H      -1.769689403400000      2.199479321900000     -0.849654272100000
C      -3.864959454200000      1.185014734200000     -0.283614896400000
H      -3.936242007800000      1.162449813100000     -1.379178073400000
H      -4.851148740100000      1.016650814700000      0.146189283700000
N      -2.968844821000000      0.134472302100000      0.159496323500000
H      -3.295225395800000     -0.549182489700000      0.828604083400000
C      -1.768448463900000     -0.095986023000000     -0.388636049700000
O      -1.266999381000000      0.649536103400000     -1.222288004600000
C      -1.086930261100000     -1.351867571400000      0.144434623500000
H      -0.552911662700000     -1.047533201000000      1.054462663400000
N      -2.115197610100000     -2.307257075800000      0.542608412600000
H      -1.703160353200000     -3.064367206400000      1.076591225300000
H      -2.544825489600000     -2.716832524000000     -0.281899012700000
C      -0.054627011600000     -1.895149578200000     -0.868176188100000
H      -0.489974406900000     -1.884496601200000     -1.869386271800000
H       0.174597121000000     -2.930563014300000     -0.597433880500000
C       1.201044859000000     -1.090176173000000     -0.853194396200000
C       1.604649396400000     -0.162091659400000     -1.766464568700000
H       1.112678436300000      0.154791880400000     -2.664748122300000
N       2.798089280700000      0.384855216200000     -1.385678698700000
H       3.291230129300000      1.106854547800000     -1.882002389200000
C       3.189818457100000     -0.176572190800000     -0.205976631900000
C       4.318493355800000      0.046631339200000      0.571971933700000
H       5.063940255700000      0.770711563600000      0.277112663700000
C       4.451212397200000     -0.686892815400000      1.731083357000000
H       5.316000270800000     -0.537966382300000      2.360500307100000
C       3.487273379500000     -1.624999128200000      2.110635515200000
H       3.631115333100000     -2.180674529900000      3.025824894300000
C       2.366822033400000     -1.851419353700000      1.343857474100000
H       1.631673388200000     -2.583264889300000      1.647229329700000
C       2.202280789500000     -1.121504255300000      0.166353177100000
