68
 energy: -106.573605377871 gnorm: 0.000766677511 xtb: 6.7.1-6.fc44.fc44
O            1.21575301343133       -0.18277722926873        1.45605061212639
O            1.00470768550643       -0.90583938838580       -1.64560766575166
O           -3.44702793052460       -2.61974803385876       -0.22222972807719
O           -3.20166363573117        3.08292039889884        0.40835906480581
O           -1.33202217347239        1.65217058491525       -1.37728376434773
O            2.26607539239813        2.84228740314866        1.25115691740036
N            0.30287480413176       -2.34052092688215       -0.09527259259822
N           -2.21468580577252       -0.88380531404515       -0.97882884860240
N           -3.86571319768985        0.95600695357074        0.25984447913114
N           -0.58541483229184        2.08989183343694        0.70306682466709
N            1.92444300700296        1.77022158264153       -0.70845258580265
N            3.22423947482334       -0.46207663126673        0.50013599365412
C            2.00394408176068       -0.89214248818446        0.85245093337309
C            1.63434132812122       -2.33413883282268        0.50291269722450
C            1.49529660983243       -3.20268522082770        1.75628679797932
C            0.30146545818557       -4.09750494564480        1.43121909649250
C           -0.61957163144168       -3.14152143974458        0.68171745741864
C            0.09506723388335       -1.58625888703847       -1.18203273638596
C           -1.30302722602043       -1.64175057420130       -1.81100365463880
C           -1.27693323398681       -1.05848325771117       -3.21855122392037
C           -3.19723898035321       -1.42682149063356       -0.25892561837324
C           -3.98090155743273       -0.43482497594314        0.63446803281939
C           -5.45401538233830       -0.83670192273153        0.64941633631571
C           -2.98601505267612        1.91319480189741        0.63924049101562
C           -1.71221252363421        1.47011643493393        1.37720940674186
C           -1.75840927839716        1.94904693780389        2.82269963861805
C           -0.47409488979457        2.09357251935611       -0.62426614472810
C            0.85530350699920        2.65482870946523       -1.13988308037426
C            0.85828001839748        2.75891010247010       -2.65674354256217
C            2.50574785846133        1.91955045310702        0.49457461493338
C            3.61547179229835        0.91111845777243        0.79227985199192
C            4.84790029991376        1.13886834446824       -0.08577072589181
C            5.45991124270316       -0.25554054275175       -0.18120906921380
C            4.23438452651064       -1.16388918310502       -0.27067766186879
H            2.33616880159528       -2.75865893121854       -0.22046868258930
H            2.40493582315646       -3.76044934945918        1.96990828664518
H            1.26035104934948       -2.56441183564842        2.60942371830212
H            0.60714241369955       -4.91520715958275        0.77684394923059
H           -0.16819699009453       -4.51345654332457        2.31919919492088
H           -1.35359152647054       -3.64759562231892        0.05613623268492
H           -1.15846485157986       -2.50194846715702        1.39028776728917
H           -2.09666189553638        0.13176640219254       -1.04356025607235
H           -1.65324781586957       -2.68019287166149       -1.82876931659811
H           -0.51314549960827       -1.55043736809978       -3.81455073531456
H           -1.05372710193999        0.00353123860915       -3.16173227999386
H           -2.24530968867227       -1.19198740306265       -3.69344886974685
H           -4.63684772766763        1.31959466239126       -0.28521235773750
H           -3.57482270092837       -0.56925309806239        1.64609306314125
H           -5.99994450916027       -0.26773155117235        1.39757201810743
H           -5.53082577297244       -1.89694033144407        0.87363638059994
H           -5.89859004447825       -0.66133633408911       -0.32786500516892
H            0.18067106339353        2.42567090068842        1.27304672735863
H           -1.58584022940541        0.38129928320397        1.34053414435998
H           -2.57301483532002        1.46502139697740        3.35668968820125
H           -1.91543779314199        3.02481001229667        2.84419207075767
H           -0.81979144170014        1.70968260784567        3.31675332219462
H            1.94480532810868        0.86911863506356       -1.17498130481462
H            1.03390515357760        3.62954684082003       -0.67221856468657
H            0.01763955007315        3.36427827574565       -2.98285637290393
H            0.75804839476483        1.76637722583893       -3.08921682079688
H            1.78409227729122        3.20985188798103       -3.00424741446295
H            3.85857874145810        1.00726094066608        1.85840001996504
H            5.52384587558008        1.87298401776643        0.34547933920489
H            4.53669567163802        1.48321328784752       -1.07290944859868
H            6.02418653249235       -0.47900080215099        0.72475560767502
H            6.11766256054208       -0.36864060747627       -1.03988646811357
H            3.89966740628762       -1.27412330460557       -1.30935412509336
H            4.43590020379425       -2.15192873213169        0.14887871439348
