      -----------------------------------------------------------      
     |                   =====================                   |     
     |                           x T B                           |     
     |                   =====================                   |     
     |                         S. Grimme                         |     
     |          Mulliken Center for Theoretical Chemistry        |     
     |                    University of Bonn                     |     
      -----------------------------------------------------------      

   * xtb version 6.7.1-6.fc44.fc44 compiled by Fedora project on Sun Jan 18 23:32:34 UTC 2026

   xtb is free software: you can redistribute it and/or modify it under
   the terms of the GNU Lesser General Public License as published by
   the Free Software Foundation, either version 3 of the License, or
   (at your option) any later version.
   
   xtb is distributed in the hope that it will be useful,
   but WITHOUT ANY WARRANTY; without even the implied warranty of
   MERCHANTABILITY or FITNESS FOR A PARTICULAR PURPOSE.  See the
   GNU Lesser General Public License for more details.
   
   Cite this work as:
   * C. Bannwarth, E. Caldeweyher, S. Ehlert, A. Hansen, P. Pracht,
     J. Seibert, S. Spicher, S. Grimme, WIREs Comput. Mol. Sci., 2020, 11,
     e01493. DOI: 10.1002/wcms.1493
   
   for GFN2-xTB:
   * C. Bannwarth, S. Ehlert and S. Grimme., J. Chem. Theory Comput., 2019,
     15, 1652-1671. DOI: 10.1021/acs.jctc.8b01176
   for GFN1-xTB:
   * S. Grimme, C. Bannwarth, P. Shushkov, J. Chem. Theory Comput., 2017,
     13, 1989-2009. DOI: 10.1021/acs.jctc.7b00118
   for GFN0-xTB:
   * P. Pracht, E. Caldeweyher, S. Ehlert, S. Grimme, ChemRxiv, 2019, preprint.
     DOI: 10.26434/chemrxiv.8326202.v1
   for GFN-FF:
   * S. Spicher and S. Grimme, Angew. Chem. Int. Ed., 2020, 59, 15665-15673.
     DOI: 10.1002/anie.202004239
   
   for ALPB and GBSA implicit solvation:
   * S. Ehlert, M. Stahn, S. Spicher, S. Grimme, J. Chem. Theory Comput.,
     2021, 17, 4250-4261. DOI: 10.1021/acs.jctc.1c00471
   
   for ddCOSMO and CPCM-X implicit solvation:
   * M. Stahn, S. Ehlert, S. Grimme, J. Phys. Chem. A,
     2023, XX, XXXX-XXXX. DOI: 10.1021/acs.jpca.3c04382
   
   for DFT-D4:
   * E. Caldeweyher, C. Bannwarth and S. Grimme, J. Chem. Phys., 2017,
     147, 034112. DOI: 10.1063/1.4993215
   * E. Caldeweyher, S. Ehlert, A. Hansen, H. Neugebauer, S. Spicher,
     C. Bannwarth and S. Grimme, J. Chem. Phys., 2019, 150, 154122.
     DOI: 10.1063/1.5090222
   * E. Caldeweyher, J.-M. Mewes, S. Ehlert and S. Grimme, Phys. Chem. Chem. Phys.
     2020, 22, 8499-8512. DOI: 10.1039/D0CP00502A
   
   for sTDA-xTB:
   * S. Grimme and C. Bannwarth, J. Chem. Phys., 2016, 145, 054103.
     DOI: 10.1063/1.4959605
   
   in the mass-spec context:
   * V. Asgeirsson, C. Bauer and S. Grimme, Chem. Sci., 2017, 8, 4879.
     DOI: 10.1039/c7sc00601b
   * J. Koopman and S. Grimme, ACS Omega 2019, 4, 12, 15120-15133.
     DOI: 10.1021/acsomega.9b02011
   
   for metadynamics refer to:
   * S. Grimme, J. Chem. Theory Comput., 2019, 155, 2847-2862
     DOI: 10.1021/acs.jctc.9b00143
   
   for SPH calculations refer to:
   * S. Spicher and S. Grimme, J. Chem. Theory Comput., 2021, 17, 1701-1714
     DOI: 10.1021/acs.jctc.0c01306
   
   for ONIOM refer to:
   * C. Plett, A. Katbashev, S. Ehlert, S. Grimme, M. Bursch,
     Phys. Chem. Chem. Phys., 2023, 25, 17860-17868. DOI: 10.1039/D3CP02178E
   
   for DIPRO refer to:
   * J. Kohn, N. Gildemeister, S. Grimme, D. Fazzi, A. Hansen,
     J. Chem. Phys., 2023, just accepted.
   
   for PTB refer to:
   * S. Grimme, M. Mueller, A. Hansen, J. Chem. Phys., 2023, 158, 124111.
     DOI: 10.1063/5.0137838
   
   with help from (in alphabetical order)
   P. Atkinson, C. Bannwarth, F. Bohle, G. Brandenburg, E. Caldeweyher
   M. Checinski, S. Dohm, S. Ehlert, S. Ehrlich, I. Gerasimov, C. Hölzer
   A. Katbashev, J. Kohn, J. Koopman, C. Lavigne, S. Lehtola, F. März, M. Müller,
   F. Musil, H. Neugebauer, J. Pisarek, C. Plett, P. Pracht, F. Pultar,
   J. Seibert, P. Shushkov, S. Spicher, M. Stahn, M. Steiner, T. Strunk,
   J. Stückrath, T. Rose, and J. Unsleber
   
 * started run on 2026/10/01 at 17:55:05.760     
   ID    Z sym.   atoms
    1    8 O      1, 3, 11, 18
    2    6 C      2, 5, 10, 12, 17, 19, 24, 27, 28, 30, 32, 34, 36
    3    1 H      4, 6, 7, 9, 13, 14, 16, 21-23, 25, 26, 29, 31, 33, 35, 37
    4    7 N      8, 15, 20

           -------------------------------------------------
          |                Calculation Setup                |
           -------------------------------------------------

          program call               : /usr/bin/xtb input.xyz --opt --gfn 2 --chrg 0 --uhf 0
          hostname                   : fedora
          coordinate file            : input.xyz
          omp threads                :                    16


           -------------------------------------------------
          |                 G F N 2 - x T B                 |
           -------------------------------------------------

        Reference                      10.1021/acs.jctc.8b01176
      * Hamiltonian:
        H0-scaling (s, p, d)           1.850000    2.230000    2.230000
        zeta-weighting                 0.500000
      * Dispersion:
        s8                             2.700000
        a1                             0.520000
        a2                             5.000000
        s9                             5.000000
      * Repulsion:
        kExp                           1.500000    1.000000
        rExp                           1.000000
      * Coulomb:
        alpha                          2.000000
        third order                    shell-resolved
        anisotropic                    true
        a3                             3.000000
        a5                             4.000000
        cn-shift                       1.200000
        cn-exp                         4.000000
        max-rad                        5.000000


          ...................................................
          :                      SETUP                      :
          :.................................................:
          :  # basis functions                  97          :
          :  # atomic orbitals                  97          :
          :  # shells                           57          :
          :  # electrons                       108          :
          :  max. iterations                   250          :
          :  Hamiltonian                  GFN2-xTB          :
          :  restarted?                      false          :
          :  GBSA solvation                  false          :
          :  PC potential                    false          :
          :  electronic temp.          300.0000000     K    :
          :  accuracy                    1.0000000          :
          :  -> integral cutoff          0.2500000E+02      :
          :  -> integral neglect         0.1000000E-07      :
          :  -> SCF convergence          0.1000000E-05 Eh   :
          :  -> wf. convergence          0.1000000E-03 e    :
          :  Broyden damping             0.4000000          :
          :  net charge                          0          :
          :  unpaired electrons                  0          :
          ...................................................

 iter      E             dE          RMSdq      gap      omega  full diag
   1    -62.1750025 -0.621750E+02  0.438E+00    3.56       0.0  T
   2    -62.3194493 -0.144447E+00  0.240E+00    4.17       1.0  T
   3    -62.3264437 -0.699437E-02  0.126E+00    4.26       1.0  T
   4    -62.3292711 -0.282744E-02  0.205E-01    4.19       1.0  T
   5    -62.3301066 -0.835505E-03  0.865E-02    4.22       1.0  T
   6    -62.3301570 -0.503978E-04  0.435E-02    4.22       1.0  T
   7    -62.3301649 -0.794891E-05  0.222E-02    4.22       1.0  T
   8    -62.3301694 -0.446047E-05  0.523E-03    4.22       3.1  T
   9    -62.3301696 -0.186858E-06  0.233E-03    4.22       7.1  T
  10    -62.3301696 -0.175936E-07  0.971E-04    4.22      16.9  T
  11    -62.3301696 -0.665338E-08  0.393E-04    4.22      41.8  T

   *** convergence criteria satisfied after 11 iterations ***

         #    Occupation            Energy/Eh            Energy/eV
      -------------------------------------------------------------
         1        2.0000           -0.7356793             -20.0189
       ...           ...                  ...                  ...
        48        2.0000           -0.4311344             -11.7318
        49        2.0000           -0.4277896             -11.6407
        50        2.0000           -0.4177165             -11.3666
        51        2.0000           -0.4143269             -11.2744
        52        2.0000           -0.4130885             -11.2407
        53        2.0000           -0.4027827             -10.9603
        54        2.0000           -0.3985283             -10.8445 (HOMO)
        55                         -0.2434737              -6.6253 (LUMO)
        56                         -0.2327464              -6.3334
        57                         -0.2321500              -6.3171
        58                         -0.2298900              -6.2556
        59                         -0.2229076              -6.0656
       ...                                ...                  ...
        97                          0.6543335              17.8053
      -------------------------------------------------------------
                  HL-Gap            0.1550546 Eh            4.2193 eV
             Fermi-level           -0.3210010 Eh           -8.7349 eV

 SCC (total)                   0 d,  0 h,  0 min,  0.034 sec
 SCC setup                      ...        0 min,  0.007 sec ( 21.368%)
 Dispersion                     ...        0 min,  0.000 sec (  0.665%)
 classical contributions        ...        0 min,  0.000 sec (  0.169%)
 integral evaluation            ...        0 min,  0.001 sec (  1.534%)
 iterations                     ...        0 min,  0.024 sec ( 70.801%)
 molecular gradient             ...        0 min,  0.002 sec (  4.586%)
 printout                       ...        0 min,  0.000 sec (  0.845%)

         :::::::::::::::::::::::::::::::::::::::::::::::::::::
         ::                     SUMMARY                     ::
         :::::::::::::::::::::::::::::::::::::::::::::::::::::
         :: total energy             -61.556665692240 Eh    ::
         :: gradient norm              0.000176570112 Eh/a0 ::
         :: HOMO-LUMO gap              4.219251142898 eV    ::
         ::.................................................::
         :: SCC energy               -62.330043606753 Eh    ::
         :: -> isotropic ES            0.130699083819 Eh    ::
         :: -> anisotropic ES          0.002800718478 Eh    ::
         :: -> anisotropic XC          0.020217418714 Eh    ::
         :: -> dispersion             -0.035787658394 Eh    ::
         :: repulsion energy           0.773377914513 Eh    ::
         :: add. restraining           0.000000000000 Eh    ::
         :: total charge               0.000000000000 e     ::
         :::::::::::::::::::::::::::::::::::::::::::::::::::::

      ----------------------------------------------------------- 
     |                   =====================                   |
     |                        A N C O P T                        |
     |                   =====================                   |
     |               Approximate Normal Coordinate               |
     |                Rational Function Optimizer                |
      ----------------------------------------------------------- 
      ----------------------------------------------------------- 
     |                   =====================                   |
     |                        A N C O P T                        |
     |                   =====================                   |
     |               Approximate Normal Coordinate               |
     |                Rational Function Optimizer                |
      ----------------------------------------------------------- 

          ...................................................
          :                      SETUP                      :
          :.................................................:
          :   optimization level            normal          :
          :   max. optcycles                   200          :
          :   ANC micro-cycles                  20          :
          :   degrees of freedom               105          :
          :.................................................:
          :   RF solver                   davidson          :
          :   write xtbopt.log                true          :
          :   linear?                        false          :
          :   energy convergence         0.5000000E-05 Eh   :
          :   grad. convergence          0.1000000E-02 Eh/α :
          :   maxmium RF displ.          1.0000000          :
          :   Hlow (freq-cutoff)         0.1000000E-01      :
          :   Hmax (freq-cutoff)         5.0000000          :
          :   S6 in model hess.         20.0000000          :
          ...................................................

generating ANC from exact Hessian ...
Using Lindh-Hessian (1995)
 Shifting diagonal of input Hessian by    9.7048500538824793E-003
 Lowest  eigenvalues of input Hessian
    0.000000    0.000000    0.000000    0.000000    0.000000    0.000000
    0.010000    0.010434    0.010531    0.011356    0.011755    0.012388
    0.014305    0.016819    0.017308    0.018958    0.020383    0.022764
 Highest eigenvalues
    1.944044    2.003322    2.026901    2.323351    2.348174    2.357769


........................................................................
.............................. CYCLE    1 ..............................
........................................................................

 iter      E             dE          RMSdq      gap      omega  full diag
   1    -62.3301696 -0.623302E+02  0.145E-04    4.22       0.0  T
   2    -62.3301696 -0.175902E-09  0.875E-05    4.22     187.9  T
   3    -62.3301696 -0.656257E-10  0.556E-05    4.22     295.8  T
     SCC iter.                  ...        0 min,  0.007 sec
     gradient                   ...        0 min,  0.005 sec
 * total energy  :   -61.5566657 Eh     change       -0.4127038E-08 Eh
   gradient norm :     0.0001768 Eh/α   predicted     0.0000000E+00 (-100.00%)
   displ. norm   :     0.0033154 α      lambda       -0.4542518E-07
   maximum displ.:     0.0025841 α      in ANC's #1, #22, #15, ...

   *** GEOMETRY OPTIMIZATION CONVERGED AFTER 1 ITERATIONS ***

------------------------------------------------------------------------
 total energy gain   :        -0.0000000 Eh       -0.0000 kcal/mol
 total RMSD          :         0.0000000 a0        0.0000 Å
 total power (kW/mol):        -0.0000108 (step)   -0.0005 (real)
------------------------------------------------------------------------

 ANCopt (total)                0 d,  0 h,  0 min,  0.022 sec
 optimizer setup                ...        0 min,  0.000 sec (  0.633%)
 model hessian                  ...        0 min,  0.006 sec ( 29.305%)
 ANC generation                 ...        0 min,  0.002 sec ( 10.482%)
 coordinate transformation      ...        0 min,  0.000 sec (  0.063%)
 single point calculation       ...        0 min,  0.013 sec ( 56.696%)
 optimization log               ...        0 min,  0.000 sec (  0.446%)
 hessian update                 ...        0 min,  0.000 sec (  0.003%)
 rational function              ...        0 min,  0.000 sec (  0.585%)

================
 final structure:
================
37
 xtb: 6.7.1-6.fc44.fc44
O           -4.49511632200000        1.64105024080000        1.23158449040000
C           -3.78054350740000        0.86451743150000        0.66055268970000
O           -2.66673893690000        1.24832577440000        0.05883885970000
H           -2.16845273910000        0.53652765170000       -0.40718501890000
C           -4.11669790080000       -0.63091513440000        0.60096982630000
H           -4.57241773000000       -0.84984121890000       -0.37136768290000
H           -4.84819303390000       -0.84380670570000        1.38712978010000
N           -2.96166079450000       -1.48693621030000        0.71912722740000
H           -2.35289459620000       -1.34862812770000        1.51028883130000
C           -2.62273525520000       -2.36941506340000       -0.25006111520000
O           -3.30438339760000       -2.58869175350000       -1.22145939840000
C           -1.33224776270000       -3.14680806050000        0.04047357440000
H           -1.12696141340000       -3.76848964030000       -0.83855261670000
H           -1.50265977400000       -3.79895414510000        0.90140078430000
N           -0.21470330530000       -2.27427576350000        0.33243159260000
H            0.59762153840000       -2.64931343130000        0.80861791290000
C           -0.04757846630000       -1.07164888740000       -0.23423634930000
O           -0.89990201410000       -0.52392717380000       -0.91597203160000
C            1.27850584560000       -0.40193164490000        0.12731966860000
N            2.25046498360000       -1.41586116220000        0.51301856350000
H            2.59556693130000       -1.89047812160000       -0.31723484920000
H            3.05019144140000       -0.97600005960000        0.95596177810000
H            1.07784340960000        0.21498271310000        1.01389890970000
C            1.72818588680000        0.52557954670000       -1.01999132960000
H            1.99702606470000       -0.08828094340000       -1.88334179320000
H            0.88011134360000        1.15279303940000       -1.29707713140000
C            2.89176354560000        1.36669704970000       -0.58410916460000
C            2.67795977810000        2.51867504150000        0.16426193840000
H            1.66609118490000        2.82703464540000        0.38531270110000
C            3.74557286250000        3.27274713940000        0.61531052500000
H            3.56542113650000        4.16872716370000        1.19065001540000
C            5.04337273400000        2.88210757360000        0.32863536720000
H            5.87727669640000        3.47119510960000        0.67993021630000
C            5.26673310000000        1.73664766020000       -0.41471690360000
H            6.27595226170000        1.42795635730000       -0.64514558290000
C            4.19658419400000        0.98327383840000       -0.86651929710000
H            4.37976444550000        0.09406474110000       -1.45482358630000

 Bond Distances (Angstroems)
 ---------------------------
O1-C2=1.1999         C2-O1=1.1999         C2-O3=1.3228         C2-C5=1.5339         O3-C2=1.3228         O3-H4=0.9860         
H4-O3=0.9860         C5-C2=1.5339         C5-H6=1.0959         C5-H7=1.0947         C5-N8=1.4425         H6-C5=1.0959         
H7-C5=1.0947         N8-C5=1.4425         N8-H9=1.0078         N8-C10=1.3539        H9-N8=1.0078         C10-N8=1.3539        
C10-O11=1.2068       C10-C12=1.5343       O11-C10=1.2068       C12-C10=1.5343       C12-H13=1.0960       C12-H14=1.0934       
C12-N15=1.4476       H13-C12=1.0960       H14-C12=1.0934       N15-C12=1.4476       N15-H16=1.0135       N15-C17=1.3399       
H16-N15=1.0135       C17-N15=1.3399       C17-O18=1.2212       C17-C19=1.5290       O18-C17=1.2212       C19-C17=1.5290       
C19-N20=1.4565       C19-H23=1.0986       C19-C24=1.5423       N20-C19=1.4565       N20-H21=1.0167       N20-H22=1.0145       
H21-N20=1.0167       H22-N20=1.0145       H23-C19=1.0986       C24-C19=1.5423       C24-H25=1.0929       C24-H26=1.0906       
C24-C27=1.5005       H25-C24=1.0929       H26-C24=1.0906       C27-C24=1.5005       C27-C28=1.3903       C27-C36=1.3890       
C28-C27=1.3903       C28-H29=1.0807       C28-C30=1.3827       H29-C28=1.0807       C30-C28=1.3827       C30-H31=1.0799       
C30-C32=1.3853       H31-C30=1.0799       C32-C30=1.3853       C32-H33=1.0797       C32-C34=1.3837       H33-C32=1.0797       
C34-C32=1.3837       C34-H35=1.0802       C34-C36=1.3845       H35-C34=1.0802       C36-C27=1.3890       C36-C34=1.3845       
C36-H37=1.0818       H37-C36=1.0818       
 C  H  Rav=1.0887 sigma=0.0072  Rmin=1.0797  Rmax=1.0986    12
 C  C  Rav=1.4505 sigma=0.0714  Rmin=1.3827  Rmax=1.5423    11
 N  H  Rav=1.0131 sigma=0.0033  Rmin=1.0078  Rmax=1.0167     4
 N  C  Rav=1.4081 sigma=0.0504  Rmin=1.3399  Rmax=1.4565     5
 O  H  Rav=0.9860 sigma=0.0000  Rmin=0.9860  Rmax=0.9860     1
 O  C  Rav=1.2377 sigma=0.0498  Rmin=1.1999  Rmax=1.3228     4

 selected bond angles (degree)
 --------------------
O3-C2-O1=122.01                C5-C2-O1=121.26                C5-C2-O3=116.73                H4-O3-C2=115.53                
H6-C5-C2=108.68                H7-C5-C2=107.95                H7-C5-H6=108.69                N8-C5-C2=113.57                
N8-C5-H6=106.68                N8-C5-H7=111.15                H9-N8-C5=117.81                C10-N8-C5=121.91               
C10-N8-H9=120.01               O11-C10-N8=123.59              C12-C10-N8=113.91              C12-C10-O11=122.37             

 selected dihedral angles (degree)
 ---------------------------------
H4-O3-C2-O1=182.02            H4-O3-C2-C5=  2.31            H6-C5-C2-O1= 99.79            H6-C5-C2-O3=279.49            
H7-C5-C2-O1=342.07            H7-C5-C2-O3=161.78            N8-C5-C2-O1=218.35            N8-C5-C2-O3= 38.06            
H9-N8-C5-C2= 53.41            H9-N8-C5-H6=173.12            H9-N8-C5-H7=291.46            C10-N8-C5-C2=239.32           
C10-N8-C5-H6=359.03           C10-N8-C5-H7=117.36           O11-C10-N8-C5=353.71          O11-C10-N8-H9=179.74          
C12-C10-N8-C5=177.73          C12-C10-N8-H9=  3.76          
           -------------------------------------------------
          |                Final Singlepoint                |
           -------------------------------------------------

          ...................................................
          :                      SETUP                      :
          :.................................................:
          :  # basis functions                  97          :
          :  # atomic orbitals                  97          :
          :  # shells                           57          :
          :  # electrons                       108          :
          :  max. iterations                   250          :
          :  Hamiltonian                  GFN2-xTB          :
          :  restarted?                      false          :
          :  GBSA solvation                  false          :
          :  PC potential                    false          :
          :  electronic temp.          300.0000000     K    :
          :  accuracy                    1.0000000          :
          :  -> integral cutoff          0.2500000E+02      :
          :  -> integral neglect         0.1000000E-07      :
          :  -> SCF convergence          0.1000000E-05 Eh   :
          :  -> wf. convergence          0.1000000E-03 e    :
          :  Broyden damping             0.4000000          :
          :  net charge                          0          :
          :  unpaired electrons                  0          :
          ...................................................

 iter      E             dE          RMSdq      gap      omega  full diag
   1    -62.3301696 -0.623302E+02  0.151E-05    4.22       0.0  T
   2    -62.3301696 -0.229505E-11  0.965E-06    4.22    1703.2  T
   3    -62.3301696 -0.146372E-11  0.626E-06    4.22    2627.9  T

   *** convergence criteria satisfied after 3 iterations ***

         #    Occupation            Energy/Eh            Energy/eV
      -------------------------------------------------------------
         1        2.0000           -0.7356832             -20.0190
       ...           ...                  ...                  ...
        48        2.0000           -0.4311344             -11.7318
        49        2.0000           -0.4277881             -11.6407
        50        2.0000           -0.4177157             -11.3666
        51        2.0000           -0.4143269             -11.2744
        52        2.0000           -0.4130877             -11.2407
        53        2.0000           -0.4027845             -10.9603
        54        2.0000           -0.3985276             -10.8445 (HOMO)
        55                         -0.2434699              -6.6252 (LUMO)
        56                         -0.2327464              -6.3334
        57                         -0.2321493              -6.3171
        58                         -0.2298918              -6.2557
        59                         -0.2229078              -6.0656
       ...                                ...                  ...
        97                          0.6543342              17.8053
      -------------------------------------------------------------
                  HL-Gap            0.1550577 Eh            4.2193 eV
             Fermi-level           -0.3209988 Eh           -8.7348 eV

 SCC (total)                   0 d,  0 h,  0 min,  0.009 sec
 SCC setup                      ...        0 min,  0.000 sec (  2.536%)
 Dispersion                     ...        0 min,  0.000 sec (  1.859%)
 classical contributions        ...        0 min,  0.000 sec (  0.129%)
 integral evaluation            ...        0 min,  0.001 sec ( 16.121%)
 iterations                     ...        0 min,  0.005 sec ( 56.738%)
 molecular gradient             ...        0 min,  0.002 sec ( 18.006%)
 printout                       ...        0 min,  0.000 sec (  4.531%)

         :::::::::::::::::::::::::::::::::::::::::::::::::::::
         ::                     SUMMARY                     ::
         :::::::::::::::::::::::::::::::::::::::::::::::::::::
         :: total energy             -61.556665696402 Eh    ::
         :: gradient norm              0.000176911684 Eh/a0 ::
         :: HOMO-LUMO gap              4.219335203060 eV    ::
         ::.................................................::
         :: SCC energy               -62.330043610914 Eh    ::
         :: -> isotropic ES            0.130699652053 Eh    ::
         :: -> anisotropic ES          0.002801199134 Eh    ::
         :: -> anisotropic XC          0.020217312533 Eh    ::
         :: -> dispersion             -0.035787710545 Eh    ::
         :: repulsion energy           0.773377914513 Eh    ::
         :: add. restraining           0.000000000000 Eh    ::
         :: total charge               0.000000000000 e     ::
         :::::::::::::::::::::::::::::::::::::::::::::::::::::

           -------------------------------------------------
          |                Property Printout                |
           -------------------------------------------------

    * Orbital Energies and Occupations

         #    Occupation            Energy/Eh            Energy/eV
      -------------------------------------------------------------
         1        2.0000           -0.7356832             -20.0190
       ...           ...                  ...                  ...
        42        2.0000           -0.4775772             -12.9955
        43        2.0000           -0.4659305             -12.6786
        44        2.0000           -0.4634274             -12.6105
        45        2.0000           -0.4413288             -12.0092
        46        2.0000           -0.4364481             -11.8764
        47        2.0000           -0.4332112             -11.7883
        48        2.0000           -0.4311344             -11.7318
        49        2.0000           -0.4277881             -11.6407
        50        2.0000           -0.4177157             -11.3666
        51        2.0000           -0.4143269             -11.2744
        52        2.0000           -0.4130877             -11.2407
        53        2.0000           -0.4027845             -10.9603
        54        2.0000           -0.3985276             -10.8445 (HOMO)
        55                         -0.2434699              -6.6252 (LUMO)
        56                         -0.2327464              -6.3334
        57                         -0.2321493              -6.3171
        58                         -0.2298918              -6.2557
        59                         -0.2229078              -6.0656
        60                         -0.1047820              -2.8513
        61                         -0.0271113              -0.7377
        62                         -0.0132644              -0.3609
        63                          0.0165846               0.4513
        64                          0.0440550               1.1988
        65                          0.0712700               1.9394
       ...                                ...                  ...
        97                          0.6543342              17.8053
      -------------------------------------------------------------
                  HL-Gap            0.1550577 Eh            4.2193 eV
             Fermi-level           -0.3209988 Eh           -8.7348 eV

     #   Z          covCN         q      C6AA      α(0)
     1   8 O        0.857    -0.381    21.298     6.187
     2   6 C        2.686     0.354    20.982     7.496
     3   8 O        1.657    -0.373    20.326     6.086
     4   1 H        0.802     0.359     0.568     1.184
     5   6 C        3.740    -0.044    21.434     6.606
     6   1 H        0.924     0.109     1.703     2.041
     7   1 H        0.924     0.075     2.030     2.228
     8   7 N        2.686    -0.171    24.695     7.381
     9   1 H        0.860     0.170     1.272     1.766
    10   6 C        2.750     0.284    22.180     7.712
    11   8 O        0.858    -0.406    21.801     6.260
    12   6 C        3.742    -0.025    21.090     6.552
    13   1 H        0.924     0.079     1.989     2.205
    14   1 H        0.924     0.065     2.139     2.287
    15   7 N        2.688    -0.173    24.740     7.387
    16   1 H        0.860     0.203     1.093     1.638
    17   6 C        2.754     0.265    22.530     7.773
    18   8 O        0.858    -0.456    22.824     6.405
    19   6 C        3.789     0.028    20.122     6.389
    20   7 N        2.631    -0.356    29.168     8.021
    21   1 H        0.860     0.149     1.409     1.860
    22   1 H        0.860     0.155     1.368     1.832
    23   1 H        0.923     0.056     2.251     2.347
    24   6 C        3.809    -0.071    21.855     6.655
    25   1 H        0.924     0.040     2.452     2.449
    26   1 H        0.924     0.068     2.109     2.271
    27   6 C        2.971     0.010    27.801     8.649
    28   6 C        2.925    -0.039    28.976     8.828
    29   1 H        0.926     0.036     2.500     2.473
    30   6 C        2.919    -0.029    28.720     8.788
    31   1 H        0.926     0.034     2.529     2.487
    32   6 C        2.920    -0.032    28.800     8.800
    33   1 H        0.926     0.032     2.561     2.502
    34   6 C        2.919    -0.031    28.784     8.798
    35   1 H        0.926     0.030     2.582     2.513
    36   6 C        2.924    -0.040    28.993     8.830
    37   1 H        0.925     0.024     2.666     2.554

 Mol. C6AA /au·bohr⁶  :      14780.006372
 Mol. C8AA /au·bohr⁸  :     339484.726979
 Mol. α(0) /au        :        186.238446


Wiberg/Mayer (AO) data.
largest (>0.10) Wiberg bond orders for each atom

 ---------------------------------------------------------------------------
     #   Z sym  total        # sym  WBO       # sym  WBO       # sym  WBO
 ---------------------------------------------------------------------------
     1   8 O    2.056 --     2 C    1.769     3 O    0.176
     2   6 C    3.929 --     1 O    1.769     3 O    1.181     5 C    0.942
     3   8 O    2.229 --     2 C    1.181     4 H    0.796     1 O    0.176
     4   1 H    0.871 --     3 O    0.796
     5   6 C    3.961 --     8 N    0.998     7 H    0.960     2 C    0.942
                             6 H    0.939
     6   1 H    0.988 --     5 C    0.939
     7   1 H    0.994 --     5 C    0.960
     8   7 N    3.437 --    10 C    1.236     5 C    0.998     9 H    0.943
                            11 O    0.197
     9   1 H    0.971 --     8 N    0.943
    10   6 C    3.957 --    11 O    1.714     8 N    1.236    12 C    0.942
    11   8 O    2.039 --    10 C    1.714     8 N    0.197
    12   6 C    3.964 --    15 N    0.991    14 H    0.960    13 H    0.960
                            10 C    0.942
    13   1 H    0.993 --    12 C    0.960
    14   1 H    0.996 --    12 C    0.960
    15   7 N    3.462 --    17 C    1.296    12 C    0.991    16 H    0.913
                            18 O    0.190
    16   1 H    0.959 --    15 N    0.913
    17   6 C    3.946 --    18 O    1.621    15 N    1.296    19 C    0.943
    18   8 O    2.004 --    17 C    1.621    15 N    0.190
    19   6 C    3.983 --    20 N    1.018    24 C    0.961    17 C    0.943
                            23 H    0.943
    20   7 N    3.031 --    19 C    1.018    21 H    0.962    22 H    0.959
    21   1 H    0.978 --    20 N    0.962
    22   1 H    0.976 --    20 N    0.959
    23   1 H    0.997 --    19 C    0.943
    24   6 C    3.993 --    27 C    1.013    25 H    0.973    26 H    0.964
                            19 C    0.961
    25   1 H    0.998 --    24 C    0.973
    26   1 H    0.995 --    24 C    0.964
    27   6 C    3.988 --    36 C    1.416    28 C    1.406    24 C    1.013
                            32 C    0.109
    28   6 C    3.991 --    30 C    1.451    27 C    1.406    29 H    0.969
                            34 C    0.112
    29   1 H    0.999 --    28 C    0.969
    30   6 C    3.992 --    28 C    1.451    32 C    1.434    31 H    0.971
                            36 C    0.110
    31   1 H    0.999 --    30 C    0.971
    32   6 C    3.992 --    34 C    1.443    30 C    1.434    33 H    0.971
                            27 C    0.109
    33   1 H    0.998 --    32 C    0.971
    34   6 C    3.992 --    32 C    1.443    36 C    1.440    35 H    0.971
                            28 C    0.112
    35   1 H    0.999 --    34 C    0.971
    36   6 C    3.991 --    34 C    1.440    27 C    1.416    37 H    0.969
                            30 C    0.110
    37   1 H    0.999 --    36 C    0.969
 ---------------------------------------------------------------------------

Topologies differ in total number of bonds
Writing topology from bond orders to xtbtopo.mol

molecular dipole:
                 x           y           z       tot (Debye)
 q only:        2.191      -1.572       1.065
   full:        3.016      -1.818       1.078       9.360
molecular quadrupole (traceless):
                xx          xy          yy          xz          yz          zz
 q only:       -9.095       6.530       6.989      -3.338     -11.040       2.107
  q+dip:       -9.853       7.936       6.965      -5.170      -9.227       2.888
   full:      -10.833       7.928       6.638      -4.985     -11.283       4.194

           -------------------------------------------------
          |                Geometry Summary                 |
           -------------------------------------------------

      molecular mass/u    :      279.2922888
   center of mass at/Å    :        0.0000000      -0.0000000       0.0000000
  moments of inertia/u·Å² :        0.8209738E+03   0.3165416E+04   0.3769452E+04
rotational constants/cm⁻¹ :        0.2053370E-01   0.5325567E-02   0.4472170E-02

 * 32 selected distances

     #   Z          #   Z                                           value/Å
     1   8 O        2   6 C                                       1.1998729
     2   6 C        3   8 O                                       1.3228489
     3   8 O        4   1 H                                       0.9859636 (min)
     5   6 C        6   1 H                                       1.0959241
     5   6 C        7   1 H                                       1.0947400
     5   6 C        8   7 N                                       1.4425132
     8   7 N        9   1 H                                       1.0078007
     8   7 N       10   6 C                                       1.3538707
    10   6 C       11   8 O                                       1.2067897
    12   6 C       13   1 H                                       1.0960464
    12   6 C       14   1 H                                       1.0934032
    12   6 C       15   7 N                                       1.4475697
    15   7 N       16   1 H                                       1.0135475
    15   7 N       17   6 C                                       1.3399086
    17   6 C       18   8 O                                       1.2211545
    19   6 C       20   7 N                                       1.4565444 (max)
    20   7 N       21   1 H                                       1.0166993
    20   7 N       22   1 H                                       1.0145142
    19   6 C       23   1 H                                       1.0985771
    24   6 C       25   1 H                                       1.0929199
    24   6 C       26   1 H                                       1.0905980
    27   6 C       28   6 C                                       1.3902608
    28   6 C       29   1 H                                       1.0806606
    28   6 C       30   6 C                                       1.3827030
    30   6 C       31   1 H                                       1.0799308
    30   6 C       32   6 C                                       1.3853039
    32   6 C       33   1 H                                       1.0797353
    32   6 C       34   6 C                                       1.3836695
    34   6 C       35   1 H                                       1.0802367
    27   6 C       36   6 C                                       1.3890018
    34   6 C       36   6 C                                       1.3845276
    36   6 C       37   1 H                                       1.0818271

 * 6 distinct bonds (by element types)

   Z      Z             #   av. dist./Å        max./Å        min./Å
   1 H    6 C          12     1.0887166     1.0985771     1.0797353
   6 C    6 C           6     1.3859111     1.3902608     1.3827030
   1 H    7 N           4     1.0131404     1.0166993     1.0078007
   6 C    7 N           5     1.4080813     1.4565444     1.3399086
   1 H    8 O           1     0.9859636     0.9859636     0.9859636
   6 C    8 O           4     1.2376665     1.3228489     1.1998729


optimized geometry written to: xtbopt.xyz


           -------------------------------------------------
          | TOTAL ENERGY              -61.556665696402 Eh   |
          | GRADIENT NORM               0.000176911684 Eh/α |
          | HOMO-LUMO GAP               4.219335203060 eV   |
           -------------------------------------------------

------------------------------------------------------------------------
 * finished run on 2026/10/01 at 17:55:05.850     
------------------------------------------------------------------------
 total:
 * wall-time:     0 d,  0 h,  0 min,  0.090 sec
 *  cpu-time:     0 d,  0 h,  0 min,  1.319 sec
 * ratio c/w:    14.647 speedup
 SCF:
 * wall-time:     0 d,  0 h,  0 min,  0.035 sec
 *  cpu-time:     0 d,  0 h,  0 min,  0.514 sec
 * ratio c/w:    14.877 speedup
 ANC optimizer:
 * wall-time:     0 d,  0 h,  0 min,  0.033 sec
 *  cpu-time:     0 d,  0 h,  0 min,  0.476 sec
 * ratio c/w:    14.581 speedup


--- STDERR ---
normal termination of xtb
Note: The following floating-point exceptions are signalling: IEEE_UNDERFLOW_FLAG IEEE_DENORMAL
