34
frame_0000
O      -1.992139493030897      2.190235237926029      0.488060817369974
C      -1.039399043918581      2.264983219976892     -0.490055523347781
O      -0.083169643254140      3.023534038547171     -0.456397319532073
H      -2.352644466522545      1.423046264159686      0.416594451922762
C      -1.367460564311247      1.075623294929275     -1.575751001856560
H      -0.500604558860373      1.240447662538934     -2.539151167438581
H      -2.389526256677363      1.471954664804967     -2.080545729177220
N      -1.167242894717779     -0.207057615716315     -1.296661525718615
H      -0.190781466918917     -0.606799773833851     -1.468551051612249
C      -2.013365053312445     -0.766438357411674     -0.514100658758467
O      -2.986451633375455     -0.172666124461899      0.063525134421554
C      -1.730078525370900     -2.215300877223067      0.095945582626785
H      -2.739523861279811     -2.683429537304661      0.367863041773725
N      -0.931490181825568     -3.006130836175969     -0.890137754437068
H      -0.747099745131331     -3.798682651806985     -0.664366783675033
H      -1.500477041125174     -2.855513856095636     -1.699176324375382
C      -0.657238938722458     -2.077796133815077      1.301226106672470
H      -0.202418564573676     -2.924755483161976      1.515194787742654
H      -1.409157347100179     -1.947677420336933      2.204611967039420
C       0.312270829960542     -1.071720054761432      1.417220635657396
C      -0.072318129946262      0.369914257684546      1.855456011857495
H      -0.879835057976178      0.877185602307488      2.617618932313033
N       1.012283637237464      1.199875240481210      1.539208377447826
H       0.847845754371268      2.098721592848580      2.000219034282150
C       1.786147617055495      0.537321914908469      0.803032421264271
C       2.891137384176113      0.981354078669337     -0.036216328091024
H       3.343937039778900      1.972413563715684      0.231973584878703
C       3.645100665082254      0.004483149761153     -0.800221620886064
H       4.548975372216510      0.622375030689650     -1.436548786446245
C       3.118600535148926     -1.082855492919205     -0.911883907387662
H       3.740181886529974     -1.711393994136190     -1.696675750686096
C       1.933832871413705     -1.668870646412109     -0.300471789250933
H       1.698322655112984     -2.568527018976261     -0.619736712557492
C       1.407125581335662     -0.680910093289132      0.403340960880418
