      -----------------------------------------------------------      
     |                   =====================                   |     
     |                           x T B                           |     
     |                   =====================                   |     
     |                         S. Grimme                         |     
     |          Mulliken Center for Theoretical Chemistry        |     
     |                    University of Bonn                     |     
      -----------------------------------------------------------      

   * xtb version 6.7.1-6.fc44.fc44 compiled by Fedora project on Sun Jan 18 23:32:34 UTC 2026

   xtb is free software: you can redistribute it and/or modify it under
   the terms of the GNU Lesser General Public License as published by
   the Free Software Foundation, either version 3 of the License, or
   (at your option) any later version.
   
   xtb is distributed in the hope that it will be useful,
   but WITHOUT ANY WARRANTY; without even the implied warranty of
   MERCHANTABILITY or FITNESS FOR A PARTICULAR PURPOSE.  See the
   GNU Lesser General Public License for more details.
   
   Cite this work as:
   * C. Bannwarth, E. Caldeweyher, S. Ehlert, A. Hansen, P. Pracht,
     J. Seibert, S. Spicher, S. Grimme, WIREs Comput. Mol. Sci., 2020, 11,
     e01493. DOI: 10.1002/wcms.1493
   
   for GFN2-xTB:
   * C. Bannwarth, S. Ehlert and S. Grimme., J. Chem. Theory Comput., 2019,
     15, 1652-1671. DOI: 10.1021/acs.jctc.8b01176
   for GFN1-xTB:
   * S. Grimme, C. Bannwarth, P. Shushkov, J. Chem. Theory Comput., 2017,
     13, 1989-2009. DOI: 10.1021/acs.jctc.7b00118
   for GFN0-xTB:
   * P. Pracht, E. Caldeweyher, S. Ehlert, S. Grimme, ChemRxiv, 2019, preprint.
     DOI: 10.26434/chemrxiv.8326202.v1
   for GFN-FF:
   * S. Spicher and S. Grimme, Angew. Chem. Int. Ed., 2020, 59, 15665-15673.
     DOI: 10.1002/anie.202004239
   
   for ALPB and GBSA implicit solvation:
   * S. Ehlert, M. Stahn, S. Spicher, S. Grimme, J. Chem. Theory Comput.,
     2021, 17, 4250-4261. DOI: 10.1021/acs.jctc.1c00471
   
   for ddCOSMO and CPCM-X implicit solvation:
   * M. Stahn, S. Ehlert, S. Grimme, J. Phys. Chem. A,
     2023, XX, XXXX-XXXX. DOI: 10.1021/acs.jpca.3c04382
   
   for DFT-D4:
   * E. Caldeweyher, C. Bannwarth and S. Grimme, J. Chem. Phys., 2017,
     147, 034112. DOI: 10.1063/1.4993215
   * E. Caldeweyher, S. Ehlert, A. Hansen, H. Neugebauer, S. Spicher,
     C. Bannwarth and S. Grimme, J. Chem. Phys., 2019, 150, 154122.
     DOI: 10.1063/1.5090222
   * E. Caldeweyher, J.-M. Mewes, S. Ehlert and S. Grimme, Phys. Chem. Chem. Phys.
     2020, 22, 8499-8512. DOI: 10.1039/D0CP00502A
   
   for sTDA-xTB:
   * S. Grimme and C. Bannwarth, J. Chem. Phys., 2016, 145, 054103.
     DOI: 10.1063/1.4959605
   
   in the mass-spec context:
   * V. Asgeirsson, C. Bauer and S. Grimme, Chem. Sci., 2017, 8, 4879.
     DOI: 10.1039/c7sc00601b
   * J. Koopman and S. Grimme, ACS Omega 2019, 4, 12, 15120-15133.
     DOI: 10.1021/acsomega.9b02011
   
   for metadynamics refer to:
   * S. Grimme, J. Chem. Theory Comput., 2019, 155, 2847-2862
     DOI: 10.1021/acs.jctc.9b00143
   
   for SPH calculations refer to:
   * S. Spicher and S. Grimme, J. Chem. Theory Comput., 2021, 17, 1701-1714
     DOI: 10.1021/acs.jctc.0c01306
   
   for ONIOM refer to:
   * C. Plett, A. Katbashev, S. Ehlert, S. Grimme, M. Bursch,
     Phys. Chem. Chem. Phys., 2023, 25, 17860-17868. DOI: 10.1039/D3CP02178E
   
   for DIPRO refer to:
   * J. Kohn, N. Gildemeister, S. Grimme, D. Fazzi, A. Hansen,
     J. Chem. Phys., 2023, just accepted.
   
   for PTB refer to:
   * S. Grimme, M. Mueller, A. Hansen, J. Chem. Phys., 2023, 158, 124111.
     DOI: 10.1063/5.0137838
   
   with help from (in alphabetical order)
   P. Atkinson, C. Bannwarth, F. Bohle, G. Brandenburg, E. Caldeweyher
   M. Checinski, S. Dohm, S. Ehlert, S. Ehrlich, I. Gerasimov, C. Hölzer
   A. Katbashev, J. Kohn, J. Koopman, C. Lavigne, S. Lehtola, F. März, M. Müller,
   F. Musil, H. Neugebauer, J. Pisarek, C. Plett, P. Pracht, F. Pultar,
   J. Seibert, P. Shushkov, S. Spicher, M. Stahn, M. Steiner, T. Strunk,
   J. Stückrath, T. Rose, and J. Unsleber
   
 * started run on 2026/10/01 at 18:05:00.421     
   ID    Z sym.   atoms
    1    8 O      1, 3, 11
    2    6 C      2, 5, 10, 12, 17, 20, 21, 25, 26, 28, 30, 32, 34
    3    1 H      4, 6, 7, 9, 13, 15, 16, 18, 19, 22, 24, 27, 29, 31, 33
    4    7 N      8, 14, 23

           -------------------------------------------------
          |                Calculation Setup                |
           -------------------------------------------------

          program call               : /usr/bin/xtb input.xyz --opt --gfn 2 --chrg 0 --uhf 0
          hostname                   : fedora
          coordinate file            : input.xyz
          omp threads                :                    16


           -------------------------------------------------
          |                 G F N 2 - x T B                 |
           -------------------------------------------------

        Reference                      10.1021/acs.jctc.8b01176
      * Hamiltonian:
        H0-scaling (s, p, d)           1.850000    2.230000    2.230000
        zeta-weighting                 0.500000
      * Dispersion:
        s8                             2.700000
        a1                             0.520000
        a2                             5.000000
        s9                             5.000000
      * Repulsion:
        kExp                           1.500000    1.000000
        rExp                           1.000000
      * Coulomb:
        alpha                          2.000000
        third order                    shell-resolved
        anisotropic                    true
        a3                             3.000000
        a5                             4.000000
        cn-shift                       1.200000
        cn-exp                         4.000000
        max-rad                        5.000000


          ...................................................
          :                      SETUP                      :
          :.................................................:
          :  # basis functions                  91          :
          :  # atomic orbitals                  91          :
          :  # shells                           53          :
          :  # electrons                       100          :
          :  max. iterations                   250          :
          :  Hamiltonian                  GFN2-xTB          :
          :  restarted?                      false          :
          :  GBSA solvation                  false          :
          :  PC potential                    false          :
          :  electronic temp.          300.0000000     K    :
          :  accuracy                    1.0000000          :
          :  -> integral cutoff          0.2500000E+02      :
          :  -> integral neglect         0.1000000E-07      :
          :  -> SCF convergence          0.1000000E-05 Eh   :
          :  -> wf. convergence          0.1000000E-03 e    :
          :  Broyden damping             0.4000000          :
          :  net charge                          0          :
          :  unpaired electrons                  0          :
          ...................................................

 iter      E             dE          RMSdq      gap      omega  full diag
   1    -56.7562168 -0.567562E+02  0.447E+00    1.98       0.0  T
   2    -56.9261669 -0.169950E+00  0.276E+00    2.32       1.0  T
   3    -56.9298934 -0.372641E-02  0.186E+00    2.63       1.0  T
   4    -56.9144597  0.154337E-01  0.140E+00    2.32       1.0  T
   5    -56.9731678 -0.587081E-01  0.359E-01    2.37       1.0  T
   6    -56.9769763 -0.380847E-02  0.136E-01    2.35       1.0  T
   7    -56.9774094 -0.433115E-03  0.631E-02    2.38       1.0  T
   8    -56.9774652 -0.558587E-04  0.265E-02    2.37       1.0  T
   9    -56.9774700 -0.474475E-05  0.921E-03    2.38       1.9  T
  10    -56.9774706 -0.649491E-06  0.320E-03    2.38       5.4  T
  11    -56.9774707 -0.100107E-06  0.135E-03    2.38      12.7  T
  12    -56.9774708 -0.198702E-07  0.571E-04    2.38      30.0  T
  13    -56.9774708 -0.353966E-08  0.215E-04    2.38      79.8  T

   *** convergence criteria satisfied after 13 iterations ***

         #    Occupation            Energy/Eh            Energy/eV
      -------------------------------------------------------------
         1        2.0000           -0.7469719             -20.3261
       ...           ...                  ...                  ...
        44        2.0000           -0.4142587             -11.2726
        45        2.0000           -0.4115472             -11.1988
        46        2.0000           -0.4049473             -11.0192
        47        2.0000           -0.3891073             -10.5881
        48        2.0000           -0.3867600             -10.5243
        49        2.0000           -0.3849392             -10.4747
        50        2.0000           -0.3529382              -9.6039 (HOMO)
        51                         -0.2655100              -7.2249 (LUMO)
        52                         -0.2640146              -7.1842
        53                         -0.2442510              -6.6464
        54                         -0.2093802              -5.6975
        55                         -0.1688894              -4.5957
       ...                                ...                  ...
        91                          1.0762050              29.2850
      -------------------------------------------------------------
                  HL-Gap            0.0874282 Eh            2.3790 eV
             Fermi-level           -0.3092241 Eh           -8.4144 eV

 SCC (total)                   0 d,  0 h,  0 min,  0.796 sec
 SCC setup                      ...        0 min,  0.000 sec (  0.011%)
 Dispersion                     ...        0 min,  0.009 sec (  1.082%)
 classical contributions        ...        0 min,  0.002 sec (  0.262%)
 integral evaluation            ...        0 min,  0.020 sec (  2.539%)
 iterations                     ...        0 min,  0.742 sec ( 93.305%)
 molecular gradient             ...        0 min,  0.022 sec (  2.737%)
 printout                       ...        0 min,  0.000 sec (  0.052%)

         :::::::::::::::::::::::::::::::::::::::::::::::::::::
         ::                     SUMMARY                     ::
         :::::::::::::::::::::::::::::::::::::::::::::::::::::
         :: total energy             -56.124476760382 Eh    ::
         :: gradient norm              0.799969885353 Eh/a0 ::
         :: HOMO-LUMO gap              2.379043023341 eV    ::
         ::.................................................::
         :: SCC energy               -56.976413369096 Eh    ::
         :: -> isotropic ES            0.099661262463 Eh    ::
         :: -> anisotropic ES          0.003324163502 Eh    ::
         :: -> anisotropic XC          0.024531391798 Eh    ::
         :: -> dispersion             -0.040765535233 Eh    ::
         :: repulsion energy           0.851936608714 Eh    ::
         :: add. restraining           0.000000000000 Eh    ::
         :: total charge              -0.000000000000 e     ::
         :::::::::::::::::::::::::::::::::::::::::::::::::::::

      ----------------------------------------------------------- 
     |                   =====================                   |
     |                        A N C O P T                        |
     |                   =====================                   |
     |               Approximate Normal Coordinate               |
     |                Rational Function Optimizer                |
      ----------------------------------------------------------- 
      ----------------------------------------------------------- 
     |                   =====================                   |
     |                        A N C O P T                        |
     |                   =====================                   |
     |               Approximate Normal Coordinate               |
     |                Rational Function Optimizer                |
      ----------------------------------------------------------- 

          ...................................................
          :                      SETUP                      :
          :.................................................:
          :   optimization level            normal          :
          :   max. optcycles                   200          :
          :   ANC micro-cycles                  20          :
          :   degrees of freedom                96          :
          :.................................................:
          :   RF solver                   davidson          :
          :   write xtbopt.log                true          :
          :   linear?                        false          :
          :   energy convergence         0.5000000E-05 Eh   :
          :   grad. convergence          0.1000000E-02 Eh/α :
          :   maxmium RF displ.          1.0000000          :
          :   Hlow (freq-cutoff)         0.1000000E-01      :
          :   Hmax (freq-cutoff)         5.0000000          :
          :   S6 in model hess.         20.0000000          :
          ...................................................

generating ANC from exact Hessian ...
Using Lindh-Hessian (1995)
 Shifting diagonal of input Hessian by    9.6009525013237527E-003
 Lowest  eigenvalues of input Hessian
    0.000000    0.000000    0.000000    0.000000    0.000000    0.000000
    0.010000    0.010496    0.011287    0.011878    0.012546    0.014162
    0.015459    0.016167    0.016883    0.019612    0.020075    0.021534
 Highest eigenvalues
    2.075270    2.191332    2.230662    2.339622    2.382557    2.570419


........................................................................
.............................. CYCLE    1 ..............................
........................................................................

 iter      E             dE          RMSdq      gap      omega  full diag
   1    -56.9774708 -0.569775E+02  0.863E-05    2.38       0.0  T
   2    -56.9774708 -0.360956E-10  0.559E-05    2.38     306.6  T
   3    -56.9774708 -0.110205E-10  0.465E-05    2.38     368.6  T
     SCC iter.                  ...        0 min,  0.015 sec
     gradient                   ...        0 min,  0.036 sec
 * total energy  :   -56.1244768 Eh     change       -0.4673595E-09 Eh
   gradient norm :     0.7999696 Eh/α   predicted     0.0000000E+00 (-100.00%)
   displ. norm   :     0.4984162 α      lambda       -0.3443351E+00
   maximum displ.:     0.1745192 α      in ANC's #95, #89, #63, ...

........................................................................
.............................. CYCLE    2 ..............................
........................................................................

 iter      E             dE          RMSdq      gap      omega  full diag
   1    -57.0837843 -0.570838E+02  0.621E-01    2.92       0.0  T
   2    -57.0866983 -0.291394E-02  0.388E-01    2.91       1.0  T
   3    -57.0871085 -0.410194E-03  0.212E-01    2.90       1.0  T
   4    -57.0872078 -0.992854E-04  0.793E-02    2.89       1.0  T
   5    -57.0873723 -0.164538E-03  0.248E-02    2.90       1.0  T
   6    -57.0873874 -0.151072E-04  0.128E-02    2.89       1.3  T
   7    -57.0873898 -0.239144E-05  0.619E-03    2.90       2.8  T
   8    -57.0873905 -0.644532E-06  0.221E-03    2.90       7.7  T
   9    -57.0873905 -0.576501E-07  0.731E-04    2.90      23.5  T
  10    -57.0873905 -0.553663E-08  0.350E-04    2.90      49.0  T
     SCC iter.                  ...        0 min,  0.552 sec
     gradient                   ...        0 min,  0.019 sec
 * total energy  :   -56.3644403 Eh     change       -0.2399636E+00 Eh
   gradient norm :     0.3423428 Eh/α   predicted    -0.2149546E+00 ( -10.42%)
   displ. norm   :     0.5278851 α      lambda       -0.1468687E+00
   maximum displ.:     0.2022565 α      in ANC's #63, #66, #95, ...

........................................................................
.............................. CYCLE    3 ..............................
........................................................................

 iter      E             dE          RMSdq      gap      omega  full diag
   1    -57.2033607 -0.572034E+02  0.613E-01    3.26       0.0  T
   2    -57.2053448 -0.198405E-02  0.379E-01    3.25       1.0  T
   3    -57.2054661 -0.121314E-03  0.187E-01    3.26       1.0  T
   4    -57.2056761 -0.210031E-03  0.432E-02    3.25       1.0  T
   5    -57.2057181 -0.420205E-04  0.142E-02    3.25       1.2  T
   6    -57.2057211 -0.295874E-05  0.751E-03    3.25       2.3  T
   7    -57.2057217 -0.584341E-06  0.237E-03    3.25       7.2  T
   8    -57.2057217 -0.728374E-07  0.108E-03    3.25      15.9  T
   9    -57.2057218 -0.190150E-07  0.353E-04    3.25      48.6  T
  10    -57.2057218 -0.637101E-09  0.162E-04    3.25     105.8  T
     SCC iter.                  ...        0 min,  0.297 sec
     gradient                   ...        0 min,  0.006 sec
 * total energy  :   -56.4597734 Eh     change       -0.9533311E-01 Eh
   gradient norm :     0.1027105 Eh/α   predicted    -0.9389786E-01 (  -1.51%)
   displ. norm   :     0.4314206 α      lambda       -0.3001343E-01
   maximum displ.:     0.1217488 α      in ANC's #25, #35, #39, ...

........................................................................
.............................. CYCLE    4 ..............................
........................................................................

 iter      E             dE          RMSdq      gap      omega  full diag
   1    -57.2261171 -0.572261E+02  0.403E-01    3.27       0.0  T
   2    -57.2262765 -0.159396E-03  0.238E-01    3.27       1.0  T
   3    -57.2261777  0.987299E-04  0.786E-02    3.30       1.0  T
   4    -57.2263124 -0.134677E-03  0.155E-02    3.29       1.1  T
   5    -57.2263181 -0.565866E-05  0.601E-03    3.29       2.9  T
   6    -57.2263184 -0.367360E-06  0.274E-03    3.29       6.3  T
   7    -57.2263185 -0.657732E-07  0.816E-04    3.29      21.0  T
   8    -57.2263185 -0.705231E-08  0.348E-04    3.28      49.2  T
     SCC iter.                  ...        0 min,  0.227 sec
     gradient                   ...        0 min,  0.002 sec
 * total energy  :   -56.4785079 Eh     change       -0.1873451E-01 Eh
   gradient norm :     0.0384857 Eh/α   predicted    -0.1779982E-01 (  -4.99%)
   displ. norm   :     0.2727365 α      lambda       -0.5790539E-02
   maximum displ.:     0.0839309 α      in ANC's #35, #8, #32, ...

........................................................................
.............................. CYCLE    5 ..............................
........................................................................

 iter      E             dE          RMSdq      gap      omega  full diag
   1    -57.2324015 -0.572324E+02  0.185E-01    3.29       0.0  T
   2    -57.2324492 -0.476841E-04  0.108E-01    3.29       1.0  T
   3    -57.2324218  0.274637E-04  0.447E-02    3.31       1.0  T
   4    -57.2324626 -0.408762E-04  0.814E-03    3.31       2.1  T
   5    -57.2324642 -0.155617E-05  0.311E-03    3.30       5.5  T
   6    -57.2324643 -0.825811E-07  0.130E-03    3.30      13.2  T
   7    -57.2324643 -0.215258E-07  0.512E-04    3.30      33.5  T
   8    -57.2324643 -0.453923E-08  0.190E-04    3.30      90.0  T
     SCC iter.                  ...        0 min,  0.301 sec
     gradient                   ...        0 min,  0.003 sec
 * total energy  :   -56.4820935 Eh     change       -0.3585577E-02 Eh
   gradient norm :     0.0268607 Eh/α   predicted    -0.3110662E-02 ( -13.25%)
   displ. norm   :     0.2047466 α      lambda       -0.1854502E-02
   maximum displ.:     0.0834093 α      in ANC's #8, #5, #12, ...

........................................................................
.............................. CYCLE    6 ..............................
........................................................................

 iter      E             dE          RMSdq      gap      omega  full diag
   1    -57.2337511 -0.572338E+02  0.107E-01    3.30       0.0  T
   2    -57.2337707 -0.196388E-04  0.621E-02    3.30       1.0  T
   3    -57.2337644  0.630430E-05  0.240E-02    3.31       1.0  T
   4    -57.2337740 -0.963169E-05  0.591E-03    3.31       2.9  T
   5    -57.2337750 -0.982652E-06  0.191E-03    3.31       9.0  T
   6    -57.2337750 -0.177551E-07  0.954E-04    3.31      18.0  T
   7    -57.2337750 -0.140451E-07  0.300E-04    3.31      57.2  T
     SCC iter.                  ...        0 min,  0.038 sec
     gradient                   ...        0 min,  0.002 sec
 * total energy  :   -56.4832032 Eh     change       -0.1109682E-02 Eh
   gradient norm :     0.0191974 Eh/α   predicted    -0.9661597E-03 ( -12.93%)
   displ. norm   :     0.1709767 α      lambda       -0.1083013E-02
   maximum displ.:     0.0741336 α      in ANC's #5, #35, #11, ...

........................................................................
.............................. CYCLE    7 ..............................
........................................................................

 iter      E             dE          RMSdq      gap      omega  full diag
   1    -57.2402290 -0.572402E+02  0.813E-02    3.32       0.0  T
   2    -57.2402441 -0.150944E-04  0.469E-02    3.33       1.0  T
   3    -57.2402399  0.419813E-05  0.217E-02    3.33       1.0  T
   4    -57.2402476 -0.763025E-05  0.504E-03    3.33       3.4  T
   5    -57.2402482 -0.646710E-06  0.166E-03    3.33      10.3  T
   6    -57.2402482 -0.349818E-08  0.882E-04    3.33      19.5  T
   7    -57.2402482 -0.130610E-07  0.253E-04    3.33      67.8  T
     SCC iter.                  ...        0 min,  0.123 sec
     gradient                   ...        0 min,  0.006 sec
 * total energy  :   -56.4836934 Eh     change       -0.4901898E-03 Eh
   gradient norm :     0.0117204 Eh/α   predicted    -0.5573379E-03 (  13.70%)
   displ. norm   :     0.0758364 α      lambda       -0.3736787E-03
   maximum displ.:     0.0369506 α      in ANC's #5, #13, #31, ...

........................................................................
.............................. CYCLE    8 ..............................
........................................................................

 iter      E             dE          RMSdq      gap      omega  full diag
   1    -57.2415883 -0.572416E+02  0.448E-02    3.35       0.0  T
   2    -57.2415899 -0.166797E-05  0.267E-02    3.35       1.0  T
   3    -57.2415873  0.258733E-05  0.989E-03    3.34       1.7  T
   4    -57.2415905 -0.318915E-05  0.202E-03    3.35       8.5  T
   5    -57.2415906 -0.703045E-07  0.941E-04    3.35      18.2  T
   6    -57.2415906 -0.705871E-08  0.440E-04    3.35      39.0  T
     SCC iter.                  ...        0 min,  0.176 sec
     gradient                   ...        0 min,  0.050 sec
 * total energy  :   -56.4838830 Eh     change       -0.1896386E-03 Eh
   gradient norm :     0.0070201 Eh/α   predicted    -0.1879396E-03 (  -0.90%)
   displ. norm   :     0.0553816 α      lambda       -0.1434426E-03
   maximum displ.:     0.0290253 α      in ANC's #13, #5, #4, ...

........................................................................
.............................. CYCLE    9 ..............................
........................................................................

 iter      E             dE          RMSdq      gap      omega  full diag
   1    -57.2403292 -0.572403E+02  0.292E-02    3.35       0.0  T
   2    -57.2403303 -0.113362E-05  0.177E-02    3.34       1.0  T
   3    -57.2403300  0.328713E-06  0.427E-03    3.34       4.0  T
   4    -57.2403305 -0.530131E-06  0.102E-03    3.34      16.8  T
   5    -57.2403305 -0.124060E-07  0.502E-04    3.34      34.2  T
   6    -57.2403305 -0.275230E-08  0.169E-04    3.34     101.4  T
     SCC iter.                  ...        0 min,  0.331 sec
     gradient                   ...        0 min,  0.025 sec
 * total energy  :   -56.4839518 Eh     change       -0.6878115E-04 Eh
   gradient norm :     0.0056909 Eh/α   predicted    -0.7194519E-04 (   4.60%)
   displ. norm   :     0.0413075 α      lambda       -0.6267978E-04
   maximum displ.:     0.0202706 α      in ANC's #13, #5, #4, ...

........................................................................
.............................. CYCLE   10 ..............................
........................................................................

 iter      E             dE          RMSdq      gap      omega  full diag
   1    -57.2405227 -0.572405E+02  0.163E-02    3.35       0.0  T
   2    -57.2405232 -0.548321E-06  0.967E-03    3.35       1.8  T
   3    -57.2405231  0.134732E-06  0.361E-03    3.35       4.8  T
   4    -57.2405233 -0.236651E-06  0.949E-04    3.35      18.1  T
   5    -57.2405234 -0.185075E-07  0.350E-04    3.35      49.0  T
     SCC iter.                  ...        0 min,  0.162 sec
     gradient                   ...        0 min,  0.016 sec
 * total energy  :   -56.4839921 Eh     change       -0.4031235E-04 Eh
   gradient norm :     0.0029495 Eh/α   predicted    -0.3139712E-04 ( -22.12%)
   displ. norm   :     0.0464380 α      lambda       -0.3452182E-04
   maximum displ.:     0.0228618 α      in ANC's #13, #16, #4, ...

........................................................................
.............................. CYCLE   11 ..............................
........................................................................

 iter      E             dE          RMSdq      gap      omega  full diag
   1    -57.2405302 -0.572405E+02  0.156E-02    3.35       0.0  T
   2    -57.2405306 -0.370506E-06  0.905E-03    3.35       1.9  T
   3    -57.2405305  0.905321E-07  0.284E-03    3.35       6.0  T
   4    -57.2405307 -0.160342E-06  0.724E-04    3.35      23.7  T
   5    -57.2405307 -0.925994E-08  0.350E-04    3.35      49.0  T
     SCC iter.                  ...        0 min,  0.062 sec
     gradient                   ...        0 min,  0.005 sec
 * total energy  :   -56.4840136 Eh     change       -0.2149568E-04 Eh
   gradient norm :     0.0027212 Eh/α   predicted    -0.1730075E-04 ( -19.52%)
   displ. norm   :     0.0398693 α      lambda       -0.1891415E-04
   maximum displ.:     0.0170764 α      in ANC's #13, #16, #4, ...

........................................................................
.............................. CYCLE   12 ..............................
........................................................................

 iter      E             dE          RMSdq      gap      omega  full diag
   1    -57.2407249 -0.572407E+02  0.146E-02    3.35       0.0  T
   2    -57.2407251 -0.142851E-06  0.852E-03    3.35       2.0  T
   3    -57.2407250  0.217936E-07  0.163E-03    3.35      10.5  T
   4    -57.2407251 -0.514168E-07  0.567E-04    3.35      30.3  T
   5    -57.2407251 -0.284973E-08  0.281E-04    3.35      61.1  T
     SCC iter.                  ...        0 min,  0.229 sec
     gradient                   ...        0 min,  0.049 sec
 * total energy  :   -56.4840252 Eh     change       -0.1160947E-04 Eh
   gradient norm :     0.0024050 Eh/α   predicted    -0.9474117E-05 ( -18.39%)
   displ. norm   :     0.0399278 α      lambda       -0.1643665E-04
   maximum displ.:     0.0215488 α      in ANC's #13, #16, #11, ...

........................................................................
.............................. CYCLE   13 ..............................
........................................................................

 iter      E             dE          RMSdq      gap      omega  full diag
   1    -57.2409578 -0.572410E+02  0.158E-02    3.35       0.0  T
   2    -57.2409580 -0.155590E-06  0.921E-03    3.35       1.9  T
   3    -57.2409579  0.421600E-07  0.175E-03    3.35       9.8  T
   4    -57.2409580 -0.728812E-07  0.528E-04    3.35      32.5  T
   5    -57.2409580 -0.326025E-08  0.270E-04    3.35      63.5  T
     SCC iter.                  ...        0 min,  0.295 sec
     gradient                   ...        0 min,  0.027 sec
 * total energy  :   -56.4840343 Eh     change       -0.9061380E-05 Eh
   gradient norm :     0.0018955 Eh/α   predicted    -0.8233582E-05 (  -9.14%)
   displ. norm   :     0.0352186 α      lambda       -0.9613986E-05
   maximum displ.:     0.0160412 α      in ANC's #16, #2, #13, ...

........................................................................
.............................. CYCLE   14 ..............................
........................................................................

 iter      E             dE          RMSdq      gap      omega  full diag
   1    -57.2410823 -0.572411E+02  0.150E-02    3.36       0.0  T
   2    -57.2410825 -0.127783E-06  0.880E-03    3.36       1.9  T
   3    -57.2410824  0.105257E-06  0.220E-03    3.36       7.8  T
   4    -57.2410825 -0.144641E-06  0.513E-04    3.36      33.4  T
   5    -57.2410825 -0.258123E-08  0.260E-04    3.36      66.1  T
     SCC iter.                  ...        0 min,  0.185 sec
     gradient                   ...        0 min,  0.043 sec
 * total energy  :   -56.4840409 Eh     change       -0.6603971E-05 Eh
   gradient norm :     0.0017867 Eh/α   predicted    -0.4811622E-05 ( -27.14%)
   displ. norm   :     0.0224981 α      lambda       -0.5749666E-05
   maximum displ.:     0.0107717 α      in ANC's #5, #2, #13, ...

........................................................................
.............................. CYCLE   15 ..............................
........................................................................

 iter      E             dE          RMSdq      gap      omega  full diag
   1    -57.2413166 -0.572413E+02  0.936E-03    3.36       0.0  T
   2    -57.2413167 -0.764251E-07  0.548E-03    3.36       3.1  T
   3    -57.2413166  0.657781E-07  0.185E-03    3.36       9.3  T
   4    -57.2413167 -0.810359E-07  0.476E-04    3.36      36.1  T
   5    -57.2413167 -0.574580E-08  0.158E-04    3.36     108.8  T
     SCC iter.                  ...        0 min,  0.550 sec
     gradient                   ...        0 min,  0.043 sec
 * total energy  :   -56.4840453 Eh     change       -0.4426288E-05 Eh
   gradient norm :     0.0011515 Eh/α   predicted    -0.2880433E-05 ( -34.92%)
   displ. norm   :     0.0226423 α      lambda       -0.3754120E-05
   maximum displ.:     0.0098375 α      in ANC's #2, #5, #13, ...

........................................................................
.............................. CYCLE   16 ..............................
........................................................................

 iter      E             dE          RMSdq      gap      omega  full diag
   1    -57.2411019 -0.572411E+02  0.780E-03    3.36       0.0  T
   2    -57.2411020 -0.459327E-07  0.453E-03    3.36       3.8  T
   3    -57.2411019  0.172428E-07  0.103E-03    3.36      16.6  T
   4    -57.2411020 -0.239150E-07  0.293E-04    3.36      58.5  T
   5    -57.2411020 -0.218876E-08  0.130E-04    3.36     131.7  T
     SCC iter.                  ...        0 min,  0.166 sec
     gradient                   ...        0 min,  0.007 sec
 * total energy  :   -56.4840485 Eh     change       -0.3193169E-05 Eh
   gradient norm :     0.0008673 Eh/α   predicted    -0.1882320E-05 ( -41.05%)
   displ. norm   :     0.0272738 α      lambda       -0.2260780E-05
   maximum displ.:     0.0144148 α      in ANC's #2, #13, #16, ...

   *** GEOMETRY OPTIMIZATION CONVERGED AFTER 16 ITERATIONS ***

------------------------------------------------------------------------
 total energy gain   :        -0.3595717 Eh     -225.6347 kcal/mol
 total RMSD          :         0.2887419 a0        0.1528 Å
 total power (kW/mol):       -59.0034682 (step) -218.7923 (real)
------------------------------------------------------------------------

 ANCopt (total)                0 d,  0 h,  0 min,  4.315 sec
 optimizer setup                ...        0 min,  0.000 sec (  0.004%)
 model hessian                  ...        0 min,  0.011 sec (  0.244%)
 ANC generation                 ...        0 min,  0.020 sec (  0.462%)
 coordinate transformation      ...        0 min,  0.000 sec (  0.005%)
 single point calculation       ...        0 min,  4.236 sec ( 98.174%)
 optimization log               ...        0 min,  0.002 sec (  0.037%)
 hessian update                 ...        0 min,  0.037 sec (  0.848%)
 rational function              ...        0 min,  0.005 sec (  0.105%)

================
 final structure:
================
34
 xtb: 6.7.1-6.fc44.fc44
O           -1.91908395851388        2.19835262786645        0.42173757826277
C           -1.04142553346962        2.21577684704218       -0.56282271665349
O           -0.13091181986017        2.99612797365971       -0.60690727097162
H           -2.54767897341235        1.42331057260740        0.35338876339584
C           -1.28388646555221        1.17019856154023       -1.67027684645676
H           -0.55122812283123        1.32209153773513       -2.46190078341130
H           -2.29486553994259        1.33258053055812       -2.06574199837946
N           -1.17627502034119       -0.19130377252009       -1.18708276683341
H           -0.35100651723827       -0.73391826576648       -1.40834289605820
C           -2.03477368421824       -0.74497188288538       -0.32476261752282
O           -3.01551993243738       -0.15997579291606        0.12562575124384
C           -1.66396417934332       -2.15971067093300        0.08868344939312
H           -2.59492821319835       -2.68712471353592        0.35685867739601
N           -0.92384800459244       -2.80595585001538       -0.98445526787765
H           -0.61429704724347       -3.72544952927959       -0.68949359613250
H           -1.51559389566202       -2.92704142135692       -1.80033747027068
C           -0.78540671643396       -2.04697615081391        1.36339215306714
H           -0.23719646471533       -2.98448291363521        1.48267195551163
H           -1.44530002840839       -1.91778181852251        2.22210907687290
C            0.15902698170958       -0.88993511780177        1.30759433779985
C           -0.00331510353641        0.30474478300394        1.95023946177699
H           -0.77436055768153        0.60240839355228        2.63496651337822
N            1.00236220050115        1.16505987326114        1.61577185928214
H            1.04967554011551        2.13377583841959        1.88206220912388
C            1.82650493532310        0.55360121671088        0.71938463886413
C            2.95995824522748        1.02722907551796        0.07074298939296
H            3.31109783484276        2.03424148616183        0.23554205372086
C            3.60484566935438        0.17138120403194       -0.79455255343898
H            4.48648735914230        0.50762714504084       -1.31942995573871
C            3.14032710731074       -1.13020133548380       -1.00829339586372
H            3.67877610043474       -1.77091277420686       -1.69164410130790
C            2.01780543758667       -1.60630776468811       -0.37023494037124
H            1.66426082635180       -2.61006578255857       -0.54678827126860
C            1.33707690220074       -0.75944926367964        0.50673809299079

 Bond Distances (Angstroems)
 ---------------------------
O1-C2=1.3191         O1-H4=1.0002         C2-O1=1.3191         C2-O3=1.2000         C2-C5=1.5422         O3-C2=1.2000         
H4-O1=1.0002         C5-C2=1.5422         C5-H6=1.0893         C5-H7=1.0977         C5-N8=1.4487         H6-C5=1.0893         
H7-C5=1.0977         N8-C5=1.4487         N8-H9=1.0122         N8-C10=1.3368        H9-N8=1.0122         C10-N8=1.3368        
C10-O11=1.2276       C10-C12=1.5198       O11-C10=1.2276       C12-C10=1.5198       C12-H13=1.1031       C12-N14=1.4550       
C12-C17=1.5522       H13-C12=1.1031       N14-C12=1.4550       N14-H15=1.0140       N14-H16=1.0151       H15-N14=1.0140       
H16-N14=1.0151       C17-C12=1.5522       C17-H18=1.0926       C17-H19=1.0907       C17-C20=1.4946       H18-C17=1.0926       
H19-C17=1.0907       C20-C17=1.4946       C20-C21=1.3662       C20-C34=1.4305       C21-C20=1.3662       C21-H22=1.0733       
C21-N23=1.3651       H22-C21=1.0733       N23-C21=1.3651       N23-H24=1.0058       N23-C25=1.3626       H24-N23=1.0058       
C25-N23=1.3626       C25-C26=1.3892       C25-C34=1.4173       C26-C25=1.3892       C26-H27=1.0791       C26-C28=1.3773       
H27-C26=1.0791       C28-C26=1.3773       C28-H29=1.0797       C28-C30=1.3984       H29-C28=1.0797       C30-C28=1.3984       
C30-H31=1.0805       C30-C32=1.3762       H31-C30=1.0805       C32-C30=1.3762       C32-H33=1.0787       C32-C34=1.3963       
H33-C32=1.0787       C34-C20=1.4305       C34-C25=1.4173       C34-C32=1.3963       
 C  H  Rav=1.0865 sigma=0.0091  Rmin=1.0733  Rmax=1.1031    10
 C  C  Rav=1.4384 sigma=0.0662  Rmin=1.3662  Rmax=1.5522    12
 N  H  Rav=1.0118 sigma=0.0036  Rmin=1.0058  Rmax=1.0151     4
 N  C  Rav=1.3936 sigma=0.0486  Rmin=1.3368  Rmax=1.4550     5
 O  H  Rav=1.0002 sigma=0.0000  Rmin=1.0002  Rmax=1.0002     1
 O  C  Rav=1.2489 sigma=0.0509  Rmin=1.2000  Rmax=1.3191     3

 selected bond angles (degree)
 --------------------
H4-O1-C2=112.17                O3-C2-O1=122.74                C5-C2-O1=114.99                C5-C2-O3=122.26                
H6-C5-C2=108.76                H7-C5-C2=107.65                H7-C5-H6=109.70                N8-C5-C2=112.70                
N8-C5-H6=108.87                N8-C5-H7=109.12                H9-N8-C5=119.44                C10-N8-C5=123.83               
C10-N8-H9=116.27               O11-C10-N8=123.53              C12-C10-N8=113.85              C12-C10-O11=122.60             

 selected dihedral angles (degree)
 ---------------------------------
O3-C2-O1-H4=186.36            C5-C2-O1-H4=  7.29            H6-C5-C2-O1=175.82            H6-C5-C2-O3=356.74            
H7-C5-C2-O1= 57.03            H7-C5-C2-O3=237.95            N8-C5-C2-O1=296.64            N8-C5-C2-O3=117.57            
H9-N8-C5-C2=255.40            H9-N8-C5-H6= 16.16            H9-N8-C5-H7=135.86            C10-N8-C5-C2= 67.25           
C10-N8-C5-H6=188.01           C10-N8-C5-H7=307.72           O11-C10-N8-C5=  1.35          O11-C10-N8-H9=173.44          
C12-C10-N8-C5=183.23          C12-C10-N8-H9=355.32          
           -------------------------------------------------
          |                Final Singlepoint                |
           -------------------------------------------------

          ...................................................
          :                      SETUP                      :
          :.................................................:
          :  # basis functions                  91          :
          :  # atomic orbitals                  91          :
          :  # shells                           53          :
          :  # electrons                       100          :
          :  max. iterations                   250          :
          :  Hamiltonian                  GFN2-xTB          :
          :  restarted?                      false          :
          :  GBSA solvation                  false          :
          :  PC potential                    false          :
          :  electronic temp.          300.0000000     K    :
          :  accuracy                    1.0000000          :
          :  -> integral cutoff          0.2500000E+02      :
          :  -> integral neglect         0.1000000E-07      :
          :  -> SCF convergence          0.1000000E-05 Eh   :
          :  -> wf. convergence          0.1000000E-03 e    :
          :  Broyden damping             0.4000000          :
          :  net charge                          0          :
          :  unpaired electrons                  0          :
          ...................................................

 iter      E             dE          RMSdq      gap      omega  full diag
   1    -57.2411020 -0.572411E+02  0.662E-05    3.36       0.0  T
   2    -57.2411020 -0.310294E-10  0.489E-05    3.36     350.5  T
   3    -57.2411020 -0.516849E-10  0.228E-05    3.36     751.8  T

   *** convergence criteria satisfied after 3 iterations ***

         #    Occupation            Energy/Eh            Energy/eV
      -------------------------------------------------------------
         1        2.0000           -0.7393263             -20.1181
       ...           ...                  ...                  ...
        44        2.0000           -0.4204008             -11.4397
        45        2.0000           -0.4135792             -11.2541
        46        2.0000           -0.4116777             -11.2023
        47        2.0000           -0.4046892             -11.0122
        48        2.0000           -0.3942830             -10.7290
        49        2.0000           -0.3802876             -10.3482
        50        2.0000           -0.3619380              -9.8488 (HOMO)
        51                         -0.2384330              -6.4881 (LUMO)
        52                         -0.2323117              -6.3215
        53                         -0.2280500              -6.2056
        54                         -0.1957932              -5.3278
        55                         -0.1588412              -4.3223
       ...                                ...                  ...
        91                          0.7185128              19.5517
      -------------------------------------------------------------
                  HL-Gap            0.1235050 Eh            3.3607 eV
             Fermi-level           -0.3001855 Eh           -8.1685 eV

 SCC (total)                   0 d,  0 h,  0 min,  0.289 sec
 SCC setup                      ...        0 min,  0.000 sec (  0.060%)
 Dispersion                     ...        0 min,  0.000 sec (  0.033%)
 classical contributions        ...        0 min,  0.000 sec (  0.004%)
 integral evaluation            ...        0 min,  0.012 sec (  4.271%)
 iterations                     ...        0 min,  0.270 sec ( 93.368%)
 molecular gradient             ...        0 min,  0.006 sec (  2.138%)
 printout                       ...        0 min,  0.000 sec (  0.120%)

         :::::::::::::::::::::::::::::::::::::::::::::::::::::
         ::                     SUMMARY                     ::
         :::::::::::::::::::::::::::::::::::::::::::::::::::::
         :: total energy             -56.484048506751 Eh    ::
         :: gradient norm              0.000867934705 Eh/a0 ::
         :: HOMO-LUMO gap              3.360742443740 eV    ::
         ::.................................................::
         :: SCC energy               -57.240039302751 Eh    ::
         :: -> isotropic ES            0.097734731327 Eh    ::
         :: -> anisotropic ES          0.003398390326 Eh    ::
         :: -> anisotropic XC          0.019438552287 Eh    ::
         :: -> dispersion             -0.040962891898 Eh    ::
         :: repulsion energy           0.755990796000 Eh    ::
         :: add. restraining           0.000000000000 Eh    ::
         :: total charge              -0.000000000000 e     ::
         :::::::::::::::::::::::::::::::::::::::::::::::::::::

           -------------------------------------------------
          |                Property Printout                |
           -------------------------------------------------

    * Orbital Energies and Occupations

         #    Occupation            Energy/Eh            Energy/eV
      -------------------------------------------------------------
         1        2.0000           -0.7393263             -20.1181
       ...           ...                  ...                  ...
        38        2.0000           -0.4687043             -12.7541
        39        2.0000           -0.4619597             -12.5706
        40        2.0000           -0.4529329             -12.3249
        41        2.0000           -0.4498781             -12.2418
        42        2.0000           -0.4484845             -12.2039
        43        2.0000           -0.4261618             -11.5965
        44        2.0000           -0.4204008             -11.4397
        45        2.0000           -0.4135792             -11.2541
        46        2.0000           -0.4116777             -11.2023
        47        2.0000           -0.4046892             -11.0122
        48        2.0000           -0.3942830             -10.7290
        49        2.0000           -0.3802876             -10.3482
        50        2.0000           -0.3619380              -9.8488 (HOMO)
        51                         -0.2384330              -6.4881 (LUMO)
        52                         -0.2323117              -6.3215
        53                         -0.2280500              -6.2056
        54                         -0.1957932              -5.3278
        55                         -0.1588412              -4.3223
        56                         -0.0705656              -1.9202
        57                         -0.0145219              -0.3952
        58                          0.0240638               0.6548
        59                          0.0309962               0.8434
        60                          0.0630135               1.7147
        61                          0.0786991               2.1415
       ...                                ...                  ...
        91                          0.7185128              19.5517
      -------------------------------------------------------------
                  HL-Gap            0.1235050 Eh            3.3607 eV
             Fermi-level           -0.3001855 Eh           -8.1685 eV

     #   Z          covCN         q      C6AA      α(0)
     1   8 O        1.654    -0.381    20.479     6.109
     2   6 C        2.685     0.358    20.918     7.485
     3   8 O        0.856    -0.385    21.392     6.201
     4   1 H        0.800     0.366     0.552     1.168
     5   6 C        3.737    -0.039    21.350     6.594
     6   1 H        0.925     0.078     2.000     2.212
     7   1 H        0.924     0.077     2.015     2.220
     8   7 N        2.688    -0.164    24.550     7.359
     9   1 H        0.860     0.213     1.044     1.601
    10   6 C        2.758     0.268    22.476     7.764
    11   8 O        0.858    -0.463    22.971     6.426
    12   6 C        3.787     0.033    20.029     6.374
    13   1 H        0.923     0.030     2.583     2.514
    14   7 N        2.633    -0.346    28.920     7.987
    15   1 H        0.860     0.151     1.392     1.848
    16   1 H        0.860     0.140     1.469     1.899
    17   6 C        3.808    -0.061    21.664     6.626
    18   1 H        0.924     0.051     2.311     2.377
    19   1 H        0.924     0.048     2.349     2.397
    20   6 C        3.055    -0.043    29.013     8.834
    21   6 C        3.039    -0.007    28.158     8.704
    22   1 H        0.926     0.038     2.472     2.459
    23   7 N        2.777    -0.099    23.166     7.148
    24   1 H        0.860     0.174     1.250     1.752
    25   6 C        3.093     0.046    26.866     8.495
    26   6 C        2.909    -0.049    29.216     8.863
    27   1 H        0.926     0.032     2.555     2.500
    28   6 C        2.924    -0.037    28.931     8.821
    29   1 H        0.926     0.028     2.617     2.530
    30   6 C        2.919    -0.045    29.107     8.847
    31   1 H        0.926     0.023     2.682     2.561
    32   6 C        2.911    -0.044    29.095     8.845
    33   1 H        0.926     0.032     2.559     2.501
    34   6 C        3.116    -0.024    28.434     8.734

 Mol. C6AA /au·bohr⁶  :      13332.870627
 Mol. C8AA /au·bohr⁸  :     312470.014195
 Mol. α(0) /au        :        178.752016


Wiberg/Mayer (AO) data.
largest (>0.10) Wiberg bond orders for each atom

 ---------------------------------------------------------------------------
     #   Z sym  total        # sym  WBO       # sym  WBO       # sym  WBO
 ---------------------------------------------------------------------------
     1   8 O    2.227 --     2 C    1.199     4 H    0.764     3 O    0.181
     2   6 C    3.930 --     3 O    1.767     1 O    1.199     5 C    0.928
     3   8 O    2.058 --     2 C    1.767     1 O    0.181
     4   1 H    0.866 --     1 O    0.764
     5   6 C    3.966 --     8 N    0.991     6 H    0.974     7 H    0.954
                             2 C    0.928
     6   1 H    0.994 --     5 C    0.974
     7   1 H    0.994 --     5 C    0.954
     8   7 N    3.479 --    10 C    1.310     5 C    0.991     9 H    0.911
                            11 O    0.191
     9   1 H    0.955 --     8 N    0.911
    10   6 C    3.947 --    11 O    1.600     8 N    1.310    12 C    0.954
    11   8 O    2.005 --    10 C    1.600     8 N    0.191
    12   6 C    3.983 --    14 N    1.016    13 H    0.955    10 C    0.954
                            17 C    0.951
    13   1 H    0.998 --    12 C    0.955
    14   7 N    3.017 --    12 C    1.016    16 H    0.965    15 H    0.959
    15   1 H    0.977 --    14 N    0.959
    16   1 H    0.980 --    14 N    0.965
    17   6 C    3.992 --    20 C    1.017    19 H    0.975    18 H    0.964
                            12 C    0.951
    18   1 H    0.997 --    17 C    0.964
    19   1 H    0.997 --    17 C    0.975
    20   6 C    3.972 --    21 C    1.575    34 C    1.204    17 C    1.017
    21   6 C    3.954 --    20 C    1.575    23 N    1.209    22 H    0.969
    22   1 H    0.998 --    21 C    0.969
    23   7 N    3.557 --    21 C    1.209    25 C    1.182    24 H    0.941
    24   1 H    0.969 --    23 N    0.941
    25   6 C    3.959 --    26 C    1.336    34 C    1.245    23 N    1.182
    26   6 C    3.990 --    28 C    1.497    25 C    1.336    27 H    0.968
                            32 C    0.113
    27   1 H    0.998 --    26 C    0.968
    28   6 C    3.991 --    26 C    1.497    30 C    1.369    29 H    0.972
    29   1 H    0.999 --    28 C    0.972
    30   6 C    3.991 --    32 C    1.506    28 C    1.369    31 H    0.972
    31   1 H    0.999 --    30 C    0.972
    32   6 C    3.992 --    30 C    1.506    34 C    1.326    33 H    0.967
                            26 C    0.113
    33   1 H    0.998 --    32 C    0.967
    34   6 C    3.984 --    32 C    1.326    25 C    1.245    20 C    1.204
 ---------------------------------------------------------------------------

Topologies differ in total number of bonds
Writing topology from bond orders to xtbtopo.mol

molecular dipole:
                 x           y           z       tot (Debye)
 q only:        0.154      -1.253      -0.411
   full:       -0.157      -1.696      -0.494       4.508
molecular quadrupole (traceless):
                xx          xy          yy          xz          yz          zz
 q only:       -7.063       2.641      -1.933       4.618       2.756       8.996
  q+dip:       -7.885       7.225       1.018       4.216       5.800       6.867
   full:       -8.242       6.204      -0.005       6.667       4.537       8.247

           -------------------------------------------------
          |                Geometry Summary                 |
           -------------------------------------------------

      molecular mass/u    :      261.2770023
   center of mass at/Å    :        0.0142925      -0.0075453       0.0143454
  moments of inertia/u·Å² :        0.9642114E+03   0.1213260E+04   0.1625491E+04
rotational constants/cm⁻¹ :        0.1748334E-01   0.1389449E-01   0.1037080E-01

 * 31 selected distances

     #   Z          #   Z                                           value/Å
     1   8 O        2   6 C                                       1.3190706
     2   6 C        3   8 O                                       1.1999695
     1   8 O        4   1 H                                       1.0002468 (min)
     5   6 C        6   1 H                                       1.0892788
     5   6 C        7   1 H                                       1.0976518
     5   6 C        8   7 N                                       1.4487048
     8   7 N        9   1 H                                       1.0121536
     8   7 N       10   6 C                                       1.3368488
    10   6 C       11   8 O                                       1.2275722
    12   6 C       13   1 H                                       1.1030765
    12   6 C       14   7 N                                       1.4550024 (max)
    14   7 N       15   1 H                                       1.0140478
    14   7 N       16   1 H                                       1.0151300
    17   6 C       18   1 H                                       1.0925572
    17   6 C       19   1 H                                       1.0906628
    20   6 C       21   6 C                                       1.3662387
    21   6 C       22   1 H                                       1.0732968
    21   6 C       23   7 N                                       1.3650633
    23   7 N       24   1 H                                       1.0057633
    23   7 N       25   6 C                                       1.3625723
    25   6 C       26   6 C                                       1.3891638
    26   6 C       27   1 H                                       1.0791348
    26   6 C       28   6 C                                       1.3773497
    28   6 C       29   1 H                                       1.0797453
    28   6 C       30   6 C                                       1.3984206
    30   6 C       31   1 H                                       1.0804660
    30   6 C       32   6 C                                       1.3761727
    32   6 C       33   1 H                                       1.0787471
    20   6 C       34   6 C                                       1.4304542
    25   6 C       34   6 C                                       1.4173427
    32   6 C       34   6 C                                       1.3962961

 * 6 distinct bonds (by element types)

   Z      Z             #   av. dist./Å        max./Å        min./Å
   1 H    6 C          10     1.0864617     1.1030765     1.0732968
   6 C    6 C           8     1.3939298     1.4304542     1.3662387
   1 H    7 N           4     1.0117737     1.0151300     1.0057633
   6 C    7 N           5     1.3936383     1.4550024     1.3368488
   1 H    8 O           1     1.0002468     1.0002468     1.0002468
   6 C    8 O           3     1.2488708     1.3190706     1.1999695


optimized geometry written to: xtbopt.xyz


           -------------------------------------------------
          | TOTAL ENERGY              -56.484048506751 Eh   |
          | GRADIENT NORM               0.000867934705 Eh/α |
          | HOMO-LUMO GAP               3.360742443740 eV   |
           -------------------------------------------------

------------------------------------------------------------------------
 * finished run on 2026/10/01 at 18:05:05.851     
------------------------------------------------------------------------
 total:
 * wall-time:     0 d,  0 h,  0 min,  5.430 sec
 *  cpu-time:     0 d,  0 h,  1 min, 13.419 sec
 * ratio c/w:    13.521 speedup
 SCF:
 * wall-time:     0 d,  0 h,  0 min,  0.796 sec
 *  cpu-time:     0 d,  0 h,  0 min, 10.649 sec
 * ratio c/w:    13.379 speedup
 ANC optimizer:
 * wall-time:     0 d,  0 h,  0 min,  4.605 sec
 *  cpu-time:     0 d,  0 h,  1 min,  2.372 sec
 * ratio c/w:    13.544 speedup


--- STDERR ---
normal termination of xtb
Note: The following floating-point exceptions are signalling: IEEE_UNDERFLOW_FLAG IEEE_DENORMAL
