34
 energy: -56.484048506751 gnorm: 0.000867934705 xtb: 6.7.1-6.fc44.fc44
O           -1.91908395851388        2.19835262786645        0.42173757826277
C           -1.04142553346962        2.21577684704218       -0.56282271665349
O           -0.13091181986017        2.99612797365971       -0.60690727097162
H           -2.54767897341235        1.42331057260740        0.35338876339584
C           -1.28388646555221        1.17019856154023       -1.67027684645676
H           -0.55122812283123        1.32209153773513       -2.46190078341130
H           -2.29486553994259        1.33258053055812       -2.06574199837946
N           -1.17627502034119       -0.19130377252009       -1.18708276683341
H           -0.35100651723827       -0.73391826576648       -1.40834289605820
C           -2.03477368421824       -0.74497188288538       -0.32476261752282
O           -3.01551993243738       -0.15997579291606        0.12562575124384
C           -1.66396417934332       -2.15971067093300        0.08868344939312
H           -2.59492821319835       -2.68712471353592        0.35685867739601
N           -0.92384800459244       -2.80595585001538       -0.98445526787765
H           -0.61429704724347       -3.72544952927959       -0.68949359613250
H           -1.51559389566202       -2.92704142135692       -1.80033747027068
C           -0.78540671643396       -2.04697615081391        1.36339215306714
H           -0.23719646471533       -2.98448291363521        1.48267195551163
H           -1.44530002840839       -1.91778181852251        2.22210907687290
C            0.15902698170958       -0.88993511780177        1.30759433779985
C           -0.00331510353641        0.30474478300394        1.95023946177699
H           -0.77436055768153        0.60240839355228        2.63496651337822
N            1.00236220050115        1.16505987326114        1.61577185928214
H            1.04967554011551        2.13377583841959        1.88206220912388
C            1.82650493532310        0.55360121671088        0.71938463886413
C            2.95995824522748        1.02722907551796        0.07074298939296
H            3.31109783484276        2.03424148616183        0.23554205372086
C            3.60484566935438        0.17138120403194       -0.79455255343898
H            4.48648735914230        0.50762714504084       -1.31942995573871
C            3.14032710731074       -1.13020133548380       -1.00829339586372
H            3.67877610043474       -1.77091277420686       -1.69164410130790
C            2.01780543758667       -1.60630776468811       -0.37023494037124
H            1.66426082635180       -2.61006578255857       -0.54678827126860
C            1.33707690220074       -0.75944926367964        0.50673809299079
