34
frame_0067
O      -4.570099335448309      2.131146739615140     -1.197031131916831
C      -3.892339084334513      2.456929780837464     -2.050585570756431
O      -4.121352521595673      3.039701519085634     -2.929922369652799
H      -4.066922304855187      1.363303325065282     -0.427555969967671
C      -2.935575559497454      1.398333312544243     -2.362673636003040
H      -2.437502809529434      1.241011374180685     -3.645229159449781
H      -3.470859684458570      0.175612164651537     -2.194396210248278
N      -1.722257518357146      1.191634694845924     -1.626018374789057
H      -0.777513966202885      1.447489828346207     -1.760477921020649
C      -2.015015211405495      0.549637223659846     -0.251624070989864
O      -2.953646850791902      0.325393613237923      0.055655461282289
C      -0.684045881497631      0.440361834331367      0.497538610328467
H       0.095935362629905      0.778152576550004      0.010830933421833
N      -0.780612498298339      0.702172153133169      1.765416702435008
H      -0.126499039579953      0.338376025301408      2.336828784390533
H      -1.720346083029820      0.432129032465149      2.262739410749158
C      -0.221081108807601     -1.162087287412505      0.142542281719508
H      -0.304436103848671     -1.456387643085265     -0.799483799205547
H      -1.031234855649666     -1.905958122048912      0.694928461005430
C       1.030906992961184     -1.343223635891253      1.134638058034933
C       1.003685182870771     -2.073493301283684      2.236615929589463
H       0.435199863081821     -2.304508099273135      2.898696803463087
N       2.389170049239802     -1.957709872320961      2.547056293985599
H       2.991291543843611     -2.426575145057744      3.396286120077831
C       3.046003003790503     -1.530223611475604      1.743735924228602
C       4.710955277800054     -1.572376703729317      1.328727671328953
H       5.245829640149521     -1.720163654196708      2.061691030397341
C       5.121367864556958     -0.970954975943636      0.080405081735007
H       6.306133606957683     -0.646307984055367      0.042342124871745
C       4.267113723829653     -0.404020997839828     -1.043616691603974
H       4.585720681292703     -0.222360098006903     -1.705174400635397
C       2.667850221299254     -0.663438193504703     -0.811017348387001
H       2.100929933181571     -0.461207460491554     -1.449754997494592
C       2.163594493791231     -1.372135868118677      0.408274311564305
