34
 energy: -56.474845512547 gnorm: 0.000776934201 xtb: 6.7.1-6.fc44.fc44
O           -4.49460985186972        2.15050897505922       -0.99146008829098
C           -3.89531795393755        2.28674719290979       -2.15692845162167
O           -4.13341834153628        3.17710250547771       -2.92252569477337
H           -4.14542142025521        1.37352971649444       -0.47675681806676
C           -2.87226253066849        1.17770305548977       -2.49464331311527
H           -2.46984177390272        1.36673914451333       -3.48902686486566
H           -3.41271432398896        0.22296183385941       -2.49458035238753
N           -1.77537048343568        1.08889520331247       -1.54602748545426
H           -0.87656858560377        1.43621620725692       -1.83700523055781
C           -1.92477666600743        0.57439674826578       -0.31389358037441
O           -3.02276835483080        0.25194217698379        0.12495474129135
C           -0.64777806643261        0.34749740705744        0.46985226154406
H            0.17097654784483        0.95306816464238        0.06303599765686
N           -0.86696885147446        0.75291242042418        1.83975519674279
H           -0.13276878920122        0.38391763619507        2.43538035724799
H           -1.75873164377784        0.38780492583281        2.16128041915597
C           -0.28470894045252       -1.15898703709600        0.30273291299668
H           -0.20192650180107       -1.39026177825769       -0.76162175103768
H           -1.09491477861412       -1.75566859701226        0.72756801319936
C            0.99989857144167       -1.46025875017207        0.99239989161990
C            1.16583298316371       -1.97437493556413        2.24649871467389
H            0.42288720418591       -2.30708574783083        2.94708592026051
N            2.49791946563010       -2.05780856207435        2.54962359350774
H            2.87875008443462       -2.41913503566385        3.40699007370753
C            3.22360920845732       -1.58944398512575        1.49286571623136
C            4.59703242680814       -1.47114961164584        1.32216976608056
H            5.28318653621039       -1.77831378500100        2.09744136296774
C            5.04835903647675       -0.95055384748875        0.12918967146788
H            6.10958985642491       -0.84411533082316       -0.03778308175645
C            4.15908807464871       -0.55780272700524       -0.87527222214490
H            4.55634793609678       -0.15666971667637       -1.79593852685438
C            2.79769594693019       -0.67415170398871       -0.71273611585181
H            2.11958205939478       -0.37330315249908       -1.49825793003790
C            2.31045894372997       -1.19460646573471        0.48602123932541
